LAMMPS (23 Jun 2022 - Update 4)
  using 1 OpenMP thread(s) per MPI task
# created by fftool

# System settings
units real
boundary p p p  # Periodic boundary conditions

# definition of atoms, bonds, angles
atom_style full
bond_style harmonic
angle_style harmonic

# definition of pair potentials
special_bonds lj/coul 0.0 0.0 0.5
pair_style lj/cut/coul/long 10.0 10.0
pair_modify mix geometric tail yes
kspace_style pppm 1.0e-5

# read data file
read_data data.lmp
Reading data file ...
  orthogonal box = (0 0 0) to (15.660478 15.660478 15.660478)
  1 by 1 by 2 MPI processor grid
  reading atoms ...
  384 atoms
  scanning bonds ...
  1 = max bonds/atom
  scanning angles ...
  1 = max angles/atom
  reading bonds ...
  256 bonds
  reading angles ...
  128 angles
Finding 1-2 1-3 1-4 neighbors ...
  special bond factors lj:    0        0        0.5
  special bond factors coul:  0        0        0.5
     2 = max # of 1-2 neighbors
     1 = max # of 1-3 neighbors
     1 = max # of 1-4 neighbors
     2 = max # of special neighbors
  special bonds CPU = 0.000 seconds
  read_data CPU = 0.006 seconds

# definition of LJ parameters
pair_coeff    1    1     0.000000     0.000000  # Hw Hw
pair_coeff    2    2     0.163785     3.164813  # Ow-Ow

############################################

# remove energy hotspots
minimize 1.0e-4 1.0e-6 100 1000
WARNING: Using 'neigh_modify every 1 delay 0 check yes' setting during minimization (src/min.cpp:187)
PPPM initialization ...
  using 12-bit tables for long-range coulomb (src/kspace.cpp:342)
  G vector (1/distance) = 0.31203871
  grid = 15 15 15
  stencil order = 5
  estimated absolute RMS force accuracy = 0.0022228175
  estimated relative force accuracy = 6.6939488e-06
  using double precision FFTW3
  3d grid and FFT values/proc = 6776 1800
Generated 1 of 1 mixed pair_coeff terms from geometric mixing rule
Neighbor list info ...
  update every 1 steps, delay 0 steps, check yes
  max neighbors/atom: 2000, page size: 100000
  master list distance cutoff = 12
  ghost atom cutoff = 12
  binsize = 6, bins = 3 3 3
  1 neighbor lists, perpetual/occasional/extra = 1 0 0
  (1) pair lj/cut/coul/long, perpetual
      attributes: half, newton on
      pair build: half/bin/newton
      stencil: half/bin/3d
      bin: standard
Per MPI rank memory allocation (min/avg/max) = 8.677 | 8.677 | 8.677 Mbytes
   Step          Temp          E_pair         E_mol          TotEng         Press
         0   0              28981.693      6.3915617e-07  28981.693      2105057.7
       100   0             -1953.7701      151.89726     -1801.8729     -6930.3232
Loop time of 0.243514 on 2 procs for 100 steps with 384 atoms

99.5% CPU use with 2 MPI tasks x 1 OpenMP threads

Minimization stats:
  Stopping criterion = max iterations
  Energy initial, next-to-last, final =
      28981.6926877801  -1795.16007673775  -1801.87285819873
  Force two-norm initial, final = 138341.04 54.423336
  Force max component initial, final = 67989.371 10.746555
  Final line search alpha, max atom move = 0.0017531411 0.018840227
  Iterations, force evaluations = 100 171

MPI task timing breakdown:
Section |  min time  |  avg time  |  max time  |%varavg| %total
---------------------------------------------------------------
Pair    | 0.18232    | 0.18325    | 0.18418    |   0.2 | 75.25
Bond    | 0.00069743 | 0.001033   | 0.0013685  |   1.0 |  0.42
Kspace  | 0.036482   | 0.037746   | 0.039011   |   0.7 | 15.50
Neigh   | 0.0073358  | 0.0073361  | 0.0073363  |   0.0 |  3.01
Comm    | 0.012545   | 0.012596   | 0.012647   |   0.0 |  5.17
Output  | 1.4203e-05 | 1.6597e-05 | 1.899e-05  |   0.0 |  0.01
Modify  | 0          | 0          | 0          |   0.0 |  0.00
Other   |            | 0.001536   |            |       |  0.63

Nlocal:            192 ave         195 max         189 min
Histogram: 1 0 0 0 0 0 0 0 0 1
Nghost:         4822.5 ave        4830 max        4815 min
Histogram: 1 0 0 0 0 0 0 0 0 1
Neighs:          69367 ave       71255 max       67479 min
Histogram: 1 0 0 0 0 0 0 0 0 1

Total # of neighbors = 138734
Ave neighs/atom = 361.28646
Ave special neighs/atom = 2
Neighbor list builds = 5
Dangerous builds = 0
reset_timestep 0

# constrain water bonds and angles
fix fSHAKE all shake 0.0001 20 0 b 1 a 1
       0 = # of size 2 clusters
       0 = # of size 3 clusters
       0 = # of size 4 clusters
     128 = # of frozen angles
  find clusters CPU = 0.000 seconds

# remove Center of Mass movement every 100 steps
fix fMOM all momentum 100 linear 1 1 1

# define the neighbor list
neighbor 2.0 bin

# IMPORTANT: timestep and temperature and pressure
timestep 1.0
variable vTK equal 298.15
variable vPBAR equal 1.0

# randomize velocities
velocity all create ${vTK} 94711
velocity all create 298.15 94711

# thermostat (solving the ODE)
fix fTHERMO all nvt temp ${vTK} ${vTK} 100
fix fTHERMO all nvt temp 298.15 ${vTK} 100
fix fTHERMO all nvt temp 298.15 298.15 100

# print settings
thermo 1000
thermo_style custom step etotal ke pe temp press vol density
# trajectory output
dump dEQUI all custom 1000 equi.lammpstrj id element xu yu zu
dump_modify dEQUI element H O sort id

# equilibration
# 1 ns
run 1000000
PPPM initialization ...
  using 12-bit tables for long-range coulomb (src/kspace.cpp:342)
  G vector (1/distance) = 0.31203871
  grid = 15 15 15
  stencil order = 5
  estimated absolute RMS force accuracy = 0.0022228175
  estimated relative force accuracy = 6.6939488e-06
  using double precision FFTW3
  3d grid and FFT values/proc = 6776 1800
Generated 1 of 1 mixed pair_coeff terms from geometric mixing rule
Per MPI rank memory allocation (min/avg/max) = 9.715 | 9.715 | 9.715 Mbytes
   Step         TotEng         KinEng         PotEng          Temp          Press          Volume        Density
         0  -1727.1443      226.62577     -1953.7701      298.15        -1094.9529      3840.7412      0.99696119
      1000  -1292.961       231.43015     -1524.3912      304.47067     -2481.7324      3840.7412      0.99696119
      2000  -1307.1582      221.7864      -1528.9446      291.7833      -960.06988      3840.7412      0.99696119
      3000  -1312.6195      202.00473     -1514.6243      265.75843      1293.4186      3840.7412      0.99696119
      4000  -1281.7874      227.69475     -1509.4821      299.55636     -1644.1864      3840.7412      0.99696119
      5000  -1262.1665      220.07705     -1482.2435      289.53447      769.86237      3840.7412      0.99696119
      6000  -1280.3628      267.1294      -1547.4922      351.43678     -742.79465      3840.7412      0.99696119
      7000  -1303.7165      223.05342     -1526.77        293.45019     -399.54424      3840.7412      0.99696119
      8000  -1319.9151      230.86774     -1550.7829      303.73076      445.41932      3840.7412      0.99696119
      9000  -1330.2682      230.39954     -1560.6677      303.11478     -744.40692      3840.7412      0.99696119
     10000  -1304.0715      224.31948     -1528.3909      295.11583      835.68442      3840.7412      0.99696119
     11000  -1332.8257      210.33078     -1543.1565      276.71222      274.26527      3840.7412      0.99696119
     12000  -1269.6281      238.58027     -1508.2084      313.8774      -121.36773      3840.7412      0.99696119
     13000  -1313.6414      215.55694     -1529.1983      283.58778      461.71108      3840.7412      0.99696119
     14000  -1325.9436      229.87131     -1555.8149      302.41984     -1131.9347      3840.7412      0.99696119
     15000  -1347.8438      247.34941     -1595.1932      325.41412      29.475931      3840.7412      0.99696119
     16000  -1316.5724      233.18735     -1549.7597      306.78244      158.01972      3840.7412      0.99696119
     17000  -1324.2627      226.13454     -1550.3972      297.50374     -601.18131      3840.7412      0.99696119
     18000  -1307.0873      232.53908     -1539.6264      305.92958      217.24964      3840.7412      0.99696119
     19000  -1315.6432      239.33773     -1554.9809      314.87392     -305.52782      3840.7412      0.99696119
     20000  -1330.458       230.05743     -1560.5155      302.6647      -544.74948      3840.7412      0.99696119
     21000  -1307.3544      226.97766     -1534.332       298.61295     -897.06244      3840.7412      0.99696119
     22000  -1321.8761      221.28446     -1543.1606      291.12295     -888.92704      3840.7412      0.99696119
     23000  -1282.9791      229.48246     -1512.4615      301.90827     -330.66713      3840.7412      0.99696119
     24000  -1331.6706      215.61102     -1547.2816      283.65894      259.52724      3840.7412      0.99696119
     25000  -1274.9375      224.01412     -1498.9516      294.7141       134.83728      3840.7412      0.99696119
     26000  -1311.1012      229.94418     -1541.0453      302.51571      1738.49        3840.7412      0.99696119
     27000  -1312.7203      229.1296      -1541.8499      301.44405     -617.98357      3840.7412      0.99696119
     28000  -1303.1899      228.61963     -1531.8095      300.77313     -364.0726       3840.7412      0.99696119
     29000  -1282.6345      244.29234     -1526.9268      321.39223     -2665.6152      3840.7412      0.99696119
     30000  -1305.5237      228.70588     -1534.2296      300.88661     -184.24968      3840.7412      0.99696119
     31000  -1295.6378      230.53298     -1526.1708      303.29034     -2994.4173      3840.7412      0.99696119
     32000  -1266.6209      222.21196     -1488.8329      292.34317      1191.609       3840.7412      0.99696119
     33000  -1265.2127      241.76066     -1506.9733      318.06153      84.16907       3840.7412      0.99696119
     34000  -1318.6907      217.23143     -1535.9221      285.79076      447.25345      3840.7412      0.99696119
     35000  -1330.7874      226.57847     -1557.3658      298.08777     -528.70195      3840.7412      0.99696119
     36000  -1298.6739      240.60968     -1539.2836      316.5473       271.74377      3840.7412      0.99696119
     37000  -1310.797       227.33083     -1538.1278      299.07758     -218.22375      3840.7412      0.99696119
     38000  -1272.3836      244.7692      -1517.1528      322.01959     -856.03242      3840.7412      0.99696119
     39000  -1293.6241      239.85465     -1533.4787      315.55398      169.46368      3840.7412      0.99696119
     40000  -1298.7481      233.29663     -1532.0448      306.92622      863.88946      3840.7412      0.99696119
     41000  -1279.9141      222.5199      -1502.434       292.74829     -1608.9125      3840.7412      0.99696119
     42000  -1294.8306      245.27454     -1540.1052      322.68442     -793.08685      3840.7412      0.99696119
     43000  -1331.8539      215.75494     -1547.6088      283.84828      337.31059      3840.7412      0.99696119
     44000  -1260.8271      242.28504     -1503.1121      318.75141      496.87075      3840.7412      0.99696119
     45000  -1269.8545      245.43855     -1515.2931      322.90018      455.56691      3840.7412      0.99696119
     46000  -1288.3488      227.84178     -1516.1906      299.74979      661.20912      3840.7412      0.99696119
     47000  -1309.9916      222.79017     -1532.7818      293.10386     -1190.9718      3840.7412      0.99696119
     48000  -1298.0787      228.99394     -1527.0726      301.26558     -161.01244      3840.7412      0.99696119
     49000  -1329.9797      218.96783     -1548.9476      288.07517      102.37608      3840.7412      0.99696119
     50000  -1314.1354      219.3476      -1533.483       288.5748      -788.68131      3840.7412      0.99696119
     51000  -1305.1849      239.37414     -1544.559       314.92181      366.13641      3840.7412      0.99696119
     52000  -1321.6729      233.80412     -1555.477       307.59387     -720.42635      3840.7412      0.99696119
     53000  -1289.0525      225.0981      -1514.1506      296.14019     -412.65058      3840.7412      0.99696119
     54000  -1321.8622      219.14126     -1541.0035      288.30334      777.85494      3840.7412      0.99696119
     55000  -1307.5863      239.33938     -1546.9257      314.87609     -1129.129       3840.7412      0.99696119
     56000  -1290.2732      236.23277     -1526.506       310.78901     -1482.8503      3840.7412      0.99696119
     57000  -1323.8363      210.69298     -1534.5293      277.18875     -1042.5003      3840.7412      0.99696119
     58000  -1314.656       216.16229     -1530.8183      284.38419     -1050.818       3840.7412      0.99696119
     59000  -1312.8879      242.9179      -1555.8058      319.58401      410.24023      3840.7412      0.99696119
     60000  -1267.7642      220.65294     -1488.4172      290.29211      249.67292      3840.7412      0.99696119
     61000  -1306.0299      212.53438     -1518.5643      279.6113       511.56441      3840.7412      0.99696119
     62000  -1308.388       209.69723     -1518.0853      275.87873     -547.77422      3840.7412      0.99696119
     63000  -1307.616       222.15567     -1529.7717      292.26911     -2647.1918      3840.7412      0.99696119
     64000  -1244.1313      239.33395     -1483.4652      314.86894     -2597.9853      3840.7412      0.99696119
     65000  -1289.9399      219.31653     -1509.2564      288.53393      1819.1424      3840.7412      0.99696119
     66000  -1285.1127      209.37683     -1494.4895      275.45721     -45.873249      3840.7412      0.99696119
     67000  -1311.845       216.90055     -1528.7455      285.35545      1125.9439      3840.7412      0.99696119
     68000  -1321.5184      207.92504     -1529.4435      273.54722     -798.37087      3840.7412      0.99696119
     69000  -1338.8489      221.52409     -1560.373       291.43821      697.82223      3840.7412      0.99696119
     70000  -1335.2788      215.76518     -1551.044       283.86176     -15.318148      3840.7412      0.99696119
     71000  -1321.0747      205.42081     -1526.4955      270.25265     -560.71171      3840.7412      0.99696119
     72000  -1295.737       228.55988     -1524.2969      300.69452      806.46697      3840.7412      0.99696119
     73000  -1321.701       229.75359     -1551.4546      302.26497     -425.63019      3840.7412      0.99696119
     74000  -1300.9698      220.99117     -1521.9609      290.73709     -627.52971      3840.7412      0.99696119
     75000  -1320.7046      218.62658     -1539.3312      287.62622      219.86278      3840.7412      0.99696119
     76000  -1356.3176      218.73443     -1575.052       287.76812     -746.0232       3840.7412      0.99696119
     77000  -1281.7861      241.5067      -1523.2928      317.72743     -9.4333781      3840.7412      0.99696119
     78000  -1301.3886      224.64028     -1526.0289      295.53788     -1973.3687      3840.7412      0.99696119
     79000  -1287.6177      237.90447     -1525.5222      312.98832     -902.41778      3840.7412      0.99696119
     80000  -1344.7485      218.0535      -1562.802       286.87227     -2348.7683      3840.7412      0.99696119
     81000  -1283.9519      241.81801     -1525.7699      318.13699      1096.6223      3840.7412      0.99696119
     82000  -1293.943       229.22647     -1523.1694      301.57149      817.2792       3840.7412      0.99696119
     83000  -1332.6738      220.25481     -1552.9286      289.76834     -732.67228      3840.7412      0.99696119
     84000  -1358.2665      209.91547     -1568.1819      276.16584     -350.64003      3840.7412      0.99696119
     85000  -1298.4767      221.98966     -1520.4664      292.05071      2553.0069      3840.7412      0.99696119
     86000  -1298.455       231.48074     -1529.9357      304.53722      166.25234      3840.7412      0.99696119
     87000  -1312.9612      228.38538     -1541.3466      300.46495      940.06473      3840.7412      0.99696119
     88000  -1300.5196      236.60538     -1537.1249      311.27922      689.08692      3840.7412      0.99696119
     89000  -1313.3721      238.87463     -1552.2467      314.26466     -1846.6678      3840.7412      0.99696119
     90000  -1347.8673      207.69849     -1555.5658      273.24918     -1163.5164      3840.7412      0.99696119
     91000  -1313.2031      219.28309     -1532.4862      288.48993     -16.920531      3840.7412      0.99696119
     92000  -1310.5459      226.50476     -1537.0507      297.9908      -570.33232      3840.7412      0.99696119
     93000  -1298.0194      248.07765     -1546.0971      326.3722      -374.02582      3840.7412      0.99696119
     94000  -1332.9877      221.26029     -1554.248       291.09114      1308.795       3840.7412      0.99696119
     95000  -1298.8713      235.58901     -1534.4603      309.94209      278.91824      3840.7412      0.99696119
     96000  -1289.8322      225.48681     -1515.319       296.65158      431.51375      3840.7412      0.99696119
     97000  -1309.815       212.35285     -1522.1679      279.37248     -435.85026      3840.7412      0.99696119
     98000  -1279.7888      241.6975      -1521.4863      317.97844     -1487.8165      3840.7412      0.99696119
     99000  -1302.0537      217.64655     -1519.7002      286.33689     -2796.7917      3840.7412      0.99696119
    100000  -1270.387       227.82772     -1498.2147      299.73129     -67.847541      3840.7412      0.99696119
    101000  -1299.5967      231.42631     -1531.023       304.46561     -552.44197      3840.7412      0.99696119
    102000  -1268.9345      221.62609     -1490.5606      291.57239      819.17         3840.7412      0.99696119
    103000  -1297.7823      223.9309      -1521.7132      294.60461     -1014.453       3840.7412      0.99696119
    104000  -1325.6635      210.86585     -1536.5293      277.41617     -618.62281      3840.7412      0.99696119
    105000  -1301.6146      226.05295     -1527.6675      297.39639     -180.04453      3840.7412      0.99696119
    106000  -1280.3606      224.56577     -1504.9264      295.43986     -1866.6304      3840.7412      0.99696119
    107000  -1314.3378      224.84969     -1539.1875      295.81338      1518.5931      3840.7412      0.99696119
    108000  -1308.7018      225.77819     -1534.48        297.03492     -47.208129      3840.7412      0.99696119
    109000  -1305.2012      222.74401     -1527.9452      293.04314     -255.64424      3840.7412      0.99696119
    110000  -1335.7232      213.80321     -1549.5264      281.28058     -623.43146      3840.7412      0.99696119
    111000  -1309.7369      233.84893     -1543.5858      307.65282      1687.8504      3840.7412      0.99696119
    112000  -1332.6244      224.10346     -1556.7279      294.83164      1122.3596      3840.7412      0.99696119
    113000  -1297.8787      230.38292     -1528.2617      303.09292      377.79079      3840.7412      0.99696119
    114000  -1318.1911      227.54853     -1545.7396      299.36399     -2043.3689      3840.7412      0.99696119
    115000  -1318.275       209.50484     -1527.7798      275.62561     -158.00617      3840.7412      0.99696119
    116000  -1352.9914      196.05861     -1549.05        257.93569      894.54346      3840.7412      0.99696119
    117000  -1320.9219      222.99346     -1543.9153      293.37131     -615.256        3840.7412      0.99696119
    118000  -1308.5565      217.98043     -1526.537       286.77615     -1382.7765      3840.7412      0.99696119
    119000  -1277.6226      226.79005     -1504.4126      298.36612     -272.84068      3840.7412      0.99696119
    120000  -1291.5217      223.13115     -1514.6529      293.55246      631.24794      3840.7412      0.99696119
    121000  -1327.9994      206.65449     -1534.6539      271.87568     -1431.3693      3840.7412      0.99696119
    122000  -1269.582       240.76452     -1510.3465      316.75101      273.57574      3840.7412      0.99696119
    123000  -1304.8659      235.15312     -1540.019       309.36862      1608.6001      3840.7412      0.99696119
    124000  -1291.6976      231.26578     -1522.9634      304.25441     -2938.8964      3840.7412      0.99696119
    125000  -1271.8131      232.80782     -1504.621       306.28313     -557.49264      3840.7412      0.99696119
    126000  -1327.6533      236.08986     -1563.7431      310.601       -345.95098      3840.7412      0.99696119
    127000  -1288.1905      228.87602     -1517.0665      301.11044     -727.12003      3840.7412      0.99696119
    128000  -1300.4114      229.06185     -1529.4732      301.35491     -2236.9427      3840.7412      0.99696119
    129000  -1294.9001      225.8713      -1520.7714      297.15741     -370.6656       3840.7412      0.99696119
    130000  -1333.0617      218.54657     -1551.6082      287.52096     -51.488817      3840.7412      0.99696119
    131000  -1306.5152      227.69513     -1534.2103      299.55686      1546.1011      3840.7412      0.99696119
    132000  -1274.14        224.18991     -1498.33        294.94537      829.13536      3840.7412      0.99696119
    133000  -1302.0949      228.81589     -1530.9108      301.03133     -204.92133      3840.7412      0.99696119
    134000  -1333.3229      213.98314     -1547.306       281.51728     -1355.5701      3840.7412      0.99696119
    135000  -1296.667       212.57491     -1509.2419      279.66461     -1254.8323      3840.7412      0.99696119
    136000  -1298.5225      245.81065     -1544.3331      323.38972     -742.31807      3840.7412      0.99696119
    137000  -1248.0799      265.16502     -1513.2449      348.85243      1817.8603      3840.7412      0.99696119
    138000  -1278.1851      229.25676     -1507.4418      301.61135     -1565.2352      3840.7412      0.99696119
    139000  -1291.5467      229.47313     -1521.0198      301.896       -1674.8361      3840.7412      0.99696119
    140000  -1310.5855      213.16145     -1523.747       280.43627     -1085.2048      3840.7412      0.99696119
    141000  -1331.7644      227.07501     -1558.8394      298.74102     -1220.13        3840.7412      0.99696119
    142000  -1290.5872      230.32121     -1520.9084      303.01174     -480.13327      3840.7412      0.99696119
    143000  -1314.9591      241.7519      -1556.711       318.05001      157.73594      3840.7412      0.99696119
    144000  -1314.3417      226.42253     -1540.7642      297.88262     -2059.1779      3840.7412      0.99696119
    145000  -1305.0748      227.04094     -1532.1157      298.6962      -909.44544      3840.7412      0.99696119
    146000  -1259.1586      226.96532     -1486.1239      298.59671      228.65966      3840.7412      0.99696119
    147000  -1325.4124      210.95799     -1536.3704      277.53739     -548.35847      3840.7412      0.99696119
    148000  -1272.8515      225.89405     -1498.7456      297.18735      105.49663      3840.7412      0.99696119
    149000  -1268.1151      224.9647      -1493.0798      295.96468     -1763.1809      3840.7412      0.99696119
    150000  -1242.3246      246.37108     -1488.6957      324.12703     -1347.9412      3840.7412      0.99696119
    151000  -1324.4271      222.39492     -1546.822       292.58388     -427.70031      3840.7412      0.99696119
    152000  -1324.0494      228.8174      -1552.8668      301.03332     -2077.4539      3840.7412      0.99696119
    153000  -1304.0371      213.4523      -1517.4894      280.81892      578.4531       3840.7412      0.99696119
    154000  -1278.3178      237.51294     -1515.8307      312.47321     -428.88276      3840.7412      0.99696119
    155000  -1336.7713      206.51063     -1543.282       271.68642     -496.84177      3840.7412      0.99696119
    156000  -1288.1427      233.62676     -1521.7694      307.36054     -36.457048      3840.7412      0.99696119
    157000  -1316.4587      217.22981     -1533.6885      285.78863      815.68219      3840.7412      0.99696119
    158000  -1306.8136      210.49999     -1517.3136      276.93485      1098.3232      3840.7412      0.99696119
    159000  -1304.7814      239.60787     -1544.3893      315.22931     -96.834709      3840.7412      0.99696119
    160000  -1306.8412      224.16705     -1531.0082      294.9153       310.42259      3840.7412      0.99696119
    161000  -1269.8195      237.12326     -1506.9428      311.96055      2722.4802      3840.7412      0.99696119
    162000  -1320.2751      222.64837     -1542.9235      292.91731     -2450.4101      3840.7412      0.99696119
    163000  -1318.4568      209.2849      -1527.7417      275.33626      1472.305       3840.7412      0.99696119
    164000  -1296.4232      236.67243     -1533.0956      311.36743     -1742.1927      3840.7412      0.99696119
    165000  -1277.1542      223.59183     -1500.746       294.15853     -1054.2233      3840.7412      0.99696119
    166000  -1293.3047      226.26555     -1519.5703      297.67609      1220.3315      3840.7412      0.99696119
    167000  -1278.1838      232.5153      -1510.6991      305.89829     -1773.4797      3840.7412      0.99696119
    168000  -1302.8786      232.3702      -1535.2488      305.70739      348.73339      3840.7412      0.99696119
    169000  -1267.4608      226.68699     -1494.1478      298.23054     -473.9995       3840.7412      0.99696119
    170000  -1311.1809      229.20329     -1540.3842      301.541        2481.3945      3840.7412      0.99696119
    171000  -1306.8772      220.20471     -1527.0819      289.70242     -1237.8634      3840.7412      0.99696119
    172000  -1273.2094      235.31522     -1508.5246      309.58189     -1021.1484      3840.7412      0.99696119
    173000  -1307.9355      236.37774     -1544.3132      310.97973      1824.4947      3840.7412      0.99696119
    174000  -1308.8892      227.32369     -1536.2129      299.06818     -1762.1774      3840.7412      0.99696119
    175000  -1314.8874      215.82183     -1530.7093      283.93628     -1648.566       3840.7412      0.99696119
    176000  -1288.6047      235.86156     -1524.4662      310.30065      322.3323       3840.7412      0.99696119
    177000  -1318.5276      224.18135     -1542.709       294.93411     -66.972116      3840.7412      0.99696119
    178000  -1308.8884      228.1324      -1537.0208      300.13212     -2447.2191      3840.7412      0.99696119
    179000  -1308.7478      227.57959     -1536.3274      299.40484     -852.29583      3840.7412      0.99696119
    180000  -1290.9981      217.85932     -1508.8574      286.61681     -757.41288      3840.7412      0.99696119
    181000  -1301.5127      220.43486     -1521.9476      290.0052      -214.21401      3840.7412      0.99696119
    182000  -1331.0258      215.28827     -1546.314       283.23433      721.57043      3840.7412      0.99696119
    183000  -1288.063       238.36552     -1526.4285      313.59487      49.002922      3840.7412      0.99696119
    184000  -1325.3243      207.44931     -1532.7736      272.92135     -1387.8271      3840.7412      0.99696119
    185000  -1297.744       225.68237     -1523.4263      296.90885     -1641.8241      3840.7412      0.99696119
    186000  -1320.3399      222.76949     -1543.1094      293.07665     -2203.4893      3840.7412      0.99696119
    187000  -1323.8403      226.2001      -1550.0404      297.58999     -1320.2192      3840.7412      0.99696119
    188000  -1276.436       246.73814     -1523.1741      324.60994     -791.99281      3840.7412      0.99696119
    189000  -1282.7692      219.48234     -1502.2515      288.75207     -1339.6069      3840.7412      0.99696119
    190000  -1331.0953      231.591       -1562.6863      304.68228     -480.43169      3840.7412      0.99696119
    191000  -1294.8205      234.77397     -1529.5944      308.86981      299.36115      3840.7412      0.99696119
    192000  -1291.1676      234.44263     -1525.6102      308.4339      -1242.2093      3840.7412      0.99696119
    193000  -1280.1761      222.20291     -1502.379       292.33126     -565.65212      3840.7412      0.99696119
    194000  -1327.2282      219.22847     -1546.4567      288.41807     -303.16129      3840.7412      0.99696119
    195000  -1315.6902      248.04065     -1563.7309      326.32352     -988.04153      3840.7412      0.99696119
    196000  -1317.6714      219.91966     -1537.5911      289.3274      -492.96692      3840.7412      0.99696119
    197000  -1313.7376      226.36822     -1540.1058      297.81116      1408.1159      3840.7412      0.99696119
    198000  -1286.7351      234.0053      -1520.7404      307.85854      2019.8803      3840.7412      0.99696119
    199000  -1283.3886      234.36827     -1517.7569      308.33607     -299.12234      3840.7412      0.99696119
    200000  -1321.711       206.32784     -1528.0388      271.44594     -348.20455      3840.7412      0.99696119
    201000  -1319.5493      241.42665     -1560.9759      317.62211      828.7498       3840.7412      0.99696119
    202000  -1244.6259      254.58895     -1499.2148      334.93849     -33.942795      3840.7412      0.99696119
    203000  -1283.0868      220.58408     -1503.6709      290.20152     -374.40881      3840.7412      0.99696119
    204000  -1302.765       209.4096      -1512.1746      275.50032      844.23889      3840.7412      0.99696119
    205000  -1312.797       216.8838      -1529.6808      285.33341     -1073.9481      3840.7412      0.99696119
    206000  -1300.1357      236.48561     -1536.6213      311.12166     -1606.8678      3840.7412      0.99696119
    207000  -1334.8008      217.09856     -1551.8994      285.61595     -960.22958      3840.7412      0.99696119
    208000  -1265.0019      230.56819     -1495.5701      303.33667      275.94884      3840.7412      0.99696119
    209000  -1286.7361      234.53644     -1521.2725      308.55731      846.59655      3840.7412      0.99696119
    210000  -1309.3566      231.43939     -1540.796       304.48282     -1904.472       3840.7412      0.99696119
    211000  -1296.3889      228.81921     -1525.2081      301.03569      1448.8552      3840.7412      0.99696119
    212000  -1324.2698      242.35329     -1566.6231      318.8412       338.91992      3840.7412      0.99696119
    213000  -1364.4681      212.33677     -1576.8049      279.35132     -1681.2798      3840.7412      0.99696119
    214000  -1320.3715      225.09111     -1545.4626      296.13099     -858.49456      3840.7412      0.99696119
    215000  -1325.7488      209.94984     -1535.6986      276.21106      291.67347      3840.7412      0.99696119
    216000  -1309.3825      216.39071     -1525.7732      284.6847       771.25852      3840.7412      0.99696119
    217000  -1267.7071      235.24263     -1502.9498      309.48638      1293.1796      3840.7412      0.99696119
    218000  -1293.9739      224.09111     -1518.065       294.81539     -251.88738      3840.7412      0.99696119
    219000  -1274.2152      230.13106     -1504.3463      302.76157     -27.781655      3840.7412      0.99696119
    220000  -1310.7721      241.36215     -1552.1343      317.53726      982.9192       3840.7412      0.99696119
    221000  -1334.4463      226.54148     -1560.9878      298.03911     -2401.5805      3840.7412      0.99696119
    222000  -1299.4478      220.17949     -1519.6273      289.66924     -903.35781      3840.7412      0.99696119
    223000  -1326.4651      230.85565     -1557.3208      303.71485      835.88867      3840.7412      0.99696119
    224000  -1301.8359      240.3062      -1542.1421      316.14805     -744.65851      3840.7412      0.99696119
    225000  -1307.8141      230.65119     -1538.4653      303.44586      533.04081      3840.7412      0.99696119
    226000  -1303.5648      222.04951     -1525.6143      292.12945     -1116.9292      3840.7412      0.99696119
    227000  -1268.1329      231.92128     -1500.0542      305.11679     -484.27753      3840.7412      0.99696119
    228000  -1306.9751      232.95229     -1539.9274      306.4732      -2219.4363      3840.7412      0.99696119
    229000  -1269.0667      221.97491     -1491.0417      292.03131      1360.6023      3840.7412      0.99696119
    230000  -1303.2024      228.05559     -1531.258       300.03108     -1188.8124      3840.7412      0.99696119
    231000  -1282.3698      248.47462     -1530.8444      326.89446     -430.23188      3840.7412      0.99696119
    232000  -1300.4627      235.04669     -1535.5094      309.2286      -1445.5833      3840.7412      0.99696119
    233000  -1337.6185      208.77434     -1546.3928      274.66456      1020.9168      3840.7412      0.99696119
    234000  -1346.2102      211.43101     -1557.6412      278.1597      -1868.3249      3840.7412      0.99696119
    235000  -1308.6986      241.32922     -1550.0278      317.49393     -1665.3436      3840.7412      0.99696119
    236000  -1329.0368      208.42203     -1537.4588      274.20107      1056.4579      3840.7412      0.99696119
    237000  -1283.2408      247.33333     -1530.5742      325.39297     -1796.8902      3840.7412      0.99696119
    238000  -1309.1742      234.19987     -1543.374       308.11452     -1856.8335      3840.7412      0.99696119
    239000  -1273.2492      244.03278     -1517.282       321.05075      511.55276      3840.7412      0.99696119
    240000  -1323.7664      234.92887     -1558.6952      309.0736      -754.59481      3840.7412      0.99696119
    241000  -1318.8523      223.1578      -1542.0101      293.58752     -1043.8657      3840.7412      0.99696119
    242000  -1306.7752      221.75293     -1528.5281      291.73927      1402.9871      3840.7412      0.99696119
    243000  -1321.3985      209.86099     -1531.2595      276.09418     -1537.1751      3840.7412      0.99696119
    244000  -1307.8097      226.16984     -1533.9795      297.55018      168.19654      3840.7412      0.99696119
    245000  -1327.7216      216.76173     -1544.4833      285.17282      2222.7348      3840.7412      0.99696119
    246000  -1306.3686      213.30315     -1519.6718      280.62269      1145.6954      3840.7412      0.99696119
    247000  -1294.2912      211.24793     -1505.5392      277.91884     -764.21641      3840.7412      0.99696119
    248000  -1318.608       229.27743     -1547.8855      301.63853      370.25475      3840.7412      0.99696119
    249000  -1318.7185      201.83427     -1520.5528      265.53418      208.08779      3840.7412      0.99696119
    250000  -1314.1938      217.32508     -1531.5188      285.91397     -723.89216      3840.7412      0.99696119
    251000  -1321.1531      226.40009     -1547.5531      297.8531      -40.583006      3840.7412      0.99696119
    252000  -1296.9769      238.88501     -1535.8619      314.27831      630.43165      3840.7412      0.99696119
    253000  -1323.0118      228.6534      -1551.6652      300.81756     -894.56918      3840.7412      0.99696119
    254000  -1309.8422      229.20544     -1539.0476      301.54383     -566.87023      3840.7412      0.99696119
    255000  -1311.8164      224.13166     -1535.9481      294.86873     -1246.2161      3840.7412      0.99696119
    256000  -1316.4977      217.23939     -1533.7371      285.80123     -1447.795       3840.7412      0.99696119
    257000  -1310.8432      218.6573      -1529.5005      287.66664     -1413.0964      3840.7412      0.99696119
    258000  -1328.8915      217.93275     -1546.8242      286.71341     -109.26687      3840.7412      0.99696119
    259000  -1285.1912      232.55377     -1517.745       305.9489       2076.9655      3840.7412      0.99696119
    260000  -1301.7554      213.41417     -1515.1696      280.76875      796.68568      3840.7412      0.99696119
    261000  -1265.4857      239.61302     -1505.0987      315.23609     -2282.6874      3840.7412      0.99696119
    262000  -1312.3131      227.30988     -1539.623       299.05001     -212.50144      3840.7412      0.99696119
    263000  -1318.6716      216.48266     -1535.1543      284.80568     -102.64896      3840.7412      0.99696119
    264000  -1337.64        214.39117     -1552.0311      282.05409     -568.37207      3840.7412      0.99696119
    265000  -1334.1326      229.59348     -1563.7261      302.05433      429.70682      3840.7412      0.99696119
    266000  -1278.7913      235.85009     -1514.6413      310.28556      1464.0852      3840.7412      0.99696119
    267000  -1293.7609      237.21562     -1530.9765      312.08206     -56.430293      3840.7412      0.99696119
    268000  -1321.5675      214.72378     -1536.2913      282.49168     -1379.3578      3840.7412      0.99696119
    269000  -1317.705       225.72927     -1543.4343      296.97056     -1730.5667      3840.7412      0.99696119
    270000  -1309.1179      218.77289     -1527.8908      287.81871      350.90442      3840.7412      0.99696119
    271000  -1300.9883      231.17426     -1532.1625      304.13402     -552.1644       3840.7412      0.99696119
    272000  -1354.3311      213.52603     -1567.8572      280.91592     -8.2605302      3840.7412      0.99696119
    273000  -1303.4871      224.3882      -1527.8753      295.20623     -2733.1574      3840.7412      0.99696119
    274000  -1334.72        201.27937     -1535.9994      264.80415     -950.78069      3840.7412      0.99696119
    275000  -1293.4361      226.70811     -1520.1442      298.25833      298.39965      3840.7412      0.99696119
    276000  -1290.9892      223.62222     -1514.6114      294.19851      762.45883      3840.7412      0.99696119
    277000  -1332.0467      225.99814     -1558.0448      297.32429     -258.93392      3840.7412      0.99696119
    278000  -1288.1522      237.76916     -1525.9214      312.8103      -1274.4884      3840.7412      0.99696119
    279000  -1316.4441      229.07527     -1545.5193      301.37258     -59.353246      3840.7412      0.99696119
    280000  -1335.487       207.61895     -1543.1059      273.14453     -760.65619      3840.7412      0.99696119
    281000  -1328.5313      225.96729     -1554.4986      297.2837       801.8322       3840.7412      0.99696119
    282000  -1305.5777      210.10153     -1515.6792      276.41062     -1179.6702      3840.7412      0.99696119
    283000  -1295.3512      223.63613     -1518.9873      294.21682     -678.72177      3840.7412      0.99696119
    284000  -1309.1023      212.45001     -1521.5523      279.5003      -40.301856      3840.7412      0.99696119
    285000  -1243.1613      232.50474     -1475.666       305.8844      -685.10058      3840.7412      0.99696119
    286000  -1306.5446      224.88766     -1531.4323      295.86333     -1742.5943      3840.7412      0.99696119
    287000  -1297.8653      212.59498     -1510.4603      279.69102     -2495.3606      3840.7412      0.99696119
    288000  -1290.113       241.3514      -1531.4644      317.52311      458.2109       3840.7412      0.99696119
    289000  -1320.1526      228.87989     -1549.0325      301.11552     -362.39017      3840.7412      0.99696119
    290000  -1318.1582      224.43731     -1542.5955      295.27085     -789.31684      3840.7412      0.99696119
    291000  -1291.3172      220.72118     -1512.0384      290.3819       1036.3833      3840.7412      0.99696119
    292000  -1313.4192      216.89454     -1530.3138      285.34754     -314.12381      3840.7412      0.99696119
    293000  -1341.7709      213.96111     -1555.732       281.48831     -677.45124      3840.7412      0.99696119
    294000  -1313.6374      222.10196     -1535.7393      292.19845      800.10052      3840.7412      0.99696119
    295000  -1325.8042      215.47288     -1541.2771      283.47721      177.51105      3840.7412      0.99696119
    296000  -1281.4136      230.20269     -1511.6163      302.85582      430.23837      3840.7412      0.99696119
    297000  -1328.1546      219.75348     -1547.9081      289.10877     -1287.6771      3840.7412      0.99696119
    298000  -1332.134       208.85661     -1540.9907      274.77281     -1289.5129      3840.7412      0.99696119
    299000  -1329.6066      241.21157     -1570.8181      317.33916      257.54588      3840.7412      0.99696119
    300000  -1302.1219      224.26042     -1526.3823      295.03813     -11.353515      3840.7412      0.99696119
    301000  -1352.8735      210.59384     -1563.4674      277.05831      4.0507357      3840.7412      0.99696119
    302000  -1341.6405      220.1807      -1561.8212      289.67083     -706.2091       3840.7412      0.99696119
    303000  -1310.9822      235.30775     -1546.2899      309.57205     -1756.0098      3840.7412      0.99696119
    304000  -1334.3549      209.86556     -1544.2205      276.10018     -1715.5587      3840.7412      0.99696119
    305000  -1313.4957      227.08643     -1540.5821      298.75605     -512.17115      3840.7412      0.99696119
    306000  -1329.4583      213.11902     -1542.5773      280.38045      372.32824      3840.7412      0.99696119
    307000  -1289.8385      233.82726     -1523.6657      307.62432      2593.0869      3840.7412      0.99696119
    308000  -1293.5434      243.41236     -1536.9557      320.23452      433.39725      3840.7412      0.99696119
    309000  -1303.1677      223.05834     -1526.226       293.45667      590.6111       3840.7412      0.99696119
    310000  -1292.7645      228.80508     -1521.5696      301.01712     -206.20466      3840.7412      0.99696119
    311000  -1261.087       235.61292     -1496.7         309.97353      767.39413      3840.7412      0.99696119
    312000  -1298.1411      235.0371      -1533.1782      309.21599     -713.56091      3840.7412      0.99696119
    313000  -1289.6664      227.81962     -1517.486       299.72063     -1516.6106      3840.7412      0.99696119
    314000  -1276.7165      244.7957      -1521.5122      322.05445      643.77268      3840.7412      0.99696119
    315000  -1307.5403      217.71524     -1525.2555      286.42725     -224.03823      3840.7412      0.99696119
    316000  -1323.6601      227.4344      -1551.0945      299.21383      1250.1135      3840.7412      0.99696119
    317000  -1289.5764      232.92494     -1522.5013      306.43721      1234.3104      3840.7412      0.99696119
    318000  -1265.1715      258.00594     -1523.1775      339.43391      1558.9859      3840.7412      0.99696119
    319000  -1303.0912      225.55022     -1528.6414      296.735       -213.49507      3840.7412      0.99696119
    320000  -1259.4505      249.26329     -1508.7138      327.93203     -658.99312      3840.7412      0.99696119
    321000  -1291.7234      220.58331     -1512.3067      290.20051     -1263.4925      3840.7412      0.99696119
    322000  -1261.9001      228.71874     -1490.6189      300.90352     -946.41079      3840.7412      0.99696119
    323000  -1257.8918      231.66485     -1489.5567      304.77944     -1353.1216      3840.7412      0.99696119
    324000  -1302.7653      232.1442      -1534.9095      305.41007      809.74472      3840.7412      0.99696119
    325000  -1295.0907      233.34105     -1528.4317      306.98465     -3026.0092      3840.7412      0.99696119
    326000  -1275.3653      244.22431     -1519.5897      321.30272     -2484.2727      3840.7412      0.99696119
    327000  -1302.4071      213.59578     -1516.0029      281.00768      537.85872      3840.7412      0.99696119
    328000  -1273.5871      224.9689      -1498.556       295.97022     -1635.1579      3840.7412      0.99696119
    329000  -1330.1681      217.26179     -1547.4299      285.83069     -7.9765399      3840.7412      0.99696119
    330000  -1297.9366      221.51889     -1519.4555      291.43136      1085.1926      3840.7412      0.99696119
    331000  -1326.1434      222.71428     -1548.8577      293.00402     -386.72196      3840.7412      0.99696119
    332000  -1322.8729      231.68679     -1554.5597      304.8083      -520.44261      3840.7412      0.99696119
    333000  -1280.1867      234.47022     -1514.6569      308.47019      64.755926      3840.7412      0.99696119
    334000  -1324.639       233.32013     -1557.9591      306.95714     -748.72875      3840.7412      0.99696119
    335000  -1320.8111      222.25353     -1543.0646      292.39785     -1546.3062      3840.7412      0.99696119
    336000  -1290.789       232.39295     -1523.1819      305.73733     -2432.8298      3840.7412      0.99696119
    337000  -1312.1394      217.65147     -1529.7909      286.34336     -2860.3425      3840.7412      0.99696119
    338000  -1309.2945      227.53212     -1536.8266      299.3424       320.41022      3840.7412      0.99696119
    339000  -1305.6173      215.62777     -1521.2451      283.68098      2135.6879      3840.7412      0.99696119
    340000  -1293.9967      222.24335     -1516.24        292.38447      33.396057      3840.7412      0.99696119
    341000  -1268.884       239.8292      -1508.7132      315.5205       631.0527       3840.7412      0.99696119
    342000  -1297.96        226.28224     -1524.2422      297.69805     -76.869346      3840.7412      0.99696119
    343000  -1260.4337      239.67077     -1500.1044      315.31207     -599.56536      3840.7412      0.99696119
    344000  -1308.4463      240.14461     -1548.5909      315.93545      613.53384      3840.7412      0.99696119
    345000  -1273.7153      240.92556     -1514.6408      316.96287     -175.37989      3840.7412      0.99696119
    346000  -1317.6558      227.24744     -1544.9032      298.96787     -729.29087      3840.7412      0.99696119
    347000  -1294.7563      214.34881     -1509.1051      281.99837      710.92368      3840.7412      0.99696119
    348000  -1299.7964      233.46705     -1533.2634      307.15042     -389.78292      3840.7412      0.99696119
    349000  -1335.3843      224.86238     -1560.2466      295.83007      930.80106      3840.7412      0.99696119
    350000  -1331.3408      225.36261     -1556.7034      296.48818      1404.0978      3840.7412      0.99696119
    351000  -1312.6026      232.43086     -1545.0335      305.78721     -2417.2407      3840.7412      0.99696119
    352000  -1316.2886      215.47447     -1531.7631      283.47929     -841.49397      3840.7412      0.99696119
    353000  -1313.7159      227.85709     -1541.5729      299.76993     -301.65436      3840.7412      0.99696119
    354000  -1281.9398      256.30522     -1538.2451      337.19643      725.02614      3840.7412      0.99696119
    355000  -1300.5108      234.17869     -1534.6895      308.08666     -2456.2246      3840.7412      0.99696119
    356000  -1303.6646      221.6981      -1525.3627      291.66713     -4332.2078      3840.7412      0.99696119
    357000  -1281.9808      229.65129     -1511.6321      302.13038     -266.16278      3840.7412      0.99696119
    358000  -1335.308       211.85843     -1547.1664      278.72202      322.83122      3840.7412      0.99696119
    359000  -1321.3072      216.88682     -1538.194       285.33739      192.72371      3840.7412      0.99696119
    360000  -1299.2139      236.54273     -1535.7567      311.1968      -964.23131      3840.7412      0.99696119
    361000  -1286.1144      236.62164     -1522.736       311.30061      2712.7822      3840.7412      0.99696119
    362000  -1309.0285      223.01523     -1532.0438      293.39996      457.53688      3840.7412      0.99696119
    363000  -1281.301       231.81282     -1513.1138      304.97411     -194.92267      3840.7412      0.99696119
    364000  -1299.8731      236.9636      -1536.8367      311.7505      -1072.2028      3840.7412      0.99696119
    365000  -1281.1125      235.38088     -1516.4934      309.66826     -590.49763      3840.7412      0.99696119
    366000  -1327.6811      213.83143     -1541.5125      281.3177       1049.4498      3840.7412      0.99696119
    367000  -1314.0222      229.22252     -1543.2447      301.5663      -144.29755      3840.7412      0.99696119
    368000  -1284.3724      235.18277     -1519.5552      309.40763     -2189.1406      3840.7412      0.99696119
    369000  -1294.3576      222.70102     -1517.0586      292.98658      1298.9629      3840.7412      0.99696119
    370000  -1295.4014      235.16217     -1530.5636      309.38052     -889.26651      3840.7412      0.99696119
    371000  -1315.1941      226.90698     -1542.1011      298.51996      1358.0466      3840.7412      0.99696119
    372000  -1255.5973      227.12221     -1482.7195      298.80312     -531.55471      3840.7412      0.99696119
    373000  -1313.0093      223.02977     -1536.0391      293.41908      251.268        3840.7412      0.99696119
    374000  -1315.2106      222.32562     -1537.5362      292.4927      -1414.5174      3840.7412      0.99696119
    375000  -1295.0254      210.15616     -1505.1816      276.48249     -2725.6873      3840.7412      0.99696119
    376000  -1307.9342      241.54168     -1549.4759      317.77345     -545.98623      3840.7412      0.99696119
    377000  -1282.3936      231.24034     -1513.634       304.22095      2416.4014      3840.7412      0.99696119
    378000  -1291.5126      229.87089     -1521.3834      302.41929     -493.22445      3840.7412      0.99696119
    379000  -1330.1057      212.65352     -1542.7592      279.76803      703.61402      3840.7412      0.99696119
    380000  -1293.3783      224.17058     -1517.5489      294.91994     -403.29463      3840.7412      0.99696119
    381000  -1337.2726      225.22826     -1562.5008      296.31143      388.31068      3840.7412      0.99696119
    382000  -1304.1527      231.23416     -1535.3869      304.21281      1424.6611      3840.7412      0.99696119
    383000  -1288.3086      245.37292     -1533.6816      322.81384     -871.11741      3840.7412      0.99696119
    384000  -1317.3241      214.19799     -1531.5221      281.79995     -1459.1108      3840.7412      0.99696119
    385000  -1307.0628      228.07589     -1535.1387      300.05778     -200.01001      3840.7412      0.99696119
    386000  -1276.742       223.99895     -1500.741       294.69413      1041.524       3840.7412      0.99696119
    387000  -1298.2652      241.20866     -1539.4738      317.33532      117.99025      3840.7412      0.99696119
    388000  -1297.571       236.34747     -1533.9184      310.93991     -1351.1892      3840.7412      0.99696119
    389000  -1340.8561      213.34987     -1554.2059      280.68416      541.18242      3840.7412      0.99696119
    390000  -1317.5276      224.98221     -1542.5098      295.98772     -723.08073      3840.7412      0.99696119
    391000  -1280.9734      228.82852     -1509.8019      301.04795     -1387.3544      3840.7412      0.99696119
    392000  -1320.7217      239.24831     -1559.97        314.75628     -525.11494      3840.7412      0.99696119
    393000  -1337.1787      222.03525     -1559.2139      292.11069      1061.3581      3840.7412      0.99696119
    394000  -1329.4372      218.74432     -1548.1815      287.78112     -760.84304      3840.7412      0.99696119
    395000  -1290.9247      228.75788     -1519.6826      300.95501     -313.63844      3840.7412      0.99696119
    396000  -1299.5398      217.79692     -1517.3368      286.53472     -826.55392      3840.7412      0.99696119
    397000  -1286.516       234.29799     -1520.814       308.24361      1028.5371      3840.7412      0.99696119
    398000  -1281.1365      238.04386     -1519.1804      313.1717       1621.5449      3840.7412      0.99696119
    399000  -1327.0819      223.34361     -1550.4255      293.83198      976.04158      3840.7412      0.99696119
    400000  -1324.1317      214.98397     -1539.1157      282.83398     -2385.4237      3840.7412      0.99696119
    401000  -1293.7873      233.45127     -1527.2386      307.12966      197.59715      3840.7412      0.99696119
    402000  -1288.9665      225.90698     -1514.8735      297.20435     -1208.263       3840.7412      0.99696119
    403000  -1343.6341      213.09071     -1556.7248      280.3432       1597.474       3840.7412      0.99696119
    404000  -1294.5687      240.79058     -1535.3592      316.7853       563.22022      3840.7412      0.99696119
    405000  -1322.3541      234.98659     -1557.3407      309.14953      518.15728      3840.7412      0.99696119
    406000  -1320.738       234.53979     -1555.2778      308.56172      1185.9564      3840.7412      0.99696119
    407000  -1303.6626      223.60103     -1527.2636      294.17063      1255.7639      3840.7412      0.99696119
    408000  -1298.971       221.14811     -1520.1192      290.94356     -486.03212      3840.7412      0.99696119
    409000  -1266.3908      225.25611     -1491.6469      296.34807     -850.95234      3840.7412      0.99696119
    410000  -1292.5835      231.32672     -1523.9102      304.33459      887.76948      3840.7412      0.99696119
    411000  -1272.905       241.13589     -1514.0409      317.23958     -1392.0727      3840.7412      0.99696119
    412000  -1296.5273      230.71561     -1527.2429      303.53061      98.633449      3840.7412      0.99696119
    413000  -1319.3912      225.0754      -1544.4666      296.11032      224.76112      3840.7412      0.99696119
    414000  -1286.3938      239.11265     -1525.5064      314.5778      -1326.6853      3840.7412      0.99696119
    415000  -1297.5416      213.14531     -1510.6869      280.41504      2502.9097      3840.7412      0.99696119
    416000  -1274.7705      235.04482     -1509.8153      309.22614      122.49445      3840.7412      0.99696119
    417000  -1294.0274      217.61101     -1511.6384      286.29013      1243.6402      3840.7412      0.99696119
    418000  -1310.3815      217.38443     -1527.7659      285.99204      228.32935      3840.7412      0.99696119
    419000  -1299.3498      225.60471     -1524.9545      296.80668     -642.77241      3840.7412      0.99696119
    420000  -1321.4725      229.71851     -1551.191       302.21883     -1198.6161      3840.7412      0.99696119
    421000  -1345.81        216.00363     -1561.8136      284.17545      517.05958      3840.7412      0.99696119
    422000  -1311.6239      218.93965     -1530.5636      288.03811      818.07569      3840.7412      0.99696119
    423000  -1326.8554      227.22197     -1554.0774      298.93436      89.694419      3840.7412      0.99696119
    424000  -1289.293       240.24763     -1529.5407      316.07099     -879.05327      3840.7412      0.99696119
    425000  -1313.9981      238.6111      -1552.6092      313.91796     -770.90851      3840.7412      0.99696119
    426000  -1330.4346      219.85045     -1550.285       289.23635     -1275.3153      3840.7412      0.99696119
    427000  -1298.3119      230.7955      -1529.1074      303.63571      1593.4419      3840.7412      0.99696119
    428000  -1301.1136      215.48555     -1516.5991      283.49387     -11.817879      3840.7412      0.99696119
    429000  -1304.651       224.25821     -1528.9092      295.03522     -146.48488      3840.7412      0.99696119
    430000  -1291.5357      219.72027     -1511.256       289.06509     -504.591        3840.7412      0.99696119
    431000  -1271.8117      256.38872     -1528.2005      337.30629     -13.981788      3840.7412      0.99696119
    432000  -1299.0911      220.0324      -1519.1235      289.47573     -1325.4096      3840.7412      0.99696119
    433000  -1299.0068      221.95363     -1520.9604      292.00331     -776.25607      3840.7412      0.99696119
    434000  -1286.5769      224.02031     -1510.5972      294.72224     -435.93885      3840.7412      0.99696119
    435000  -1306.039       222.4607      -1528.4997      292.67041     -2314.815       3840.7412      0.99696119
    436000  -1295.0335      239.10206     -1534.1356      314.56386      2827.9001      3840.7412      0.99696119
    437000  -1295.6771      232.05246     -1527.7296      305.28937     -1606.8235      3840.7412      0.99696119
    438000  -1278.5116      222.90788     -1501.4195      293.25872     -1114.9497      3840.7412      0.99696119
    439000  -1272.6345      241.96016     -1514.5947      318.32399      203.78445      3840.7412      0.99696119
    440000  -1303.4806      230.67674     -1534.1573      303.47947      836.83049      3840.7412      0.99696119
    441000  -1293.928       231.57102     -1525.499       304.656        458.38071      3840.7412      0.99696119
    442000  -1299.1875      230.94215     -1530.1297      303.82864     -250.77099      3840.7412      0.99696119
    443000  -1267.9282      240.22752     -1508.1557      316.04453     -1330.0196      3840.7412      0.99696119
    444000  -1267.2914      246.03315     -1513.3246      323.68244      1554.4512      3840.7412      0.99696119
    445000  -1279.7174      234.381       -1514.0984      308.35282      215.57609      3840.7412      0.99696119
    446000  -1286.347       238.46474     -1524.8117      313.72541     -275.07377      3840.7412      0.99696119
    447000  -1318.5924      216.99545     -1535.5879      285.4803      -883.07385      3840.7412      0.99696119
    448000  -1315.8245      232.6373      -1548.4618      306.0588       185.67824      3840.7412      0.99696119
    449000  -1325.0719      218.20125     -1543.2731      287.06665     -1089.2457      3840.7412      0.99696119
    450000  -1300.2419      237.5698      -1537.8117      312.54801     -198.03937      3840.7412      0.99696119
    451000  -1321.3339      213.28936     -1534.6232      280.60455     -25.420352      3840.7412      0.99696119
    452000  -1316.6512      210.75847     -1527.4096      277.27489     -354.22171      3840.7412      0.99696119
    453000  -1303.9154      241.64532     -1545.5607      317.9098       452.90409      3840.7412      0.99696119
    454000  -1310.0093      230.42504     -1540.4343      303.14834     -4.8946504      3840.7412      0.99696119
    455000  -1301.7462      229.76837     -1531.5145      302.28442      330.08384      3840.7412      0.99696119
    456000  -1287.8809      243.38042     -1531.2613      320.19249     -166.89891      3840.7412      0.99696119
    457000  -1279.1791      240.33082     -1519.5099      316.18043      744.48844      3840.7412      0.99696119
    458000  -1309.0653      223.79453     -1532.8598      294.42521     -1102.1463      3840.7412      0.99696119
    459000  -1315.5813      245.87599     -1561.4572      323.47568     -1501.4507      3840.7412      0.99696119
    460000  -1316.9666      229.57807     -1546.5447      302.03406     -1757.9676      3840.7412      0.99696119
    461000  -1315.1137      226.03752     -1541.1512      297.3761       409.91759      3840.7412      0.99696119
    462000  -1317.9965      241.39151     -1559.388       317.57588      2066.0207      3840.7412      0.99696119
    463000  -1326.4695      225.84636     -1552.3159      297.1246       158.0704       3840.7412      0.99696119
    464000  -1317.9512      233.6744      -1551.6256      307.42322      255.4525       3840.7412      0.99696119
    465000  -1343.4773      233.01263     -1576.4899      306.55259      632.82289      3840.7412      0.99696119
    466000  -1290.2892      248.19787     -1538.4871      326.53037     -150.48867      3840.7412      0.99696119
    467000  -1300.8829      235.06312     -1535.946       309.25021      195.4894       3840.7412      0.99696119
    468000  -1274.3769      235.51188     -1509.8887      309.84061     -1328.1886      3840.7412      0.99696119
    469000  -1325.5552      210.66879     -1536.224       277.15692     -1647.6534      3840.7412      0.99696119
    470000  -1290.6684      233.70149     -1524.3699      307.45886      2440.9937      3840.7412      0.99696119
    471000  -1321.6507      219.78323     -1541.4339      289.14791     -970.90352      3840.7412      0.99696119
    472000  -1299.1285      224.96117     -1524.0897      295.96004     -1543.5652      3840.7412      0.99696119
    473000  -1313.1044      219.09703     -1532.2015      288.24515     -143.61971      3840.7412      0.99696119
    474000  -1301.6076      215.09837     -1516.706       282.98449     -584.12887      3840.7412      0.99696119
    475000  -1319.4249      232.80067     -1552.2255      306.27372     -93.672097      3840.7412      0.99696119
    476000  -1315.3551      221.39136     -1536.7464      291.26359     -685.12556      3840.7412      0.99696119
    477000  -1323.8091      224.69521     -1548.5043      295.61015     -911.26994      3840.7412      0.99696119
    478000  -1318.0889      221.07097     -1539.1598      290.84208     -200.44925      3840.7412      0.99696119
    479000  -1340.1437      209.57947     -1549.7232      275.72381      1097.4801      3840.7412      0.99696119
    480000  -1309.7602      237.0887      -1546.8489      311.91508      270.54131      3840.7412      0.99696119
    481000  -1296.9914      224.80552     -1521.7969      295.75527     -826.80705      3840.7412      0.99696119
    482000  -1300.4854      228.84506     -1529.3305      301.06971      461.8852       3840.7412      0.99696119
    483000  -1305.8509      235.3991      -1541.25        309.69223     -1464.7156      3840.7412      0.99696119
    484000  -1301.5661      217.74031     -1519.3064      286.46024     -1609.2899      3840.7412      0.99696119
    485000  -1290.0763      218.5747      -1508.651       287.55798     -208.378        3840.7412      0.99696119
    486000  -1295.5411      228.69237     -1524.2334      300.86883     -332.16731      3840.7412      0.99696119
    487000  -1295.7544      220.4191      -1516.1735      289.98448      846.84256      3840.7412      0.99696119
    488000  -1329.1862      209.68003     -1538.8662      275.8561      -1204.3986      3840.7412      0.99696119
    489000  -1299.3498      229.69362     -1529.0434      302.18608     -281.1675       3840.7412      0.99696119
    490000  -1316.8336      208.95109     -1525.7847      274.8971       330.04838      3840.7412      0.99696119
    491000  -1286.3398      244.70008     -1531.0398      321.92865      786.55032      3840.7412      0.99696119
    492000  -1305.07        232.24443     -1537.3145      305.54193     -1155.1254      3840.7412      0.99696119
    493000  -1292.9132      247.40728     -1540.3205      325.49025     -24.472245      3840.7412      0.99696119
    494000  -1327.0543      218.94764     -1546.002       288.04862     -977.61948      3840.7412      0.99696119
    495000  -1299.5995      234.9484      -1534.5479      309.09929      94.590906      3840.7412      0.99696119
    496000  -1303.7003      240.31878     -1544.0191      316.16459     -948.4435       3840.7412      0.99696119
    497000  -1311.6793      219.83076     -1531.51        289.21045     -848.75398      3840.7412      0.99696119
    498000  -1310.6573      238.84218     -1549.4995      314.22197      866.30455      3840.7412      0.99696119
    499000  -1351.5604      195.37565     -1546.936       257.03719      400.99062      3840.7412      0.99696119
    500000  -1271.4927      227.8413      -1499.334       299.74916     -1.9101062      3840.7412      0.99696119
    501000  -1311.0554      230.50491     -1541.5603      303.25341     -897.69174      3840.7412      0.99696119
    502000  -1308.0592      229.33288     -1537.392       301.71149     -392.77909      3840.7412      0.99696119
    503000  -1263.9171      238.24289     -1502.16        313.43353      2222.1653      3840.7412      0.99696119
    504000  -1337.6074      225.85423     -1563.4616      297.13495     -891.55806      3840.7412      0.99696119
    505000  -1324.1221      242.64026     -1566.7623      319.21874     -479.19167      3840.7412      0.99696119
    506000  -1294.2465      241.63982     -1535.8863      317.90256      1053.632       3840.7412      0.99696119
    507000  -1313.307       220.14109     -1533.4481      289.61872     -413.93017      3840.7412      0.99696119
    508000  -1318.3546      239.27496     -1557.6296      314.79133      365.34323      3840.7412      0.99696119
    509000  -1287.7058      233.76419     -1521.47        307.54135     -617.06151      3840.7412      0.99696119
    510000  -1321.3425      213.11083     -1534.4533      280.36968     -246.40811      3840.7412      0.99696119
    511000  -1263.1214      258.1851      -1521.3065      339.66961     -1177.4721      3840.7412      0.99696119
    512000  -1305.4472      234.32223     -1539.7694      308.2755       9.3600108      3840.7412      0.99696119
    513000  -1301.2513      218.98229     -1520.2336      288.0942      -694.68646      3840.7412      0.99696119
    514000  -1246.8162      254.40966     -1501.2259      334.70263      643.6143       3840.7412      0.99696119
    515000  -1279.4893      241.29229     -1520.7816      317.44535     -2366.2509      3840.7412      0.99696119
    516000  -1315.4363      230.69171     -1546.128       303.49917     -796.7146       3840.7412      0.99696119
    517000  -1315.4496      219.89101     -1535.3406      289.28971     -347.08298      3840.7412      0.99696119
    518000  -1297.0225      239.1586      -1536.1811      314.63825      30.645838      3840.7412      0.99696119
    519000  -1277.6376      242.02069     -1519.6583      318.40363      1916.0692      3840.7412      0.99696119
    520000  -1298.6464      217.26748     -1515.9139      285.83818      118.11482      3840.7412      0.99696119
    521000  -1305.7406      221.29156     -1527.0321      291.13228     -187.70255      3840.7412      0.99696119
    522000  -1273.3275      231.75276     -1505.0802      304.89509     -133.67055      3840.7412      0.99696119
    523000  -1279.4212      244.02687     -1523.4481      321.04297      242.77696      3840.7412      0.99696119
    524000  -1321.7709      228.61721     -1550.3881      300.76995     -1832.4786      3840.7412      0.99696119
    525000  -1282.4101      243.11726     -1525.5273      319.84628      538.10539      3840.7412      0.99696119
    526000  -1316.4031      232.3003      -1548.7034      305.61544     -974.0049       3840.7412      0.99696119
    527000  -1298.4569      218.8185      -1517.2754      287.87871     -7.4791796      3840.7412      0.99696119
    528000  -1301.902       218.12019     -1520.0222      286.96001     -346.52799      3840.7412      0.99696119
    529000  -1294.7959      232.0858      -1526.8817      305.33324     -1226.8324      3840.7412      0.99696119
    530000  -1350.4768      198.36485     -1548.8417      260.96979     -1674.2114      3840.7412      0.99696119
    531000  -1318.9845      203.59083     -1522.5754      267.84511     -1299.9421      3840.7412      0.99696119
    532000  -1325.0493      227.20354     -1552.2528      298.91012     -880.48334      3840.7412      0.99696119
    533000  -1313.9588      227.41793     -1541.3767      299.19217     -138.1996       3840.7412      0.99696119
    534000  -1286.8968      239.01051     -1525.9073      314.44342     -804.68237      3840.7412      0.99696119
    535000  -1301.9883      234.4886      -1536.4769      308.49437     -377.52965      3840.7412      0.99696119
    536000  -1288.392       247.44494     -1535.8369      325.5398      -859.62616      3840.7412      0.99696119
    537000  -1294.6704      225.11763     -1519.788       296.16588     -1075.8414      3840.7412      0.99696119
    538000  -1307.5321      214.69337     -1522.2254      282.45167      1405.1387      3840.7412      0.99696119
    539000  -1338.0324      209.63309     -1547.6655      275.79435     -443.54115      3840.7412      0.99696119
    540000  -1306.3704      233.43586     -1539.8062      307.10938      314.5615       3840.7412      0.99696119
    541000  -1296.3456      219.06696     -1515.4125      288.20558      194.55312      3840.7412      0.99696119
    542000  -1298.5307      225.8006      -1524.3313      297.0644      -587.96914      3840.7412      0.99696119
    543000  -1309.0768      221.2152      -1530.292       291.03183      222.28285      3840.7412      0.99696119
    544000  -1283.0009      225.52447     -1508.5253      296.70113     -3107.4143      3840.7412      0.99696119
    545000  -1315.7714      226.33045     -1542.1019      297.76147     -787.79586      3840.7412      0.99696119
    546000  -1321.4471      222.96918     -1544.4163      293.33937     -1287.5497      3840.7412      0.99696119
    547000  -1309.6733      225.06788     -1534.7412      296.10043      703.63009      3840.7412      0.99696119
    548000  -1279.3592      236.64987     -1516.009       311.33775      644.52855      3840.7412      0.99696119
    549000  -1310.2379      209.34075     -1519.5786      275.40973     -722.88266      3840.7412      0.99696119
    550000  -1302.7707      226.21466     -1528.9854      297.60914     -1722.8194      3840.7412      0.99696119
    551000  -1286.3574      228.02168     -1514.3791      299.98647     -46.081421      3840.7412      0.99696119
    552000  -1317.5944      216.96295     -1534.5573      285.43754     -488.56419      3840.7412      0.99696119
    553000  -1309.1965      242.86141     -1552.0579      319.50968     -19.262356      3840.7412      0.99696119
    554000  -1338.9121      213.50594     -1552.418       280.88949     -1353.3009      3840.7412      0.99696119
    555000  -1270.5161      258.34967     -1528.8657      339.88612     -609.18036      3840.7412      0.99696119
    556000  -1297.7185      219.6917      -1517.4102      289.0275      -1606.6768      3840.7412      0.99696119
    557000  -1303.0979      222.68511     -1525.783       292.96565     -911.10725      3840.7412      0.99696119
    558000  -1333.9975      206.93987     -1540.9374      272.25113     -233.37608      3840.7412      0.99696119
    559000  -1306.0386      218.591       -1524.6296      287.57941      534.45242      3840.7412      0.99696119
    560000  -1315.1149      206.52942     -1521.6443      271.71114      708.58392      3840.7412      0.99696119
    561000  -1303.6153      221.0933      -1524.7086      290.87145     -1459.9598      3840.7412      0.99696119
    562000  -1340.647       231.07655     -1571.7236      304.00546     -3.3018957      3840.7412      0.99696119
    563000  -1306.138       225.30027     -1531.4383      296.40617      817.26711      3840.7412      0.99696119
    564000  -1289.4615      234.39388     -1523.8553      308.36976     -116.68325      3840.7412      0.99696119
    565000  -1281.8576      244.30975     -1526.1674      321.41513      106.18371      3840.7412      0.99696119
    566000  -1314.6831      233.31262     -1547.9957      306.94725     -925.50347      3840.7412      0.99696119
    567000  -1293.6874      223.95421     -1517.6417      294.63528     -72.766935      3840.7412      0.99696119
    568000  -1266.46        218.11903     -1484.579       286.95849     -575.52435      3840.7412      0.99696119
    569000  -1302.5455      218.58399     -1521.1294      287.57019      1118.3225      3840.7412      0.99696119
    570000  -1298.923       226.53631     -1525.4593      298.0323       1618.9229      3840.7412      0.99696119
    571000  -1317.6939      214.6154      -1532.3093      282.34909     -1923.6175      3840.7412      0.99696119
    572000  -1273.8293      240.95155     -1514.7808      316.99706      760.38905      3840.7412      0.99696119
    573000  -1321.9182      214.51232     -1536.4305      282.21348      234.51384      3840.7412      0.99696119
    574000  -1311.756       223.60923     -1535.3652      294.18143     -864.00976      3840.7412      0.99696119
    575000  -1336.0418      217.11167     -1553.1534      285.6332      -459.92797      3840.7412      0.99696119
    576000  -1326.3087      210.53427     -1536.843       276.97993     -530.17755      3840.7412      0.99696119
    577000  -1308.8041      222.57151     -1531.3756      292.8162      -707.78463      3840.7412      0.99696119
    578000  -1343.865       224.62833     -1568.4933      295.52216     -9.9513823      3840.7412      0.99696119
    579000  -1321.5342      223.52154     -1545.0558      294.06605     -545.66262      3840.7412      0.99696119
    580000  -1328.2877      233.9566      -1562.2443      307.79447     -175.51094      3840.7412      0.99696119
    581000  -1371.2478      206.40704     -1577.6549      271.55013     -1520.5247      3840.7412      0.99696119
    582000  -1298.0836      220.82657     -1518.9102      290.52054     -10.445671      3840.7412      0.99696119
    583000  -1284.5767      233.11435     -1517.691       306.6864      -559.11072      3840.7412      0.99696119
    584000  -1301.7427      235.95941     -1537.7021      310.42939     -652.88777      3840.7412      0.99696119
    585000  -1314.134       235.94952     -1550.0836      310.41637     -1332.8603      3840.7412      0.99696119
    586000  -1317.7698      225.76053     -1543.5303      297.01169      443.00511      3840.7412      0.99696119
    587000  -1311.6764      220.79998     -1532.4764      290.48556     -151.25304      3840.7412      0.99696119
    588000  -1352.8003      226.71788     -1579.5181      298.27118     -909.67656      3840.7412      0.99696119
    589000  -1343.4833      223.43183     -1566.9152      293.94804      891.72589      3840.7412      0.99696119
    590000  -1335.7669      217.357       -1553.1239      285.95595      2709.221       3840.7412      0.99696119
    591000  -1351.6222      226.30332     -1577.9256      297.72579     -444.92448      3840.7412      0.99696119
    592000  -1336.993       217.26289     -1554.2559      285.83214      159.27172      3840.7412      0.99696119
    593000  -1296.6061      224.45265     -1521.0588      295.29103      1308.567       3840.7412      0.99696119
    594000  -1328.745       213.80187     -1542.5469      281.27881     -683.09587      3840.7412      0.99696119
    595000  -1308.4463      213.75976     -1522.2061      281.22341     -1877.563       3840.7412      0.99696119
    596000  -1280.1692      249.35276     -1529.522       328.04974      379.4145       3840.7412      0.99696119
    597000  -1293.5605      240.69355     -1534.254       316.65765      399.67439      3840.7412      0.99696119
    598000  -1323.7457      233.26891     -1557.0146      306.88975     -1492.2358      3840.7412      0.99696119
    599000  -1283.802       228.03329     -1511.8353      300.00174     -1524.7535      3840.7412      0.99696119
    600000  -1317.3809      220.47695     -1537.8579      290.06057     -354.22908      3840.7412      0.99696119
    601000  -1315.4212      223.95864     -1539.3799      294.6411      -1813.327       3840.7412      0.99696119
    602000  -1271.8483      259.87142     -1531.7198      341.88815     -374.31624      3840.7412      0.99696119
    603000  -1277.632       226.99556     -1504.6276      298.6365      -414.34776      3840.7412      0.99696119
    604000  -1320.7967      212.07981     -1532.8765      279.01325     -1207.4082      3840.7412      0.99696119
    605000  -1302.4039      236.64239     -1539.0463      311.32792     -1604.1408      3840.7412      0.99696119
    606000  -1348.8869      208.5671      -1557.454       274.39191      23.861634      3840.7412      0.99696119
    607000  -1344.7164      208.2411      -1552.9575      273.96304     -1149.115       3840.7412      0.99696119
    608000  -1272.9599      241.38114     -1514.3411      317.56223     -1324.4403      3840.7412      0.99696119
    609000  -1275.7797      216.59943     -1492.3791      284.9593      -3432.9075      3840.7412      0.99696119
    610000  -1281.3497      239.49495     -1520.8447      315.08076      1480.7524      3840.7412      0.99696119
    611000  -1296.5218      211.77939     -1508.3012      278.61803     -808.05771      3840.7412      0.99696119
    612000  -1271.3994      226.51528     -1497.9146      298.00464      1273.9764      3840.7412      0.99696119
    613000  -1334.8505      222.16368     -1557.0142      292.27966      997.9705       3840.7412      0.99696119
    614000  -1349.4382      208.09807     -1557.5363      273.77486     -1046.1901      3840.7412      0.99696119
    615000  -1299.9833      229.65018     -1529.6334      302.12893     -1238.8617      3840.7412      0.99696119
    616000  -1305.9635      226.6333      -1532.5968      298.1599      -1772.7136      3840.7412      0.99696119
    617000  -1269.3405      231.6162      -1500.9567      304.71543      1505.6811      3840.7412      0.99696119
    618000  -1306.2012      211.87674     -1518.078       278.74609      1488.0692      3840.7412      0.99696119
    619000  -1318.6707      205.99014     -1524.6608      271.00166     -516.81655      3840.7412      0.99696119
    620000  -1273.6772      220.30888     -1493.9861      289.83947      203.19061      3840.7412      0.99696119
    621000  -1280.1307      222.26175     -1502.3924      292.40868     -1975.5056      3840.7412      0.99696119
    622000  -1278.964       245.26938     -1524.2334      322.67762      1767.5947      3840.7412      0.99696119
    623000  -1311.8392      215.28176     -1527.121       283.22577      748.59719      3840.7412      0.99696119
    624000  -1319.2616      213.62877     -1532.8904      281.05108     -1168.6326      3840.7412      0.99696119
    625000  -1287.2814      235.26937     -1522.5507      309.52156     -381.29854      3840.7412      0.99696119
    626000  -1304.5236      221.31493     -1525.8385      291.16303     -586.23111      3840.7412      0.99696119
    627000  -1280.841       237.49925     -1518.3403      312.45521      1457.4606      3840.7412      0.99696119
    628000  -1308.5762      230.51052     -1539.0867      303.2608       381.85841      3840.7412      0.99696119
    629000  -1312.3238      228.24242     -1540.5662      300.27687     -791.72574      3840.7412      0.99696119
    630000  -1295.7941      216.21756     -1512.0117      284.4569      -671.45665      3840.7412      0.99696119
    631000  -1299.638       221.9411      -1521.5791      291.98682     -698.72947      3840.7412      0.99696119
    632000  -1304.0629      218.06033     -1522.1232      286.88126      1346.9022      3840.7412      0.99696119
    633000  -1258.9913      232.7165      -1491.7078      306.16299      1143.169       3840.7412      0.99696119
    634000  -1313.2125      217.75996     -1530.9724      286.4861      -1552.9742      3840.7412      0.99696119
    635000  -1294.1594      227.71608     -1521.8755      299.58442     -618.47598      3840.7412      0.99696119
    636000  -1307.0574      231.90175     -1538.9592      305.0911      -648.41716      3840.7412      0.99696119
    637000  -1289.127       214.29326     -1503.4203      281.92529     -1060.387       3840.7412      0.99696119
    638000  -1273.8289      220.12141     -1493.9503      289.59283      432.32048      3840.7412      0.99696119
    639000  -1302.7501      217.68724     -1520.4374      286.39042      569.24527      3840.7412      0.99696119
    640000  -1308.2659      224.26936     -1532.5353      295.04989     -332.35687      3840.7412      0.99696119
    641000  -1332.8285      217.26274     -1550.0913      285.83195     -1353.8101      3840.7412      0.99696119
    642000  -1327.8814      216.6136      -1544.495       284.97793      808.20892      3840.7412      0.99696119
    643000  -1331.5126      204.4998      -1536.0125      269.04097     -219.69042      3840.7412      0.99696119
    644000  -1320.036       207.03667     -1527.0727      272.37848      1690.4443      3840.7412      0.99696119
    645000  -1285.0821      230.96262     -1516.0447      303.85558      2735.6959      3840.7412      0.99696119
    646000  -1312.6525      235.41175     -1548.0642      309.70888      2389.2917      3840.7412      0.99696119
    647000  -1279.4826      222.44814     -1501.9308      292.65389     -602.77973      3840.7412      0.99696119
    648000  -1292.1335      233.58701     -1525.7206      307.30824     -355.54983      3840.7412      0.99696119
    649000  -1303.9148      215.32081     -1519.2356      283.27714      452.85757      3840.7412      0.99696119
    650000  -1304.356       229.89187     -1534.2479      302.44689      1150.9937      3840.7412      0.99696119
    651000  -1314.8263      233.78508     -1548.6113      307.56882      1723.9109      3840.7412      0.99696119
    652000  -1332.9081      213.85186     -1546.7599      281.34458      1060.3275      3840.7412      0.99696119
    653000  -1329.7704      214.29311     -1544.0635      281.92509     -1916.7726      3840.7412      0.99696119
    654000  -1271.0182      234.12816     -1505.1464      308.02019      315.90296      3840.7412      0.99696119
    655000  -1299.2936      224.66998     -1523.9635      295.57695      1131.6726      3840.7412      0.99696119
    656000  -1304.8549      230.9644      -1535.8193      303.85792     -1748.4185      3840.7412      0.99696119
    657000  -1288.7719      231.85691     -1520.6289      305.03211     -3565.9344      3840.7412      0.99696119
    658000  -1320.846       230.17124     -1551.0172      302.81443     -1083.0555      3840.7412      0.99696119
    659000  -1325.3794      229.18408     -1554.5635      301.51572     -346.63231      3840.7412      0.99696119
    660000  -1294.0333      236.34661     -1530.3799      310.93878     -678.90628      3840.7412      0.99696119
    661000  -1273.283       231.85839     -1505.1414      305.03406      686.1598       3840.7412      0.99696119
    662000  -1306.0345      220.85069     -1526.8852      290.55227      899.63329      3840.7412      0.99696119
    663000  -1344.9523      204.30838     -1549.2606      268.78912      123.68414      3840.7412      0.99696119
    664000  -1270.2437      253.87161     -1524.1153      333.99476      1528.8928      3840.7412      0.99696119
    665000  -1301.4083      233.47939     -1534.8876      307.16665     -1790.7727      3840.7412      0.99696119
    666000  -1310.3672      211.21108     -1521.5783      277.87036     -69.096602      3840.7412      0.99696119
    667000  -1323.4344      202.22989     -1525.6643      266.05466     -843.47823      3840.7412      0.99696119
    668000  -1299.9607      237.85004     -1537.8107      312.9167       295.59054      3840.7412      0.99696119
    669000  -1331.5076      200.97388     -1532.4815      264.40224      680.68959      3840.7412      0.99696119
    670000  -1299.7908      237.46501     -1537.2558      312.41016     -205.97373      3840.7412      0.99696119
    671000  -1301.156       239.29925     -1540.4553      314.82329     -1132.7606      3840.7412      0.99696119
    672000  -1295.2803      241.45725     -1536.7375      317.66236     -1434.3083      3840.7412      0.99696119
    673000  -1288.0755      227.08638     -1515.1619      298.75598     -154.69431      3840.7412      0.99696119
    674000  -1303.5912      226.68418     -1530.2754      298.22685      1277.1935      3840.7412      0.99696119
    675000  -1326.3222      233.64453     -1559.9667      307.38391      490.66811      3840.7412      0.99696119
    676000  -1328.8835      218.31737     -1547.2009      287.21942      611.78026      3840.7412      0.99696119
    677000  -1311.2905      217.25893     -1528.5495      285.82693      397.8476       3840.7412      0.99696119
    678000  -1287.4948      221.01218     -1508.507       290.76474      973.67683      3840.7412      0.99696119
    679000  -1332.2458      218.69557     -1550.9414      287.71699      1313.7346      3840.7412      0.99696119
    680000  -1313.718       233.69455     -1547.4126      307.44973     -49.893904      3840.7412      0.99696119
    681000  -1279.4405      222.43805     -1501.8786      292.64062      960.57362      3840.7412      0.99696119
    682000  -1302.2817      234.78509     -1537.0668      308.88444      1486.1787      3840.7412      0.99696119
    683000  -1319.8959      206.67755     -1526.5734      271.90602     -658.51755      3840.7412      0.99696119
    684000  -1317.3323      227.27032     -1544.6026      298.99797     -1702.1666      3840.7412      0.99696119
    685000  -1310.1371      221.54954     -1531.6867      291.47169     -223.10965      3840.7412      0.99696119
    686000  -1288.3034      213.99738     -1502.3008      281.53603     -246.81501      3840.7412      0.99696119
    687000  -1276.9076      226.28217     -1503.1897      297.69796     -473.62314      3840.7412      0.99696119
    688000  -1277.0812      231.53936     -1508.6206      304.61434     -633.65481      3840.7412      0.99696119
    689000  -1298.2664      234.13535     -1532.4017      308.02964      259.22113      3840.7412      0.99696119
    690000  -1294.4498      229.81976     -1524.2695      302.35202      49.51674       3840.7412      0.99696119
    691000  -1309.6055      214.03276     -1523.6382      281.58258     -535.61008      3840.7412      0.99696119
    692000  -1288.8693      237.34533     -1526.2147      312.25271      1631.3797      3840.7412      0.99696119
    693000  -1324.2315      210.10429     -1534.3358      276.41425      1479.8415      3840.7412      0.99696119
    694000  -1336.7897      230.56475     -1567.3545      303.33214      2242.433       3840.7412      0.99696119
    695000  -1347.333       196.95712     -1544.2901      259.11778     -407.86892      3840.7412      0.99696119
    696000  -1319.9529      224.63362     -1544.5865      295.52912     -335.43642      3840.7412      0.99696119
    697000  -1331.5769      206.5271      -1538.104       271.70808     -1083.9142      3840.7412      0.99696119
    698000  -1331.1941      230.53858     -1561.7326      303.29771     -1776.4628      3840.7412      0.99696119
    699000  -1324.972       223.87571     -1548.8477      294.532       -2112.5841      3840.7412      0.99696119
    700000  -1277.1557      225.02891     -1502.1846      296.04915      395.59614      3840.7412      0.99696119
    701000  -1297.9343      238.04317     -1535.9775      313.17078     -486.55926      3840.7412      0.99696119
    702000  -1317.7582      240.69792     -1558.4562      316.6634      -2360.011       3840.7412      0.99696119
    703000  -1325.9093      220.41672     -1546.326       289.98134     -184.85095      3840.7412      0.99696119
    704000  -1304.2988      230.44965     -1534.7484      303.18071     -953.82364      3840.7412      0.99696119
    705000  -1275.1872      255.50556     -1530.6927      336.1444       662.20177      3840.7412      0.99696119
    706000  -1315.6087      216.18366     -1531.7923      284.41231     -2640.8333      3840.7412      0.99696119
    707000  -1330.8853      213.95166     -1544.8369      281.47587      293.90744      3840.7412      0.99696119
    708000  -1324.7765      211.96983     -1536.7463      278.86857     -1000.1786      3840.7412      0.99696119
    709000  -1317.8286      228.82523     -1546.6538      301.04362     -1133.2073      3840.7412      0.99696119
    710000  -1307.4696      229.48572     -1536.9553      301.91256     -913.78647      3840.7412      0.99696119
    711000  -1316.3379      220.52694     -1536.8649      290.12635     -494.69548      3840.7412      0.99696119
    712000  -1295.985       224.52098     -1520.506       295.38092      1334.0183      3840.7412      0.99696119
    713000  -1341.2361      222.82396     -1564.06        293.14831     -923.04228      3840.7412      0.99696119
    714000  -1292.413       240.35577     -1532.7688      316.21325     -1810.0298      3840.7412      0.99696119
    715000  -1326.3478      223.06212     -1549.4099      293.46165     -310.86692      3840.7412      0.99696119
    716000  -1301.2187      230.37713     -1531.5958      303.08531      898.91062      3840.7412      0.99696119
    717000  -1313.8955      225.7421      -1539.6376      296.98743     -947.46984      3840.7412      0.99696119
    718000  -1316.9595      224.38388     -1541.3434      295.20056     -1846.3134      3840.7412      0.99696119
    719000  -1327.5856      205.93032     -1533.5159      270.92296     -1506.1952      3840.7412      0.99696119
    720000  -1351.3935      218.12015     -1569.5137      286.95996     -2111.4551      3840.7412      0.99696119
    721000  -1294.8393      220.66707     -1515.5064      290.31071     -1404.1366      3840.7412      0.99696119
    722000  -1295.8089      220.64846     -1516.4574      290.28621     -942.5657       3840.7412      0.99696119
    723000  -1291.4164      235.13756     -1526.554       309.34815     -296.70331      3840.7412      0.99696119
    724000  -1328.9109      207.34228     -1536.2532      272.78054     -196.70887      3840.7412      0.99696119
    725000  -1322.1335      232.2719      -1554.4054      305.57807     -973.56881      3840.7412      0.99696119
    726000  -1329.266       225.29677     -1554.5627      296.40156     -665.96577      3840.7412      0.99696119
    727000  -1280.4705      216.12587     -1496.5964      284.33628      1183.4729      3840.7412      0.99696119
    728000  -1305.0968      234.642       -1539.7388      308.69619      1318.164       3840.7412      0.99696119
    729000  -1282.9985      245.48969     -1528.4882      322.96746      506.27612      3840.7412      0.99696119
    730000  -1309.3454      217.96775     -1527.3131      286.75947     -505.66985      3840.7412      0.99696119
    731000  -1326.618       222.75628     -1549.3743      293.05927      663.14349      3840.7412      0.99696119
    732000  -1323.3933      216.7349      -1540.1282      285.13752     -420.65611      3840.7412      0.99696119
    733000  -1316.0177      229.95852     -1545.9762      302.53458     -67.474009      3840.7412      0.99696119
    734000  -1313.9506      222.22379     -1536.1744      292.35873     -1273.1945      3840.7412      0.99696119
    735000  -1296.9663      233.61837     -1530.5846      307.3495      -2236.4292      3840.7412      0.99696119
    736000  -1287.194       231.82062     -1519.0147      304.98437     -548.76114      3840.7412      0.99696119
    737000  -1300.9562      216.43115     -1517.3874      284.73791     -2370.0679      3840.7412      0.99696119
    738000  -1311.8995      220.69063     -1532.5901      290.34169     -1238.6259      3840.7412      0.99696119
    739000  -1306.1115      228.86161     -1534.9732      301.09149      28.396634      3840.7412      0.99696119
    740000  -1279.5009      237.43566     -1516.9365      312.37155      900.47323      3840.7412      0.99696119
    741000  -1326.2068      218.88071     -1545.0875      287.96056     -2344.3732      3840.7412      0.99696119
    742000  -1273.1139      237.91991     -1511.0338      313.00863     -1264.3131      3840.7412      0.99696119
    743000  -1327.6671      218.58512     -1546.2522      287.57167      928.35281      3840.7412      0.99696119
    744000  -1281.8785      256.84371     -1538.7222      337.90488      285.49219      3840.7412      0.99696119
    745000  -1316.1278      227.71113     -1543.8389      299.5779       800.79549      3840.7412      0.99696119
    746000  -1328.5497      215.69772     -1544.2475      283.773       -944.00293      3840.7412      0.99696119
    747000  -1295.1715      258.28125     -1553.4528      339.79611     -1331.3125      3840.7412      0.99696119
    748000  -1293.4131      242.9782      -1536.3913      319.66334      18.451888      3840.7412      0.99696119
    749000  -1293.1677      234.82773     -1527.9955      308.94054     -906.37431      3840.7412      0.99696119
    750000  -1316.7927      215.23903     -1532.0318      283.16955     -522.98615      3840.7412      0.99696119
    751000  -1312.9751      222.8582      -1535.8333      293.19337     -1045.1469      3840.7412      0.99696119
    752000  -1310.9725      223.03566     -1534.0082      293.42683     -2162.4282      3840.7412      0.99696119
    753000  -1292.0097      219.4205      -1511.4302      288.6707      -31.636973      3840.7412      0.99696119
    754000  -1321.0025      226.26954     -1547.272       297.68134     -329.76168      3840.7412      0.99696119
    755000  -1328.3982      228.19238     -1556.5906      300.21104     -2769.5673      3840.7412      0.99696119
    756000  -1291.3764      239.70498     -1531.0814      315.35708     -1248.1013      3840.7412      0.99696119
    757000  -1315.56        212.14939     -1527.7094      279.10481     -968.57789      3840.7412      0.99696119
    758000  -1276.8551      230.73362     -1507.5887      303.5543      -358.05687      3840.7412      0.99696119
    759000  -1270.6543      235.35306     -1506.0074      309.63166      2467.9281      3840.7412      0.99696119
    760000  -1284.5496      226.6837      -1511.2333      298.22622      783.8086       3840.7412      0.99696119
    761000  -1284.9877      229.67679     -1514.6645      302.16394     -1245.922       3840.7412      0.99696119
    762000  -1306.4464      224.00781     -1530.4542      294.7058       95.362751      3840.7412      0.99696119
    763000  -1329.0424      204.34184     -1533.3842      268.83315     -875.9735       3840.7412      0.99696119
    764000  -1314.5273      221.19819     -1535.7255      291.00945     -1070.7447      3840.7412      0.99696119
    765000  -1318.7298      218.88849     -1537.6183      287.9708       535.95411      3840.7412      0.99696119
    766000  -1328.4557      216.89001     -1545.3457      285.34158      1498.5521      3840.7412      0.99696119
    767000  -1284.7193      219.0474      -1503.7667      288.17985     -1103.8209      3840.7412      0.99696119
    768000  -1312.0811      236.73255     -1548.8137      311.44653     -730.13137      3840.7412      0.99696119
    769000  -1258.4612      217.52958     -1475.9908      286.183        1072.0963      3840.7412      0.99696119
    770000  -1299.7301      245.16954     -1544.8997      322.54627     -133.62273      3840.7412      0.99696119
    771000  -1296.5636      235.51284     -1532.0764      309.84187     -57.104962      3840.7412      0.99696119
    772000  -1305.3773      212.22873     -1517.606       279.20918     -762.6609       3840.7412      0.99696119
    773000  -1271.8567      240.40664     -1512.2633      316.28018     -1719.6484      3840.7412      0.99696119
    774000  -1343.9651      223.881       -1567.8461      294.53897     -504.3136       3840.7412      0.99696119
    775000  -1285.1145      237.03459     -1522.1491      311.84389     -138.19946      3840.7412      0.99696119
    776000  -1319.4896      233.64194     -1553.1315      307.38051      433.91542      3840.7412      0.99696119
    777000  -1334.3281      214.29177     -1548.6198      281.92333      2747.3471      3840.7412      0.99696119
    778000  -1307.9668      225.53419     -1533.501       296.71391     -207.76217      3840.7412      0.99696119
    779000  -1319.9989      234.66723     -1554.6661      308.72939     -776.98886      3840.7412      0.99696119
    780000  -1305.0034      228.94408     -1533.9475      301.19998     -2268.2101      3840.7412      0.99696119
    781000  -1324.4206      215.74348     -1540.164       283.83321     -2417.7227      3840.7412      0.99696119
    782000  -1284.2659      238.18015     -1522.4461      313.351       -1828.4685      3840.7412      0.99696119
    783000  -1273.2206      229.17143     -1502.392       301.49907      380.42205      3840.7412      0.99696119
    784000  -1302.5631      231.91244     -1534.4756      305.10516      1472.7994      3840.7412      0.99696119
    785000  -1329.2405      221.40491     -1550.6454      291.28141      826.19321      3840.7412      0.99696119
    786000  -1334.6072      203.81898     -1538.4261      268.14527     -1811.0924      3840.7412      0.99696119
    787000  -1282.3685      230.21555     -1512.5841      302.87273      165.49722      3840.7412      0.99696119
    788000  -1323.1574      225.85721     -1549.0146      297.13887     -1159.9077      3840.7412      0.99696119
    789000  -1286.3467      229.60355     -1515.9502      302.06757      512.07729      3840.7412      0.99696119
    790000  -1253.2018      259.46353     -1512.6653      341.35152      1186.827       3840.7412      0.99696119
    791000  -1309.3106      225.70737     -1535.0179      296.94175      705.86276      3840.7412      0.99696119
    792000  -1317.1923      240.19645     -1557.3887      316.00365      1414.548       3840.7412      0.99696119
    793000  -1296.1938      211.07208     -1507.2658      277.68749     -3358.171       3840.7412      0.99696119
    794000  -1318.3272      226.91655     -1545.2438      298.53256      1811.768       3840.7412      0.99696119
    795000  -1296.9563      237.79445     -1534.7507      312.84356     -86.729002      3840.7412      0.99696119
    796000  -1293.005       234.38498     -1527.3899      308.35805      637.61819      3840.7412      0.99696119
    797000  -1268.8453      236.4128      -1505.258       311.02586      494.73905      3840.7412      0.99696119
    798000  -1278.8647      237.44352     -1516.3082      312.38189      303.68872      3840.7412      0.99696119
    799000  -1304.4757      215.52241     -1519.9981      283.54236      1216.5516      3840.7412      0.99696119
    800000  -1279.8671      231.19285     -1511.06        304.15847      1092.3253      3840.7412      0.99696119
    801000  -1303.3518      211.26025     -1514.6121      277.93504      1910.243       3840.7412      0.99696119
    802000  -1318.7364      213.90526     -1532.6417      281.41484     -984.37265      3840.7412      0.99696119
    803000  -1316.5984      219.3031      -1535.9015      288.51626      587.05932      3840.7412      0.99696119
    804000  -1295.8636      224.38805     -1520.2517      295.20605      740.29585      3840.7412      0.99696119
    805000  -1300.4149      235.1533      -1535.5682      309.36885      774.65642      3840.7412      0.99696119
    806000  -1312.8609      218.35558     -1531.2165      287.2697      -1559.6329      3840.7412      0.99696119
    807000  -1275.3788      245.43501     -1520.8138      322.89552     -970.6711       3840.7412      0.99696119
    808000  -1297.2105      222.23326     -1519.4438      292.37119     -1017.4951      3840.7412      0.99696119
    809000  -1324.706       225.08777     -1549.7937      296.12659      774.77689      3840.7412      0.99696119
    810000  -1324.5215      220.63453     -1545.156       290.26789     -190.97804      3840.7412      0.99696119
    811000  -1327.5465      223.28883     -1550.8354      293.7599       92.609159      3840.7412      0.99696119
    812000  -1307.598       225.05127     -1532.6493      296.07858      51.959851      3840.7412      0.99696119
    813000  -1310.5151      231.68738     -1542.2025      304.80907      1255.7622      3840.7412      0.99696119
    814000  -1311.7766      230.32785     -1542.1044      303.02047     -579.18848      3840.7412      0.99696119
    815000  -1305.2505      219.01506     -1524.2656      288.13731      342.41432      3840.7412      0.99696119
    816000  -1310.8848      229.04624     -1539.931       301.33438      551.48698      3840.7412      0.99696119
    817000  -1300.9559      221.39069     -1522.3466      291.2627      -775.42965      3840.7412      0.99696119
    818000  -1309.1157      227.88832     -1537.004       299.81102      199.61885      3840.7412      0.99696119
    819000  -1331.0821      207.80779     -1538.8899      273.39298     -1569.3824      3840.7412      0.99696119
    820000  -1343.5119      223.28089     -1566.7928      293.74946     -816.70448      3840.7412      0.99696119
    821000  -1306.0241      212.51089     -1518.5349      279.58039     -1176.7467      3840.7412      0.99696119
    822000  -1323.6196      202.79466     -1526.4142      266.79767     -762.64027      3840.7412      0.99696119
    823000  -1311.1798      211.53779     -1522.7176      278.30018     -464.17987      3840.7412      0.99696119
    824000  -1330.3037      227.06121     -1557.3649      298.72287      251.87889      3840.7412      0.99696119
    825000  -1275.6311      223.24357     -1498.8747      293.70035     -2453.3253      3840.7412      0.99696119
    826000  -1283.444       235.02917     -1518.4732      309.20556     -697.57527      3840.7412      0.99696119
    827000  -1285.815       229.9666      -1515.7816      302.54521      55.523015      3840.7412      0.99696119
    828000  -1248.7366      250.25354     -1498.9901      329.23481     -585.97175      3840.7412      0.99696119
    829000  -1291.8773      228.01514     -1519.8924      299.97786      132.27683      3840.7412      0.99696119
    830000  -1275.6666      241.28869     -1516.9553      317.44061     -766.59742      3840.7412      0.99696119
    831000  -1323.6862      212.18209     -1535.8683      279.14783      733.75853      3840.7412      0.99696119
    832000  -1305.0094      215.10089     -1520.1103      282.9878      -821.66443      3840.7412      0.99696119
    833000  -1313.5974      236.10392     -1549.7013      310.6195      -489.89057      3840.7412      0.99696119
    834000  -1278.2683      240.07813     -1518.3464      315.84799     -15.799594      3840.7412      0.99696119
    835000  -1290.7123      220.46125     -1511.1736      290.03992     -205.58987      3840.7412      0.99696119
    836000  -1308.9784      210.53048     -1519.5089      276.97495     -847.58587      3840.7412      0.99696119
    837000  -1312.6859      219.77922     -1532.4652      289.14264     -975.98185      3840.7412      0.99696119
    838000  -1274.5859      230.34376     -1504.9296      303.0414       235.75962      3840.7412      0.99696119
    839000  -1308.0253      218.95988     -1526.9852      288.06471     -732.21599      3840.7412      0.99696119
    840000  -1320.1325      225.19921     -1545.3317      296.27321     -765.86097      3840.7412      0.99696119
    841000  -1319.4813      216.56016     -1536.0415      284.90764     -28.963361      3840.7412      0.99696119
    842000  -1323.7744      217.33651     -1541.111       285.929        136.25601      3840.7412      0.99696119
    843000  -1287.462       231.1492      -1518.6112      304.10105     -35.537075      3840.7412      0.99696119
    844000  -1309.8465      225.50048     -1535.347       296.66955     -1729.2214      3840.7412      0.99696119
    845000  -1283.7121      231.23558     -1514.9477      304.21468     -954.56009      3840.7412      0.99696119
    846000  -1314.0754      237.51854     -1551.594       312.48057      590.80578      3840.7412      0.99696119
    847000  -1290.5024      231.31361     -1521.816       304.31735     -282.72178      3840.7412      0.99696119
    848000  -1301.2768      231.05585     -1532.3327      303.97824     -269.83047      3840.7412      0.99696119
    849000  -1273.9322      230.91675     -1504.8489      303.79524     -661.0784       3840.7412      0.99696119
    850000  -1313.1424      224.39504     -1537.5374      295.21523     -539.43082      3840.7412      0.99696119
    851000  -1297.6967      231.45537     -1529.152       304.50384      2630.2471      3840.7412      0.99696119
    852000  -1323.9365      222.22691     -1546.1635      292.36283     -806.09251      3840.7412      0.99696119
    853000  -1324.5544      236.93561     -1561.49        311.71368      354.30355      3840.7412      0.99696119
    854000  -1322.672       212.75697     -1535.429       279.90413      780.02393      3840.7412      0.99696119
    855000  -1258.9863      240.72068     -1499.7069      316.69333      729.60006      3840.7412      0.99696119
    856000  -1284.2855      243.67021     -1527.9557      320.57375      1667.9136      3840.7412      0.99696119
    857000  -1324.6817      226.59591     -1551.2776      298.11071     -170.27519      3840.7412      0.99696119
    858000  -1319.88        210.379       -1530.259       276.77567     -1156.024       3840.7412      0.99696119
    859000  -1314.0807      228.54545     -1542.6261      300.67554     -545.01826      3840.7412      0.99696119
    860000  -1305.1133      236.57367     -1541.6869      311.23751     -1380.9399      3840.7412      0.99696119
    861000  -1324.8167      229.11025     -1553.9269      301.4186      -176.50562      3840.7412      0.99696119
    862000  -1318.8946      218.06634     -1536.9609      286.88917     -1437.8566      3840.7412      0.99696119
    863000  -1292.9365      224.19772     -1517.1342      294.95565      581.46967      3840.7412      0.99696119
    864000  -1266.4508      233.81017     -1500.261       307.60184      456.87242      3840.7412      0.99696119
    865000  -1306.8648      248.35552     -1555.2203      326.73776     -1017.3556      3840.7412      0.99696119
    866000  -1301.2078      241.1301      -1542.3379      317.23197      1022.5199      3840.7412      0.99696119
    867000  -1327.4183      212.1696      -1539.5879      279.13139      572.95181      3840.7412      0.99696119
    868000  -1304.8074      238.07718     -1542.8846      313.21553     -908.56369      3840.7412      0.99696119
    869000  -1333.2201      209.1312      -1542.3513      275.13406     -80.226078      3840.7412      0.99696119
    870000  -1305.4993      240.4703      -1545.9696      316.36393     -582.42488      3840.7412      0.99696119
    871000  -1313.2934      213.4562      -1526.7496      280.82405     -1097.5248      3840.7412      0.99696119
    872000  -1292.2518      227.66127     -1519.913       299.5123       358.17898      3840.7412      0.99696119
    873000  -1305.968       232.35318     -1538.3212      305.68501     -2215.1429      3840.7412      0.99696119
    874000  -1296.8779      243.97993     -1540.8578      320.98122     -1036.3005      3840.7412      0.99696119
    875000  -1285.6771      234.42608     -1520.1031      308.41212     -1497.2765      3840.7412      0.99696119
    876000  -1332.8782      216.83459     -1549.7128      285.26867     -1147.7245      3840.7412      0.99696119
    877000  -1259.8359      256.7243      -1516.5602      337.74777     -1309.0625      3840.7412      0.99696119
    878000  -1308.6525      228.68122     -1537.3337      300.85416      1409.6738      3840.7412      0.99696119
    879000  -1286.6248      243.24701     -1529.8718      320.01698     -145.86324      3840.7412      0.99696119
    880000  -1291.9743      246.8258      -1538.8001      324.72526      1250.239       3840.7412      0.99696119
    881000  -1273.9064      248.12758     -1522.034       326.43789      470.65838      3840.7412      0.99696119
    882000  -1288.0885      226.85638     -1514.9449      298.45339      529.39316      3840.7412      0.99696119
    883000  -1306.3656      228.72999     -1535.0956      300.91832     -367.34048      3840.7412      0.99696119
    884000  -1293.1518      228.40422     -1521.556       300.48974     -751.57264      3840.7412      0.99696119
    885000  -1312.6217      229.32099     -1541.9427      301.69585      967.23063      3840.7412      0.99696119
    886000  -1290.7917      218.50031     -1509.292       287.4601      -1835.8887      3840.7412      0.99696119
    887000  -1274.9258      246.54499     -1521.4707      324.35582      890.86051      3840.7412      0.99696119
    888000  -1287.8208      237.27474     -1525.0955      312.15984     -908.85323      3840.7412      0.99696119
    889000  -1298.3068      238.82995     -1537.1367      314.20588      106.27638      3840.7412      0.99696119
    890000  -1264.5056      256.96284     -1521.4685      338.0616      -2001.3771      3840.7412      0.99696119
    891000  -1286.0511      235.12709     -1521.1782      309.33437     -631.41396      3840.7412      0.99696119
    892000  -1298.8672      200.73296     -1499.6002      264.08529     -518.37548      3840.7412      0.99696119
    893000  -1333.6627      226.59959     -1560.2623      298.11555      804.12021      3840.7412      0.99696119
    894000  -1311.6388      223.43488     -1535.0737      293.95204     -1144.3111      3840.7412      0.99696119
    895000  -1316.3211      210.5503      -1526.8714      277.00103     -1176.4344      3840.7412      0.99696119
    896000  -1316.2836      219.16214     -1535.4457      288.33081     -373.28711      3840.7412      0.99696119
    897000  -1322.8658      241.09857     -1563.9644      317.19048     -511.23725      3840.7412      0.99696119
    898000  -1268.6685      245.34283     -1514.0113      322.77426     -2352.0964      3840.7412      0.99696119
    899000  -1344.8525      212.18695     -1557.0394      279.15421     -466.46632      3840.7412      0.99696119
    900000  -1322.6338      222.37162     -1545.0055      292.55322     -338.31574      3840.7412      0.99696119
    901000  -1302.6101      217.36156     -1519.9717      285.96196     -2157.1375      3840.7412      0.99696119
    902000  -1274.8356      246.91688     -1521.7525      324.84508      589.26891      3840.7412      0.99696119
    903000  -1308.4801      217.98582     -1526.4659      286.78323      1487.0766      3840.7412      0.99696119
    904000  -1334.6922      224.08594     -1558.7781      294.80859      965.36461      3840.7412      0.99696119
    905000  -1335.5524      225.08844     -1560.6409      296.12748     -1922.9642      3840.7412      0.99696119
    906000  -1276.7018      238.0556      -1514.7574      313.18714      1713.439       3840.7412      0.99696119
    907000  -1296.4876      238.50481     -1534.9924      313.77813      624.5758       3840.7412      0.99696119
    908000  -1291.7638      252.51775     -1544.2816      332.21362      591.08549      3840.7412      0.99696119
    909000  -1314.3207      225.54086     -1539.8616      296.72269      221.0772       3840.7412      0.99696119
    910000  -1295.5886      234.52456     -1530.1131      308.54169     -1738.2132      3840.7412      0.99696119
    911000  -1304.489       225.44349     -1529.9325      296.59458     -331.32071      3840.7412      0.99696119
    912000  -1275.0948      222.9354      -1498.0302      293.29492     -213.41179      3840.7412      0.99696119
    913000  -1313.2092      235.61789     -1548.8271      309.98008     -146.53084      3840.7412      0.99696119
    914000  -1308.9178      203.5047      -1512.4225      267.73181     -1373.9653      3840.7412      0.99696119
    915000  -1301.372       236.6292      -1538.0012      311.31055      61.468863      3840.7412      0.99696119
    916000  -1288.6319      216.34653     -1504.9784      284.62658      71.224219      3840.7412      0.99696119
    917000  -1312.4267      205.33288     -1517.7596      270.13697     -2846.5918      3840.7412      0.99696119
    918000  -1295.8383      229.11586     -1524.9542      301.42597     -1771.3692      3840.7412      0.99696119
    919000  -1294.5461      220.80298     -1515.3491      290.4895       848.30117      3840.7412      0.99696119
    920000  -1309.026       216.09894     -1525.1249      284.30085     -311.38539      3840.7412      0.99696119
    921000  -1320.8949      215.46614     -1536.3611      283.46833     -90.252174      3840.7412      0.99696119
    922000  -1281.2355      248.27719     -1529.5127      326.63471     -1875.5724      3840.7412      0.99696119
    923000  -1288.9534      240.02011     -1528.9735      315.77166      739.53682      3840.7412      0.99696119
    924000  -1278.7022      231.49902     -1510.2012      304.56127     -2096.3312      3840.7412      0.99696119
    925000  -1309.5264      227.64733     -1537.1738      299.49396     -1512.6464      3840.7412      0.99696119
    926000  -1313.0094      226.8888      -1539.8982      298.49604     -2293.1258      3840.7412      0.99696119
    927000  -1322.117       221.81319     -1543.9302      291.81854      140.83702      3840.7412      0.99696119
    928000  -1342.874       205.97758     -1548.8516      270.98513     -204.6861       3840.7412      0.99696119
    929000  -1334.1868      211.36036     -1545.5471      278.06675     -747.00882      3840.7412      0.99696119
    930000  -1321.1049      228.60847     -1549.7134      300.75844     -56.76172       3840.7412      0.99696119
    931000  -1311.7522      210.80015     -1522.5524      277.32973     -278.5673       3840.7412      0.99696119
    932000  -1303.9976      219.19239     -1523.19        288.37061     -1375.8686      3840.7412      0.99696119
    933000  -1342.5552      212.31213     -1554.8673      279.3189      -420.85144      3840.7412      0.99696119
    934000  -1292.9877      217.4791      -1510.4668      286.11659      945.78766      3840.7412      0.99696119
    935000  -1337.076       226.01172     -1563.0877      297.34215     -1331.1478      3840.7412      0.99696119
    936000  -1251.3512      244.24244     -1495.5936      321.32658      564.03295      3840.7412      0.99696119
    937000  -1274.5165      235.01474     -1509.5313      309.18657     -741.93597      3840.7412      0.99696119
    938000  -1319.2878      225.91561     -1545.2034      297.2157       601.13766      3840.7412      0.99696119
    939000  -1304.1536      242.12144     -1546.275       318.53619     -1330.4756      3840.7412      0.99696119
    940000  -1311.7794      226.79934     -1538.5787      298.37835      1485.4714      3840.7412      0.99696119
    941000  -1282.4028      231.8512      -1514.254       305.0246      -597.50153      3840.7412      0.99696119
    942000  -1292.3527      231.91095     -1524.2636      305.1032      -1698.6112      3840.7412      0.99696119
    943000  -1334.299       212.01885     -1546.3179      278.93306      5.7896677      3840.7412      0.99696119
    944000  -1279.6423      234.49385     -1514.1361      308.50128     -766.76612      3840.7412      0.99696119
    945000  -1317.2957      226.25791     -1543.5536      297.66604      361.75664      3840.7412      0.99696119
    946000  -1291.6525      241.56707     -1533.2196      317.80684      645.54958      3840.7412      0.99696119
    947000  -1323.9274      211.94683     -1535.8743      278.83831     -1542.7345      3840.7412      0.99696119
    948000  -1298.4488      230.34694     -1528.7957      303.04559      137.95919      3840.7412      0.99696119
    949000  -1318.6273      227.52185     -1546.1491      299.32888      602.68579      3840.7412      0.99696119
    950000  -1326.417       225.26642     -1551.6835      296.36163     -186.10692      3840.7412      0.99696119
    951000  -1324.776       197.91295     -1522.689       260.37527      2455.8662      3840.7412      0.99696119
    952000  -1279.3291      229.236       -1508.5651      301.58403      931.97458      3840.7412      0.99696119
    953000  -1289.6028      237.56632     -1527.1691      312.54343      155.83082      3840.7412      0.99696119
    954000  -1312.2493      220.39785     -1532.6471      289.95651      670.6323       3840.7412      0.99696119
    955000  -1290.4018      238.50021     -1528.902       313.77207      495.26446      3840.7412      0.99696119
    956000  -1301.8349      214.7071      -1516.542       282.46973      591.21167      3840.7412      0.99696119
    957000  -1282.4619      232.99955     -1515.4614      306.53538     -1455.0826      3840.7412      0.99696119
    958000  -1325.2336      193.89952     -1519.1332      255.09519     -752.0355       3840.7412      0.99696119
    959000  -1299.9658      222.4407      -1522.4065      292.6441       933.8085       3840.7412      0.99696119
    960000  -1286.3494      233.02011     -1519.3695      306.56242      364.0265       3840.7412      0.99696119
    961000  -1314.0439      236.33746     -1550.3813      310.92675     -1181.0247      3840.7412      0.99696119
    962000  -1269.4441      226.54494     -1495.9891      298.04366     -187.80044      3840.7412      0.99696119
    963000  -1293.9622      219.45245     -1513.4147      288.71274      118.6307       3840.7412      0.99696119
    964000  -1323.6051      228.7445      -1552.3496      300.93741      461.96916      3840.7412      0.99696119
    965000  -1310.2411      221.93875     -1532.1798      291.98374     -336.56773      3840.7412      0.99696119
    966000  -1282.9577      227.59022     -1510.5479      299.41884     -788.64467      3840.7412      0.99696119
    967000  -1305.0139      206.66482     -1511.6787      271.88927     -2849.8243      3840.7412      0.99696119
    968000  -1296.9769      228.54892     -1525.5258      300.68011     -1513.6706      3840.7412      0.99696119
    969000  -1310.9486      235.82939     -1546.778       310.25833      474.79377      3840.7412      0.99696119
    970000  -1322.5424      225.6874      -1548.2298      296.91548     -1404.6663      3840.7412      0.99696119
    971000  -1314.4645      217.58364     -1532.0481      286.25413      851.2343       3840.7412      0.99696119
    972000  -1279.6308      236.50237     -1516.1332      311.1437      -206.57241      3840.7412      0.99696119
    973000  -1324.506       225.36497     -1549.871       296.49128     -152.89723      3840.7412      0.99696119
    974000  -1290.7389      240.20826     -1530.9472      316.01919     -1037.8403      3840.7412      0.99696119
    975000  -1312.9363      215.18847     -1528.1247      283.10303     -629.85976      3840.7412      0.99696119
    976000  -1348.5401      208.79938     -1557.3394      274.69751     -652.87491      3840.7412      0.99696119
    977000  -1273.4191      248.328       -1521.7471      326.70157     -1115.374       3840.7412      0.99696119
    978000  -1314.7445      223.16714     -1537.9116      293.59981      6.3017822      3840.7412      0.99696119
    979000  -1319.5641      246.19043     -1565.7545      323.88936     -429.49492      3840.7412      0.99696119
    980000  -1293.3812      226.822       -1520.2032      298.40816     -613.57362      3840.7412      0.99696119
    981000  -1316.2831      242.36533     -1558.6484      318.85705      57.381082      3840.7412      0.99696119
    982000  -1282.6996      216.22611     -1498.9257      284.46815     -537.05001      3840.7412      0.99696119
    983000  -1291.586       213.5681      -1505.1541      280.97126     -76.790492      3840.7412      0.99696119
    984000  -1283.7981      225.16604     -1508.9641      296.22957     -1575.2588      3840.7412      0.99696119
    985000  -1260.5865      248.33325     -1508.9198      326.70846      908.88913      3840.7412      0.99696119
    986000  -1289.0692      231.39061     -1520.4598      304.41864      688.06252      3840.7412      0.99696119
    987000  -1325.1856      233.75684     -1558.9425      307.53167     -1303.6049      3840.7412      0.99696119
    988000  -1347.679       231.46036     -1579.1394      304.51041      2416.5934      3840.7412      0.99696119
    989000  -1332.9851      213.85249     -1546.8376      281.34541     -31.818938      3840.7412      0.99696119
    990000  -1323.2105      236.06025     -1559.2707      310.56205     -1273.1141      3840.7412      0.99696119
    991000  -1303.5306      201.92254     -1505.4532      265.65031      894.98251      3840.7412      0.99696119
    992000  -1329.0902      225.96555     -1555.0557      297.28141     -643.08685      3840.7412      0.99696119
    993000  -1323.7164      221.76508     -1545.4815      291.75525      548.56615      3840.7412      0.99696119
    994000  -1311.5042      229.59421     -1541.0984      302.0553       799.20311      3840.7412      0.99696119
    995000  -1326.8877      226.63483     -1553.5226      298.16191      222.7274       3840.7412      0.99696119
    996000  -1343.1835      216.79002     -1559.9736      285.21003     -1127.9782      3840.7412      0.99696119
    997000  -1339.8187      196.72641     -1536.5451      258.81425     -374.9856       3840.7412      0.99696119
    998000  -1336.6161      217.87494     -1554.491       286.63736      97.427356      3840.7412      0.99696119
    999000  -1279.7502      236.43653     -1516.1868      311.05709      2215.2812      3840.7412      0.99696119
   1000000  -1286.1723      223.99564     -1510.1679      294.68978     -422.46465      3840.7412      0.99696119
Loop time of 1363.14 on 2 procs for 1000000 steps with 384 atoms

Performance: 63.383 ns/day, 0.379 hours/ns, 733.602 timesteps/s
99.7% CPU use with 2 MPI tasks x 1 OpenMP threads

MPI task timing breakdown:
Section |  min time  |  avg time  |  max time  |%varavg| %total
---------------------------------------------------------------
Pair    | 768.34     | 870.14     | 971.94     | 345.1 | 63.83
Bond    | 0.084323   | 0.086854   | 0.089385   |   0.9 |  0.01
Kspace  | 202.77     | 304.52     | 406.26     | 583.1 | 22.34
Neigh   | 53.499     | 53.502     | 53.504     |   0.0 |  3.92
Comm    | 78.285     | 78.344     | 78.403     |   0.7 |  5.75
Output  | 0.27628    | 0.27904    | 0.2818     |   0.5 |  0.02
Modify  | 53.206     | 53.242     | 53.277     |   0.5 |  3.91
Other   |            | 3.026      |            |       |  0.22

Nlocal:            192 ave         196 max         188 min
Histogram: 1 0 0 0 0 0 0 0 0 1
Nghost:           4850 ave        4859 max        4841 min
Histogram: 1 0 0 0 0 0 0 0 0 1
Neighs:        69359.5 ave       71080 max       67639 min
Histogram: 1 0 0 0 0 0 0 0 0 1

Total # of neighbors = 138719
Ave neighs/atom = 361.2474
Ave special neighs/atom = 2
Neighbor list builds = 33256
Dangerous builds = 0
# write data file
write_data data.after_eq.lmp
System init for write_data ...
PPPM initialization ...
  using 12-bit tables for long-range coulomb (src/kspace.cpp:342)
  G vector (1/distance) = 0.31203871
  grid = 15 15 15
  stencil order = 5
  estimated absolute RMS force accuracy = 0.0022228175
  estimated relative force accuracy = 6.6939488e-06
  using double precision FFTW3
  3d grid and FFT values/proc = 6776 1800
Generated 1 of 1 mixed pair_coeff terms from geometric mixing rule

# clean up
undump dEQUI

# production
# 2 ns
dump dPROD all custom 1000 prod.lammpstrj id element xu yu zu
dump_modify dPROD element H O sort id
run 2000000
PPPM initialization ...
  using 12-bit tables for long-range coulomb (src/kspace.cpp:342)
  G vector (1/distance) = 0.31203871
  grid = 15 15 15
  stencil order = 5
  estimated absolute RMS force accuracy = 0.0022228175
  estimated relative force accuracy = 6.6939488e-06
  using double precision FFTW3
  3d grid and FFT values/proc = 6776 1800
Generated 1 of 1 mixed pair_coeff terms from geometric mixing rule
Per MPI rank memory allocation (min/avg/max) = 9.716 | 9.716 | 9.716 Mbytes
   Step         TotEng         KinEng         PotEng          Temp          Press          Volume        Density
   1000000  -1286.1723      223.99564     -1510.1679      294.68978     -422.25694      3840.7412      0.99696119
   1001000  -1275.683       261.75498     -1537.438       344.36617     -1323.1141      3840.7412      0.99696119
   1002000  -1303.0976      229.32601     -1532.4236      301.70244     -2088.7211      3840.7412      0.99696119
   1003000  -1291.6416      247.55349     -1539.1951      325.68261      155.26682      3840.7412      0.99696119
   1004000  -1331.0082      207.71395     -1538.7221      273.26952     -267.05311      3840.7412      0.99696119
   1005000  -1335.5831      211.64098     -1547.2241      278.43593      608.84226      3840.7412      0.99696119
   1006000  -1274.489       231.65519     -1506.1442      304.76673      486.37661      3840.7412      0.99696119
   1007000  -1301.6505      222.49352     -1524.144       292.71358      116.22598      3840.7412      0.99696119
   1008000  -1297.4975      251.76658     -1549.2641      331.22537     -1004.4178      3840.7412      0.99696119
   1009000  -1362.973       206.43796     -1569.411       271.59081     -686.64748      3840.7412      0.99696119
   1010000  -1287.2016      249.87862     -1537.0802      328.74157      268.08535      3840.7412      0.99696119
   1011000  -1296.6357      228.67276     -1525.3085      300.84302     -293.58283      3840.7412      0.99696119
   1012000  -1327.2815      209.67874     -1536.9603      275.8544      -1006.4126      3840.7412      0.99696119
   1013000  -1284.7357      237.08016     -1521.8158      311.90385     -15.900524      3840.7412      0.99696119
   1014000  -1316.3019      217.58668     -1533.8886      286.25813     -725.32407      3840.7412      0.99696119
   1015000  -1305.0292      237.69744     -1542.7267      312.71594      503.47824      3840.7412      0.99696119
   1016000  -1272.9009      243.90842     -1516.8093      320.88714      134.07914      3840.7412      0.99696119
   1017000  -1315.2695      215.57875     -1530.8482      283.61648     -1144.3387      3840.7412      0.99696119
   1018000  -1311.9083      228.46879     -1540.3771      300.57468     -137.51676      3840.7412      0.99696119
   1019000  -1376.4642      216.95148     -1593.4156      285.42246     -232.64103      3840.7412      0.99696119
   1020000  -1280.6971      225.19984     -1505.8969      296.27404      1056.8503      3840.7412      0.99696119
   1021000  -1283.4121      210.16636     -1493.5784      276.49592     -72.624888      3840.7412      0.99696119
   1022000  -1288.9445      228.36865     -1517.3132      300.44293      1026.8179      3840.7412      0.99696119
   1023000  -1318.8865      227.90061     -1546.7871      299.82718     -1787.5883      3840.7412      0.99696119
   1024000  -1245.4186      244.54936     -1489.968       321.73037     -699.42101      3840.7412      0.99696119
   1025000  -1278.5333      237.69536     -1516.2286      312.7132      -925.61646      3840.7412      0.99696119
   1026000  -1300.5123      216.38985     -1516.9022      284.68357      1279.482       3840.7412      0.99696119
   1027000  -1280.8935      235.49936     -1516.3929      309.82413     -244.61814      3840.7412      0.99696119
   1028000  -1310.9282      225.07014     -1535.9984      296.1034       1081.47        3840.7412      0.99696119
   1029000  -1311.8948      225.57929     -1537.4741      296.77325     -710.99778      3840.7412      0.99696119
   1030000  -1300.9215      242.08157     -1543.0031      318.48373     -932.55247      3840.7412      0.99696119
   1031000  -1304.2652      221.92726     -1526.1924      291.96861     -941.46642      3840.7412      0.99696119
   1032000  -1278.4245      244.30737     -1522.7319      321.41201     -1087.4055      3840.7412      0.99696119
   1033000  -1293.2498      246.26407     -1539.5139      323.98624      1391.8496      3840.7412      0.99696119
   1034000  -1309.9951      198.58943     -1508.5845      261.26525     -708.21502      3840.7412      0.99696119
   1035000  -1290.1409      231.62165     -1521.7626      304.7226      -1227.2275      3840.7412      0.99696119
   1036000  -1257.2486      236.37513     -1493.6237      310.9763       1672.8327      3840.7412      0.99696119
   1037000  -1276.4217      229.7947      -1506.2164      302.31906     -494.06442      3840.7412      0.99696119
   1038000  -1299.6529      240.83526     -1540.4882      316.84407      1161.4999      3840.7412      0.99696119
   1039000  -1327.0321      206.82203     -1533.8541      272.0961       928.31183      3840.7412      0.99696119
   1040000  -1284.6921      228.6317      -1513.3238      300.78901      564.30437      3840.7412      0.99696119
   1041000  -1304.1269      232.91251     -1537.0394      306.42086     -287.20803      3840.7412      0.99696119
   1042000  -1280.0227      233.55997     -1513.5827      307.27267     -1607.1794      3840.7412      0.99696119
   1043000  -1312.5318      227.65182     -1540.1836      299.49987      64.100125      3840.7412      0.99696119
   1044000  -1278.4507      232.63308     -1511.0838      306.05325     -1052.2596      3840.7412      0.99696119
   1045000  -1311.3795      228.67884     -1540.0583      300.85103     -1389.0993      3840.7412      0.99696119
   1046000  -1335.4654      215.55071     -1551.0161      283.5796      -486.28875      3840.7412      0.99696119
   1047000  -1305.7979      227.36972     -1533.1676      299.12874     -443.66826      3840.7412      0.99696119
   1048000  -1279.7514      236.73906     -1516.4905      311.4551       936.41547      3840.7412      0.99696119
   1049000  -1321.9949      219.48118     -1541.4761      288.75054      2013.1797      3840.7412      0.99696119
   1050000  -1316.3682      225.76174     -1542.1299      297.01327     -390.59207      3840.7412      0.99696119
   1051000  -1275.9979      244.69783     -1520.6957      321.92569     -1073.8233      3840.7412      0.99696119
   1052000  -1317.7759      211.26379     -1529.0397      277.9397       503.20919      3840.7412      0.99696119
   1053000  -1297.0578      232.09424     -1529.1521      305.34434      396.37586      3840.7412      0.99696119
   1054000  -1330.9185      226.59521     -1557.5137      298.10979     -200.50715      3840.7412      0.99696119
   1055000  -1311.2908      208.51092     -1519.8017      274.31801     -1154.7248      3840.7412      0.99696119
   1056000  -1344.7273      220.19773     -1564.925       289.69323     -161.64896      3840.7412      0.99696119
   1057000  -1311.9611      218.54808     -1530.5092      287.52295      3316.8997      3840.7412      0.99696119
   1058000  -1325.0139      222.99157     -1548.0055      293.36882     -1585.5833      3840.7412      0.99696119
   1059000  -1307.8731      226.61522     -1534.4883      298.13612      164.29231      3840.7412      0.99696119
   1060000  -1282.7784      247.71066     -1530.489       325.88938     -1266.8885      3840.7412      0.99696119
   1061000  -1296.6965      231.20859     -1527.9051      304.17918      1422.5781      3840.7412      0.99696119
   1062000  -1287.1868      224.56335     -1511.7501      295.43667     -137.89486      3840.7412      0.99696119
   1063000  -1325.2759      233.04714     -1558.323       306.59798     -267.81761      3840.7412      0.99696119
   1064000  -1285.4162      230.14853     -1515.5647      302.78456      249.7214       3840.7412      0.99696119
   1065000  -1311.3472      231.17219     -1542.5193      304.13129      499.74308      3840.7412      0.99696119
   1066000  -1291.941       220.1481      -1512.0891      289.62794      1034.8031      3840.7412      0.99696119
   1067000  -1298.5935      218.0673      -1516.6608      286.89043     -560.15197      3840.7412      0.99696119
   1068000  -1273.9926      250.60667     -1524.5993      329.6994      -127.96825      3840.7412      0.99696119
   1069000  -1290.0193      232.42843     -1522.4478      305.78401     -640.51639      3840.7412      0.99696119
   1070000  -1320.3874      222.29871     -1542.6861      292.4573      -546.07157      3840.7412      0.99696119
   1071000  -1305.5125      237.07024     -1542.5827      311.89079      368.34947      3840.7412      0.99696119
   1072000  -1312.626       222.63285     -1535.2589      292.89689      367.84467      3840.7412      0.99696119
   1073000  -1321.4788      224.63826     -1546.1171      295.53521     -213.98266      3840.7412      0.99696119
   1074000  -1300.5757      222.4401      -1523.0158      292.64331      960.26928      3840.7412      0.99696119
   1075000  -1348.1565      236.08247     -1584.239       310.59128     -805.90148      3840.7412      0.99696119
   1076000  -1337.2101      224.07894     -1561.2891      294.79938     -901.04461      3840.7412      0.99696119
   1077000  -1288.0269      262.81073     -1550.8377      345.75512      1487.2361      3840.7412      0.99696119
   1078000  -1272.1841      238.90416     -1511.0882      314.3035      -85.609372      3840.7412      0.99696119
   1079000  -1264.7336      228.59848     -1493.332       300.74531     -333.58829      3840.7412      0.99696119
   1080000  -1315.0479      238.36176     -1553.4097      313.58992     -1610.4851      3840.7412      0.99696119
   1081000  -1318.997       214.789       -1533.786       282.57748      1296.8311      3840.7412      0.99696119
   1082000  -1348.9847      223.91892     -1572.9036      294.58885     -3906.9663      3840.7412      0.99696119
   1083000  -1334.0134      214.05034     -1548.0638      281.6057      -2131.2363      3840.7412      0.99696119
   1084000  -1316.9899      241.72194     -1558.7118      318.0106      -1253.9616      3840.7412      0.99696119
   1085000  -1327.7069      229.00127     -1556.7082      301.27522     -333.14677      3840.7412      0.99696119
   1086000  -1288.9239      231.44256     -1520.3665      304.48699     -968.20357      3840.7412      0.99696119
   1087000  -1291.5423      241.17887     -1532.7212      317.29613     -955.2106       3840.7412      0.99696119
   1088000  -1286.7675      224.69082     -1511.4583      295.60437      436.89712      3840.7412      0.99696119
   1089000  -1313.231       224.45782     -1537.6888      295.29784     -2674.6968      3840.7412      0.99696119
   1090000  -1326.4724      225.32834     -1551.8007      296.44309     -621.60694      3840.7412      0.99696119
   1091000  -1239.4363      232.28686     -1471.7232      305.59776      483.73226      3840.7412      0.99696119
   1092000  -1280.1068      252.39382     -1532.5006      332.05058      382.68363      3840.7412      0.99696119
   1093000  -1312.3926      239.14673     -1551.5393      314.62264     -445.20831      3840.7412      0.99696119
   1094000  -1298.2074      216.38711     -1514.5945      284.67997     -628.96058      3840.7412      0.99696119
   1095000  -1275.2977      230.3629      -1505.6606      303.06659      1318.3         3840.7412      0.99696119
   1096000  -1297.2265      208.81566     -1506.0422      274.71893     -2110.9071      3840.7412      0.99696119
   1097000  -1277.9743      236.79453     -1514.7688      311.52808     -2466.5464      3840.7412      0.99696119
   1098000  -1274.4804      230.07782     -1504.5582      302.69154     -902.45081      3840.7412      0.99696119
   1099000  -1327.6612      228.55394     -1556.2152      300.68671      588.67418      3840.7412      0.99696119
   1100000  -1271.8057      239.13734     -1510.943       314.61028     -29.324189      3840.7412      0.99696119
   1101000  -1309.4976      217.02925     -1526.5268      285.52477     -107.02437      3840.7412      0.99696119
   1102000  -1337.4455      216.18017     -1553.6257      284.40772      3187.0689      3840.7412      0.99696119
   1103000  -1301.8991      205.47484     -1507.374       270.32373      2099.8189      3840.7412      0.99696119
   1104000  -1308.6544      217.94853     -1526.603       286.73417      1034.1295      3840.7412      0.99696119
   1105000  -1333.4495      218.62287     -1552.0723      287.62135     -1524.0041      3840.7412      0.99696119
   1106000  -1301.4376      235.84892     -1537.2865      310.28401     -627.21918      3840.7412      0.99696119
   1107000  -1328.4864      218.4156      -1546.902       287.34865      1528.5667      3840.7412      0.99696119
   1108000  -1336.8265      243.90543     -1580.7319      320.8832      -1491.3274      3840.7412      0.99696119
   1109000  -1302.9387      237.71833     -1540.657       312.74343      232.73151      3840.7412      0.99696119
   1110000  -1281.016       249.13776     -1530.1537      327.76688     -319.67696      3840.7412      0.99696119
   1111000  -1308.3859      219.24991     -1527.6358      288.44628      1066.208       3840.7412      0.99696119
   1112000  -1339.481       210.71313     -1550.1941      277.21526     -236.29315      3840.7412      0.99696119
   1113000  -1292.9509      243.5496      -1536.5005      320.41507      59.317931      3840.7412      0.99696119
   1114000  -1309.9244      236.40464     -1546.3291      311.01513     -1559.1149      3840.7412      0.99696119
   1115000  -1289.0237      253.29939     -1542.3231      333.24195      377.62096      3840.7412      0.99696119
   1116000  -1295.2862      232.25571     -1527.5419      305.55677     -2155.7947      3840.7412      0.99696119
   1117000  -1300.3754      209.21355     -1509.589       275.24239      1754.1325      3840.7412      0.99696119
   1118000  -1310.6412      207.02295     -1517.6642      272.36043      1038.5174      3840.7412      0.99696119
   1119000  -1270.6664      245.49545     -1516.1619      322.97505     -132.57827      3840.7412      0.99696119
   1120000  -1244.6352      242.79416     -1487.4294      319.42121      377.15015      3840.7412      0.99696119
   1121000  -1286.7511      228.12404     -1514.8752      300.12113     -3188.0917      3840.7412      0.99696119
   1122000  -1300.59        222.8896      -1523.4796      293.23467     -117.27151      3840.7412      0.99696119
   1123000  -1309.0401      229.70312     -1538.7433      302.19857      457.18148      3840.7412      0.99696119
   1124000  -1348.6802      218.78295     -1567.4631      287.83194      368.89656      3840.7412      0.99696119
   1125000  -1326.1867      227.64061     -1553.8273      299.48513     -205.78424      3840.7412      0.99696119
   1126000  -1311.3151      213.18062     -1524.4957      280.4615      -1427.4794      3840.7412      0.99696119
   1127000  -1321.2443      237.02754     -1558.2718      311.83462     -1269.9233      3840.7412      0.99696119
   1128000  -1293.042       233.96401     -1527.006       307.80422      1050.8649      3840.7412      0.99696119
   1129000  -1318.4567      211.91139     -1530.3681      278.79168     -2017.0061      3840.7412      0.99696119
   1130000  -1306.9174      240.32803     -1547.2455      316.17676      1897.1565      3840.7412      0.99696119
   1131000  -1332.4891      231.37997     -1563.869       304.40465      437.40434      3840.7412      0.99696119
   1132000  -1350.3131      221.23043     -1571.5436      291.05186     -599.6865       3840.7412      0.99696119
   1133000  -1314.6896      212.63922     -1527.3288      279.74922     -262.1994       3840.7412      0.99696119
   1134000  -1290.9487      242.63132     -1533.58        319.20698     -1411.4926      3840.7412      0.99696119
   1135000  -1338.0309      210.87473     -1548.9057      277.42785     -1077.5774      3840.7412      0.99696119
   1136000  -1284.1327      240.00952     -1524.1422      315.75773      1400.779       3840.7412      0.99696119
   1137000  -1314.2644      207.20676     -1521.4712      272.60225     -197.27377      3840.7412      0.99696119
   1138000  -1287.5785      229.65819     -1517.2367      302.13947     -1122.7243      3840.7412      0.99696119
   1139000  -1318.7584      223.98219     -1542.7406      294.6721      -856.62518      3840.7412      0.99696119
   1140000  -1314.582       217.01877     -1531.6008      285.51098     -2081.7257      3840.7412      0.99696119
   1141000  -1295.3102      209.07559     -1504.3858      275.06089     -466.79798      3840.7412      0.99696119
   1142000  -1288.3878      233.89802     -1522.2859      307.7174       2512.0017      3840.7412      0.99696119
   1143000  -1325.7774      228.98157     -1554.759       301.2493       2008.1321      3840.7412      0.99696119
   1144000  -1311.0577      227.12016     -1538.1778      298.80043      2834.4519      3840.7412      0.99696119
   1145000  -1291.4303      217.53983     -1508.9702      286.19649     -2984.8272      3840.7412      0.99696119
   1146000  -1273.5182      241.25768     -1514.7759      317.39981      49.5586        3840.7412      0.99696119
   1147000  -1294.8005      256.85992     -1551.6605      337.9262      -316.61506      3840.7412      0.99696119
   1148000  -1304.4795      231.56683     -1536.0463      304.65048     -708.23537      3840.7412      0.99696119
   1149000  -1326.3543      210.97846     -1537.3328      277.56432      293.68556      3840.7412      0.99696119
   1150000  -1278.7492      230.70869     -1509.4579      303.52151     -1392.3507      3840.7412      0.99696119
   1151000  -1328.7658      209.70602     -1538.4718      275.89029     -1053.2999      3840.7412      0.99696119
   1152000  -1315.0475      220.74348     -1535.791       290.41123     -1360.8379      3840.7412      0.99696119
   1153000  -1308.075       229.67644     -1537.7514      302.16348      113.43267      3840.7412      0.99696119
   1154000  -1341.4909      225.61202     -1567.1029      296.8163       61.652438      3840.7412      0.99696119
   1155000  -1352.4665      225.83839     -1578.3049      297.11412      376.59324      3840.7412      0.99696119
   1156000  -1326.391       232.24367     -1558.6346      305.54094     -1062.2656      3840.7412      0.99696119
   1157000  -1339.6088      221.12744     -1560.7362      290.91636     -1722.6401      3840.7412      0.99696119
   1158000  -1335.2313      215.94715     -1551.1785      284.10115     -1913.2159      3840.7412      0.99696119
   1159000  -1315.3524      233.22764     -1548.58        306.83545     -1113.5073      3840.7412      0.99696119
   1160000  -1338.7101      202.78313     -1541.4932      266.78251      1714.33        3840.7412      0.99696119
   1161000  -1302.8577      230.79979     -1533.6575      303.64136     -95.102765      3840.7412      0.99696119
   1162000  -1325.6         230.67159     -1556.2716      303.4727      -290.78707      3840.7412      0.99696119
   1163000  -1332.0739      205.0435      -1537.1174      269.75626      698.9762       3840.7412      0.99696119
   1164000  -1330.292       223.1225      -1553.4145      293.54107     -896.78844      3840.7412      0.99696119
   1165000  -1296.5915      216.64818     -1513.2397      285.02343     -1290.3211      3840.7412      0.99696119
   1166000  -1345.6327      202.3675      -1548.0002      266.2357      -1530.7979      3840.7412      0.99696119
   1167000  -1338.1749      216.4274      -1554.6023      284.73298      685.23208      3840.7412      0.99696119
   1168000  -1260.1627      237.91998     -1498.0827      313.00871     -158.26787      3840.7412      0.99696119
   1169000  -1319.4748      224.38638     -1543.8612      295.20384     -498.79365      3840.7412      0.99696119
   1170000  -1311.581       221.07825     -1532.6592      290.85165     -2985.2184      3840.7412      0.99696119
   1171000  -1315.256       238.4622      -1553.7182      313.72207     -1258.5726      3840.7412      0.99696119
   1172000  -1318.0291      219.20514     -1537.2343      288.38738      713.99006      3840.7412      0.99696119
   1173000  -1318.477       233.62611     -1552.1031      307.35968      595.42924      3840.7412      0.99696119
   1174000  -1318.3208      219.37786     -1537.6987      288.61461     -796.83562      3840.7412      0.99696119
   1175000  -1282.7085      244.16647     -1526.8749      321.22663     -144.81351      3840.7412      0.99696119
   1176000  -1312.9565      233.29105     -1546.2476      306.91888      1620.4759      3840.7412      0.99696119
   1177000  -1321.6264      226.65955     -1548.2859      298.19444     -530.49876      3840.7412      0.99696119
   1178000  -1318.0692      210.5433      -1528.6125      276.99182     -1210.0054      3840.7412      0.99696119
   1179000  -1291.7765      232.47429     -1524.2508      305.84435     -1075.6641      3840.7412      0.99696119
   1180000  -1282.424       255.1115      -1537.5355      335.62596     -1704.9652      3840.7412      0.99696119
   1181000  -1325.2308      239.80325     -1565.034       315.48636      199.34382      3840.7412      0.99696119
   1182000  -1325.5878      219.68914     -1545.2769      289.02414     -1749.8838      3840.7412      0.99696119
   1183000  -1304.7604      235.39639     -1540.1568      309.68867      498.32248      3840.7412      0.99696119
   1184000  -1317.1593      221.72581     -1538.8851      291.70359     -1522.4913      3840.7412      0.99696119
   1185000  -1293.8558      249.47072     -1543.3265      328.20493     -1230.4932      3840.7412      0.99696119
   1186000  -1327.0414      223.09852     -1550.1399      293.50953     -1469.8177      3840.7412      0.99696119
   1187000  -1298.6157      243.40473     -1542.0204      320.22448      517.05706      3840.7412      0.99696119
   1188000  -1296.6022      258.86239     -1555.4646      340.56065     -219.3241       3840.7412      0.99696119
   1189000  -1328.9817      212.34369     -1541.3254      279.36042      1931.4837      3840.7412      0.99696119
   1190000  -1331.781       209.6145      -1541.3955      275.76989      408.02719      3840.7412      0.99696119
   1191000  -1297.4913      221.39571     -1518.887       291.26931     -817.04901      3840.7412      0.99696119
   1192000  -1340.1503      212.77565     -1552.926       279.92871     -926.47907      3840.7412      0.99696119
   1193000  -1327.6225      213.76607     -1541.3886      281.23171     -1566.0343      3840.7412      0.99696119
   1194000  -1305.2621      237.3769      -1542.639       312.29424     -1237.2224      3840.7412      0.99696119
   1195000  -1334.8624      222.55271     -1557.4151      292.79146     -1593.2844      3840.7412      0.99696119
   1196000  -1311.4794      223.28538     -1534.7648      293.75537     -950.98623      3840.7412      0.99696119
   1197000  -1308.5966      238.02674     -1546.6233      313.14917     -901.18215      3840.7412      0.99696119
   1198000  -1302.1291      233.7503      -1535.8793      307.52306      435.21314      3840.7412      0.99696119
   1199000  -1291.8501      231.56878     -1523.4189      304.65305     -303.96428      3840.7412      0.99696119
   1200000  -1286.7138      230.44402     -1517.1578      303.17331     -1198.4935      3840.7412      0.99696119
   1201000  -1288.8181      213.47482     -1502.2929      280.84854      1710.5175      3840.7412      0.99696119
   1202000  -1329.3113      226.45627     -1555.7675      297.92701     -533.33972      3840.7412      0.99696119
   1203000  -1273.6442      229.18716     -1502.8314      301.51978      1237.7062      3840.7412      0.99696119
   1204000  -1274.4208      243.65548     -1518.0763      320.55437     -1820.78        3840.7412      0.99696119
   1205000  -1279.4553      218.10747     -1497.5628      286.94327     -693.91215      3840.7412      0.99696119
   1206000  -1304.722       221.82536     -1526.5473      291.83455     -1770.3557      3840.7412      0.99696119
   1207000  -1293.8053      219.20542     -1513.0108      288.38775     -894.79922      3840.7412      0.99696119
   1208000  -1324.3569      222.22213     -1546.579       292.35654     -43.503248      3840.7412      0.99696119
   1209000  -1324.1809      219.37426     -1543.5552      288.60987     -794.18269      3840.7412      0.99696119
   1210000  -1286.3983      241.5709      -1527.9693      317.81189     -569.50803      3840.7412      0.99696119
   1211000  -1298.015       243.78879     -1541.8038      320.72975      497.84995      3840.7412      0.99696119
   1212000  -1292.1988      218.24091     -1510.4397      287.11883      1406.8134      3840.7412      0.99696119
   1213000  -1297.3258      237.44606     -1534.7719      312.38522      363.51596      3840.7412      0.99696119
   1214000  -1272.2126      248.32711     -1520.5397      326.70039     -1642.3462      3840.7412      0.99696119
   1215000  -1307.6989      192.83145     -1500.5303      253.69003     -1705.7013      3840.7412      0.99696119
   1216000  -1278.3036      222.67122     -1500.9749      292.94738      1764.3647      3840.7412      0.99696119
   1217000  -1320.4632      214.87484     -1535.3381      282.69042     -537.07293      3840.7412      0.99696119
   1218000  -1280.5583      220.48556     -1501.0438      290.07191     -76.6859        3840.7412      0.99696119
   1219000  -1300.2681      222.16813     -1522.4363      292.28551     -502.05169      3840.7412      0.99696119
   1220000  -1281.9874      217.00231     -1498.9897      285.48932      160.35111      3840.7412      0.99696119
   1221000  -1304.358       234.04167     -1538.3997      307.9064       611.54552      3840.7412      0.99696119
   1222000  -1315.6009      221.28782     -1536.8887      291.12736      821.03562      3840.7412      0.99696119
   1223000  -1267.8541      235.0483      -1502.9024      309.23072     -564.02845      3840.7412      0.99696119
   1224000  -1328.5159      222.98215     -1551.4981      293.35644      2852.324       3840.7412      0.99696119
   1225000  -1294.9748      215.57662     -1510.5514      283.61368      657.35354      3840.7412      0.99696119
   1226000  -1282.1627      235.68578     -1517.8485      310.06939     -178.61716      3840.7412      0.99696119
   1227000  -1346.9088      216.19658     -1563.1053      284.4293      -2141.232       3840.7412      0.99696119
   1228000  -1323.7901      227.36689     -1551.1569      299.12501      1645.1537      3840.7412      0.99696119
   1229000  -1300.6216      241.08341     -1541.705       317.17054      1402.4993      3840.7412      0.99696119
   1230000  -1338.5584      205.50923     -1544.0676      270.36897     -1392.2138      3840.7412      0.99696119
   1231000  -1327.2702      239.59189     -1566.8621      315.20829     -2237.3086      3840.7412      0.99696119
   1232000  -1299.7589      240.82454     -1540.5834      316.82997     -601.03367      3840.7412      0.99696119
   1233000  -1298.3734      238.11426     -1536.4877      313.26432     -3219.9736      3840.7412      0.99696119
   1234000  -1260.0173      232.28352     -1492.3008      305.59336      575.38417      3840.7412      0.99696119
   1235000  -1297.7989      243.1397      -1540.9386      319.87581     -1179.92        3840.7412      0.99696119
   1236000  -1335.7455      214.46594     -1550.2114      282.15246     -460.26231      3840.7412      0.99696119
   1237000  -1284.4989      235.09132     -1519.5902      309.28732      1452.1996      3840.7412      0.99696119
   1238000  -1315.1882      221.25289     -1536.4411      291.08141     -18.498802      3840.7412      0.99696119
   1239000  -1291.9511      232.66995     -1524.621       306.10175     -543.44716      3840.7412      0.99696119
   1240000  -1297.1598      230.49607     -1527.6559      303.24179     -1037.7751      3840.7412      0.99696119
   1241000  -1310.4604      230.85606     -1541.3165      303.71539     -1017.9044      3840.7412      0.99696119
   1242000  -1282.0273      228.14792     -1510.1752      300.15254     -268.97007      3840.7412      0.99696119
   1243000  -1271.5249      236.51501     -1508.0399      311.16033     -835.72016      3840.7412      0.99696119
   1244000  -1298.5979      220.87641     -1519.4743      290.58611     -2331.6067      3840.7412      0.99696119
   1245000  -1320.7506      198.72882     -1519.4794      261.44864      136.99644      3840.7412      0.99696119
   1246000  -1302.3387      231.33651     -1533.6753      304.34747     -103.99329      3840.7412      0.99696119
   1247000  -1285.7484      250.73124     -1536.4796      329.86327     -1737.9195      3840.7412      0.99696119
   1248000  -1277.438       229.14598     -1506.584       301.4656      -2194.5275      3840.7412      0.99696119
   1249000  -1293.6014      209.23626     -1502.8377      275.27227      590.78608      3840.7412      0.99696119
   1250000  -1328.3127      210.65231     -1538.965       277.13524     -1649.2149      3840.7412      0.99696119
   1251000  -1269.6721      228.77529     -1498.4474      300.97792     -1896.2686      3840.7412      0.99696119
   1252000  -1302.2709      235.28187     -1537.5528      309.53801      234.29121      3840.7412      0.99696119
   1253000  -1287.7182      237.5756      -1525.2938      312.55564     -774.40883      3840.7412      0.99696119
   1254000  -1296.7104      231.38938     -1528.0998      304.41703     -1135.3172      3840.7412      0.99696119
   1255000  -1290.4147      236.68583     -1527.1005      311.38506     -603.62248      3840.7412      0.99696119
   1256000  -1274.6148      229.28557     -1503.9003      301.64925      419.47436      3840.7412      0.99696119
   1257000  -1252.7302      236.44688     -1489.1771      311.07071     -1204.702       3840.7412      0.99696119
   1258000  -1326.1564      224.88387     -1551.0403      295.85834     -2083.1876      3840.7412      0.99696119
   1259000  -1306.7149      238.81147     -1545.5263      314.18156     -115.87166      3840.7412      0.99696119
   1260000  -1313.0826      230.84568     -1543.9283      303.70173     -1338.6442      3840.7412      0.99696119
   1261000  -1316.5164      222.12546     -1538.6418      292.22937     -791.53084      3840.7412      0.99696119
   1262000  -1292.939       234.90924     -1527.8483      309.04777      1105.003       3840.7412      0.99696119
   1263000  -1331.7217      234.00283     -1565.7246      307.8553       940.71709      3840.7412      0.99696119
   1264000  -1334.7265      204.10686     -1538.8333      268.52401     -836.73573      3840.7412      0.99696119
   1265000  -1292.6946      223.31238     -1516.007       293.79088     -290.31651      3840.7412      0.99696119
   1266000  -1285.9327      228.10809     -1514.0407      300.10014     -2413.6836      3840.7412      0.99696119
   1267000  -1299.0258      241.33504     -1540.3608      317.50159     -1949.0678      3840.7412      0.99696119
   1268000  -1271.9777      235.47503     -1507.4527      309.79213     -405.07755      3840.7412      0.99696119
   1269000  -1292.3066      242.71227     -1535.0188      319.31347     -910.70323      3840.7412      0.99696119
   1270000  -1327.001       220.11037     -1547.1114      289.57831      655.35615      3840.7412      0.99696119
   1271000  -1301.3889      233.40101     -1534.7899      307.06353      278.88932      3840.7412      0.99696119
   1272000  -1279.2986      236.97642     -1516.275       311.76736     -851.19163      3840.7412      0.99696119
   1273000  -1294.3136      236.11692     -1530.4305      310.6366      -70.658875      3840.7412      0.99696119
   1274000  -1286.6083      219.31673     -1505.925       288.53419      1373.4669      3840.7412      0.99696119
   1275000  -1338.6422      227.79839     -1566.4406      299.6927      -345.23945      3840.7412      0.99696119
   1276000  -1308.3017      210.03007     -1518.3318      276.31662     -987.05331      3840.7412      0.99696119
   1277000  -1274.5271      230.49573     -1505.0228      303.24133     -510.6572       3840.7412      0.99696119
   1278000  -1308.6514      232.91272     -1541.5641      306.42114     -1113.7577      3840.7412      0.99696119
   1279000  -1304.7378      219.0452      -1523.783       288.17696      27.982143      3840.7412      0.99696119
   1280000  -1298.35        221.62347     -1519.9734      291.56894     -1555.4049      3840.7412      0.99696119
   1281000  -1325.3205      230.34001     -1555.6605      303.03648     -31.329869      3840.7412      0.99696119
   1282000  -1317.0152      225.33031     -1542.3455      296.44568     -790.74986      3840.7412      0.99696119
   1283000  -1313.8631      218.63322     -1532.4963      287.63496     -61.86647       3840.7412      0.99696119
   1284000  -1297.517       210.91882     -1508.4358      277.48585      1140.8112      3840.7412      0.99696119
   1285000  -1290.6414      245.6802      -1536.3216      323.2181      -168.91384      3840.7412      0.99696119
   1286000  -1289.3957      217.98543     -1507.3811      286.78272     -602.7409       3840.7412      0.99696119
   1287000  -1289.1454      229.11425     -1518.2597      301.42386      383.79802      3840.7412      0.99696119
   1288000  -1308.0766      216.87366     -1524.9503      285.32007      140.75614      3840.7412      0.99696119
   1289000  -1322.8707      231.3412      -1554.2119      304.35365     -1508.0032      3840.7412      0.99696119
   1290000  -1323.5194      210.99082     -1534.5102      277.58057      738.84362      3840.7412      0.99696119
   1291000  -1273.3994      241.82923     -1515.2286      318.15174     -276.39411      3840.7412      0.99696119
   1292000  -1299.0329      225.82275     -1524.8557      297.09354     -611.30134      3840.7412      0.99696119
   1293000  -1283.2316      226.96254     -1510.1941      298.59305     -701.08872      3840.7412      0.99696119
   1294000  -1285.7284      231.90191     -1517.6303      305.09131     -972.54373      3840.7412      0.99696119
   1295000  -1317.178       220.7418      -1537.9198      290.40902     -90.610562      3840.7412      0.99696119
   1296000  -1283.2181      231.20797     -1514.4261      304.17837     -851.94985      3840.7412      0.99696119
   1297000  -1342.1679      216.24678     -1558.4147      284.49534     -1717.6068      3840.7412      0.99696119
   1298000  -1295.018       235.08037     -1530.0984      309.27292     -652.06875      3840.7412      0.99696119
   1299000  -1308.0616      235.81765     -1543.8793      310.24288     -1444.233       3840.7412      0.99696119
   1300000  -1328.2183      233.0129      -1561.2312      306.55293     -1883.6816      3840.7412      0.99696119
   1301000  -1282.4859      231.91652     -1514.4025      305.11054     -410.03742      3840.7412      0.99696119
   1302000  -1308.822       235.75786     -1544.5799      310.16422     -1414.0071      3840.7412      0.99696119
   1303000  -1329.6136      215.57972     -1545.1933      283.61776     -825.94044      3840.7412      0.99696119
   1304000  -1277.8498      249.43238     -1527.2822      328.15449     -1251.8171      3840.7412      0.99696119
   1305000  -1290.0427      217.78636     -1507.8291      286.52082     -380.87367      3840.7412      0.99696119
   1306000  -1322.497       240.73614     -1563.2332      316.71367     -1009.5583      3840.7412      0.99696119
   1307000  -1304.1499      224.06866     -1528.2186      294.78585     -1851.9515      3840.7412      0.99696119
   1308000  -1266.0898      237.20593     -1503.2957      312.06931     -893.0285       3840.7412      0.99696119
   1309000  -1299.4423      217.7047      -1517.147       286.41339      237.25682      3840.7412      0.99696119
   1310000  -1274.9097      227.86232     -1502.772       299.7768       835.4018       3840.7412      0.99696119
   1311000  -1284.9086      235.5913      -1520.4999      309.94509      40.263484      3840.7412      0.99696119
   1312000  -1308.6699      231.59461     -1540.2645      304.68703      287.62963      3840.7412      0.99696119
   1313000  -1285.478       224.86503     -1510.343       295.83356      687.54026      3840.7412      0.99696119
   1314000  -1327.9531      213.84974     -1541.8028      281.34178      571.92466      3840.7412      0.99696119
   1315000  -1296.5277      215.68114     -1512.2088      283.75119     -2703.5311      3840.7412      0.99696119
   1316000  -1338.6105      209.38265     -1547.9931      275.46486     -1791.5615      3840.7412      0.99696119
   1317000  -1338.672       204.89954     -1543.5715      269.56686     -1230.4694      3840.7412      0.99696119
   1318000  -1300.7041      233.77508     -1534.4792      307.55566     -3256.8594      3840.7412      0.99696119
   1319000  -1334.334       225.58283     -1559.9168      296.77791     -273.69086      3840.7412      0.99696119
   1320000  -1314.6071      221.16871     -1535.7758      290.97066     -1155.0964      3840.7412      0.99696119
   1321000  -1314.1974      222.139       -1536.3364      292.24719     -679.37184      3840.7412      0.99696119
   1322000  -1268.7775      249.37678     -1518.1543      328.08135      764.86791      3840.7412      0.99696119
   1323000  -1324.0391      196.7624      -1520.8015      258.8616       828.18262      3840.7412      0.99696119
   1324000  -1275.3176      236.40696     -1511.7246      311.01819      630.39327      3840.7412      0.99696119
   1325000  -1261.0975      235.41286     -1496.5104      309.71034      273.40056      3840.7412      0.99696119
   1326000  -1286.466       207.56532     -1494.0313      273.07397     -618.53894      3840.7412      0.99696119
   1327000  -1290.0163      221.49159     -1511.5079      291.39545     -27.726076      3840.7412      0.99696119
   1328000  -1327.1786      209.23625     -1536.4149      275.27225     -1467.3725      3840.7412      0.99696119
   1329000  -1334.9447      212.61396     -1547.5586      279.71599      733.44839      3840.7412      0.99696119
   1330000  -1308.6337      255.36503     -1563.9987      335.95952     -34.392124      3840.7412      0.99696119
   1331000  -1309.3651      229.71463     -1539.0798      302.21372     -150.49485      3840.7412      0.99696119
   1332000  -1285.9141      235.8748      -1521.7889      310.31807     -591.38754      3840.7412      0.99696119
   1333000  -1305.8225      217.21234     -1523.0349      285.76565      1900.9802      3840.7412      0.99696119
   1334000  -1313.5724      229.53063     -1543.1031      301.97165     -899.15539      3840.7412      0.99696119
   1335000  -1276.4292      231.44298     -1507.8722      304.48755     -532.41459      3840.7412      0.99696119
   1336000  -1331.9633      192.14599     -1524.1093      252.78823     -1178.9568      3840.7412      0.99696119
   1337000  -1301.9442      225.23421     -1527.1784      296.31926     -1172.4356      3840.7412      0.99696119
   1338000  -1303.8823      220.63731     -1524.5196      290.27155     -1891.1686      3840.7412      0.99696119
   1339000  -1331.2274      216.04509     -1547.2725      284.23        -1198.1143      3840.7412      0.99696119
   1340000  -1280.7895      235.58725     -1516.3768      309.93977      637.31909      3840.7412      0.99696119
   1341000  -1284.404       234.85538     -1519.2594      308.97692      1408.8761      3840.7412      0.99696119
   1342000  -1321.4261      212.37449     -1533.8006      279.40094     -1095.7833      3840.7412      0.99696119
   1343000  -1313.0201      233.29989     -1546.3199      306.9305      -1376.1599      3840.7412      0.99696119
   1344000  -1292.1579      234.57709     -1526.735       308.6108      -1614.8913      3840.7412      0.99696119
   1345000  -1326.5515      201.64825     -1528.1998      265.28945     -270.72886      3840.7412      0.99696119
   1346000  -1277.6206      237.10926     -1514.7299      311.94213     -17.573452      3840.7412      0.99696119
   1347000  -1308.1999      212.27108     -1520.471       279.26489     -423.24686      3840.7412      0.99696119
   1348000  -1309.7221      217.14569     -1526.8678      285.67795     -471.21309      3840.7412      0.99696119
   1349000  -1304.6148      218.59459     -1523.2094      287.58413     -1712.9102      3840.7412      0.99696119
   1350000  -1285.9405      216.1692      -1502.1097      284.39328     -1436.4224      3840.7412      0.99696119
   1351000  -1319.759       213.63784     -1533.3968      281.06302      298.56867      3840.7412      0.99696119
   1352000  -1325.5037      226.09038     -1551.5941      297.44564      1984.4244      3840.7412      0.99696119
   1353000  -1301.5325      242.30163     -1543.8341      318.77323     -45.250978      3840.7412      0.99696119
   1354000  -1305.4215      235.18754     -1540.6091      309.41391     -577.43548      3840.7412      0.99696119
   1355000  -1314.0557      216.24685     -1530.3026      284.49544      1350.5201      3840.7412      0.99696119
   1356000  -1327.3424      235.54872     -1562.8911      309.88907      269.79909      3840.7412      0.99696119
   1357000  -1310.7684      219.38341     -1530.1518      288.62192     -42.023289      3840.7412      0.99696119
   1358000  -1285.9529      223.14131     -1509.0942      293.56582     -1196.1268      3840.7412      0.99696119
   1359000  -1299.538       224.92123     -1524.4592      295.9075      -2211.6841      3840.7412      0.99696119
   1360000  -1285.0006      241.06797     -1526.0686      317.15022     -1585.2262      3840.7412      0.99696119
   1361000  -1272.1165      243.67521     -1515.7917      320.58032      3141.9292      3840.7412      0.99696119
   1362000  -1324.9523      217.01713     -1541.9694      285.50882     -71.288705      3840.7412      0.99696119
   1363000  -1316.6901      217.33783     -1534.0279      285.93074     -1570.6044      3840.7412      0.99696119
   1364000  -1256.506       224.49695     -1481.0029      295.34931      452.71984      3840.7412      0.99696119
   1365000  -1293.0798      211.21519     -1504.295       277.87577      767.40374      3840.7412      0.99696119
   1366000  -1285.6863      219.06739     -1504.7537      288.20615      489.48326      3840.7412      0.99696119
   1367000  -1332.3526      219.75597     -1552.1086      289.11205      270.39762      3840.7412      0.99696119
   1368000  -1320.0249      214.02766     -1534.0526      281.57586     -1749.3291      3840.7412      0.99696119
   1369000  -1300.0485      226.74934     -1526.7978      298.31256     -1217.0746      3840.7412      0.99696119
   1370000  -1284.1984      228.49349     -1512.6919      300.60717      2133.6408      3840.7412      0.99696119
   1371000  -1276.1197      237.92311     -1514.0428      313.01283     -163.49731      3840.7412      0.99696119
   1372000  -1337.2436      222.75403     -1559.9976      293.05632     -277.66556      3840.7412      0.99696119
   1373000  -1319.3614      216.03002     -1535.3914      284.21017      377.10479      3840.7412      0.99696119
   1374000  -1311.9276      242.90068     -1554.8282      319.56135      240.34988      3840.7412      0.99696119
   1375000  -1323.4217      220.02546     -1543.4472      289.4666      -1078.4936      3840.7412      0.99696119
   1376000  -1320.5738      213.80357     -1534.3774      281.28105     -1154.2205      3840.7412      0.99696119
   1377000  -1351.0134      208.59725     -1559.6106      274.43159     -589.35795      3840.7412      0.99696119
   1378000  -1286.0093      226.37847     -1512.3878      297.82464      412.78112      3840.7412      0.99696119
   1379000  -1301.4138      218.45407     -1519.8678      287.39927      1.422888       3840.7412      0.99696119
   1380000  -1320.8509      218.70827     -1539.5591      287.73369      1048.9673      3840.7412      0.99696119
   1381000  -1320.0652      226.80282     -1546.868       298.38293      2288.2758      3840.7412      0.99696119
   1382000  -1338.8945      218.94657     -1557.841       288.04721     -290.33738      3840.7412      0.99696119
   1383000  -1346.2594      219.92956     -1566.1889      289.34043      506.78871      3840.7412      0.99696119
   1384000  -1298.3016      228.8694      -1527.171       301.10173      842.85062      3840.7412      0.99696119
   1385000  -1358.0554      199.18016     -1557.2355      262.04241      95.33069       3840.7412      0.99696119
   1386000  -1318.7398      235.47406     -1554.2139      309.79085      473.71882      3840.7412      0.99696119
   1387000  -1325.5749      208.64503     -1534.2199      274.49445     -1903.6792      3840.7412      0.99696119
   1388000  -1226.3677      245.33538     -1471.703       322.76446     -899.32453      3840.7412      0.99696119
   1389000  -1301.7371      240.77694     -1542.514       316.76735     -1310.8193      3840.7412      0.99696119
   1390000  -1283.8569      229.80709     -1513.664       302.33536     -606.57492      3840.7412      0.99696119
   1391000  -1312.3919      212.84575     -1525.2376      280.02093      136.41441      3840.7412      0.99696119
   1392000  -1310.0994      217.93137     -1528.0308      286.7116       111.95389      3840.7412      0.99696119
   1393000  -1324.77        244.19852     -1568.9685      321.26879     -609.70677      3840.7412      0.99696119
   1394000  -1308.3564      225.84308     -1534.1995      297.12028      428.68008      3840.7412      0.99696119
   1395000  -1317.9232      221.1437      -1539.0669      290.93776      1787.3612      3840.7412      0.99696119
   1396000  -1340.2102      223.22087     -1563.4311      293.67049     -927.74013      3840.7412      0.99696119
   1397000  -1316.4023      218.67867     -1535.0809      287.69475      998.15264      3840.7412      0.99696119
   1398000  -1295.2329      227.21311     -1522.446       298.92271     -1827.6192      3840.7412      0.99696119
   1399000  -1297.0776      223.26024     -1520.3379      293.72228      368.94219      3840.7412      0.99696119
   1400000  -1280.8573      238.38631     -1519.2436      313.62222      163.77024      3840.7412      0.99696119
   1401000  -1319.0537      206.84222     -1525.896       272.12267     -386.72571      3840.7412      0.99696119
   1402000  -1341.8484      210.47976     -1552.3282      276.90822     -1009.789       3840.7412      0.99696119
   1403000  -1292.1189      211.23629     -1503.3551      277.90352      102.97591      3840.7412      0.99696119
   1404000  -1331.445       209.79578     -1541.2407      276.00838     -642.39949      3840.7412      0.99696119
   1405000  -1332.9641      226.08406     -1559.0482      297.43732     -366.11027      3840.7412      0.99696119
   1406000  -1304.7053      239.43395     -1544.1393      315.0005      -1223.5158      3840.7412      0.99696119
   1407000  -1293.0211      234.65858     -1527.6796      308.718       -1077.2346      3840.7412      0.99696119
   1408000  -1312.3691      214.07318     -1526.4423      281.63575     -96.773655      3840.7412      0.99696119
   1409000  -1312.5913      214.87363     -1527.4649      282.68882     -2119.6846      3840.7412      0.99696119
   1410000  -1272.0454      242.68418     -1514.7296      319.27652     -1512.537       3840.7412      0.99696119
   1411000  -1306.2983      221.5458      -1527.8441      291.46677     -2044.6742      3840.7412      0.99696119
   1412000  -1309.0775      236.03054     -1545.108       310.52296     -926.26908      3840.7412      0.99696119
   1413000  -1326.3315      226.39394     -1552.7254      297.84501     -1215.854       3840.7412      0.99696119
   1414000  -1306.4405      238.33306     -1544.7735      313.55216      597.736        3840.7412      0.99696119
   1415000  -1326.8149      231.35775     -1558.1727      304.37541     -509.45193      3840.7412      0.99696119
   1416000  -1299.3076      242.39582     -1541.7034      318.89715      1600.4244      3840.7412      0.99696119
   1417000  -1316.0888      223.88232     -1539.9711      294.54071     -109.06452      3840.7412      0.99696119
   1418000  -1295.9478      207.14891     -1503.0967      272.52614     -86.682543      3840.7412      0.99696119
   1419000  -1317.9587      210.83788     -1528.7965      277.37937     -34.001766      3840.7412      0.99696119
   1420000  -1302.3556      209.49184     -1511.8475      275.60851     -1134.8858      3840.7412      0.99696119
   1421000  -1330.8746      233.60953     -1564.4842      307.33787     -603.08541      3840.7412      0.99696119
   1422000  -1352.5253      220.3131      -1572.8384      289.84501      1403.1915      3840.7412      0.99696119
   1423000  -1356.4143      215.22199     -1571.6363      283.14713     -849.3004       3840.7412      0.99696119
   1424000  -1305.9477      219.22429     -1525.172       288.41258     -1465.6559      3840.7412      0.99696119
   1425000  -1287.5932      219.4386      -1507.0318      288.69453      1480.521       3840.7412      0.99696119
   1426000  -1314.7134      234.91276     -1549.6262      309.05241      1324.6501      3840.7412      0.99696119
   1427000  -1303.4649      222.24156     -1525.7064      292.38211      332.19457      3840.7412      0.99696119
   1428000  -1276.6206      226.93638     -1503.557       298.55864      145.08832      3840.7412      0.99696119
   1429000  -1344.62        204.01601     -1548.636       268.40449     -1311.4875      3840.7412      0.99696119
   1430000  -1317.3855      228.52491     -1545.9104      300.64851     -1007.1649      3840.7412      0.99696119
   1431000  -1274.6003      214.81965     -1489.4199      282.61781      1406.3282      3840.7412      0.99696119
   1432000  -1280.599       229.85113     -1510.4501      302.3933      -831.09194      3840.7412      0.99696119
   1433000  -1283.671       219.0603      -1502.7313      288.19683     -2469.0135      3840.7412      0.99696119
   1434000  -1281.8212      236.53075     -1518.3519      311.18103      1320.4547      3840.7412      0.99696119
   1435000  -1330.8496      215.18015     -1546.0297      283.09208      56.359358      3840.7412      0.99696119
   1436000  -1292.1496      228.1016      -1520.2512      300.0916       154.15054      3840.7412      0.99696119
   1437000  -1310.2414      220.98948     -1531.2309      290.73487     -624.86387      3840.7412      0.99696119
   1438000  -1270.5485      227.61176     -1498.1602      299.44717      3505.806       3840.7412      0.99696119
   1439000  -1281.2803      224.02664     -1505.307       294.73057     -23.024997      3840.7412      0.99696119
   1440000  -1331.6846      210.29829     -1541.9828      276.66948     -2446.0695      3840.7412      0.99696119
   1441000  -1246.4151      263.21101     -1509.6261      346.28173     -1606.3833      3840.7412      0.99696119
   1442000  -1301.2556      222.19188     -1523.4475      292.31675     -474.82216      3840.7412      0.99696119
   1443000  -1291.6999      227.64327     -1519.3432      299.48863     -1142.2139      3840.7412      0.99696119
   1444000  -1312.7224      206.43268     -1519.1551      271.58387      353.99585      3840.7412      0.99696119
   1445000  -1319.763       220.40481     -1540.1678      289.96567      2969.32        3840.7412      0.99696119
   1446000  -1322.1109      212.43762     -1534.5485      279.48399     -857.02074      3840.7412      0.99696119
   1447000  -1282.4877      249.02599     -1531.5137      327.61984      170.04151      3840.7412      0.99696119
   1448000  -1292.0796      222.64879     -1514.7284      292.91787      357.71102      3840.7412      0.99696119
   1449000  -1289.9076      228.7401      -1518.6477      300.93162      1230.6715      3840.7412      0.99696119
   1450000  -1312.7379      221.93258     -1534.6704      291.97561     -796.8571       3840.7412      0.99696119
   1451000  -1295.7639      216.4092      -1512.1731      284.70903     -1205.505       3840.7412      0.99696119
   1452000  -1264.623       243.47754     -1508.1006      320.32027     -2228.1067      3840.7412      0.99696119
   1453000  -1299.6744      231.19595     -1530.8704      304.16254     -692.54617      3840.7412      0.99696119
   1454000  -1325.7138      213.70495     -1539.4188      281.1513      -376.32272      3840.7412      0.99696119
   1455000  -1319.8297      219.78721     -1539.6169      289.15315     -2641.5021      3840.7412      0.99696119
   1456000  -1313.2653      226.60691     -1539.8723      298.12519     -1178.4412      3840.7412      0.99696119
   1457000  -1322.6067      236.81046     -1559.4172      311.54903      278.26113      3840.7412      0.99696119
   1458000  -1276.7968      246.31246     -1523.1093      324.04991     -2025.4438      3840.7412      0.99696119
   1459000  -1302.9338      237.83665     -1540.7704      312.89909     -197.73491      3840.7412      0.99696119
   1460000  -1313.5774      222.17076     -1535.7482      292.28897     -2215.107       3840.7412      0.99696119
   1461000  -1282.4397      231.43413     -1513.8738      304.4759      -2105.6041      3840.7412      0.99696119
   1462000  -1294.7815      239.90887     -1534.6903      315.62531     -1300.1548      3840.7412      0.99696119
   1463000  -1307.9622      212.17982     -1520.142       279.14483      979.56061      3840.7412      0.99696119
   1464000  -1339.8391      207.26502     -1547.1041      272.67889     -1171.9613      3840.7412      0.99696119
   1465000  -1290.3937      232.34069     -1522.7344      305.66857      246.81784      3840.7412      0.99696119
   1466000  -1298.4648      218.34275     -1516.8075      287.25281      548.04786      3840.7412      0.99696119
   1467000  -1296.1959      228.67551     -1524.8714      300.84664      1819.5566      3840.7412      0.99696119
   1468000  -1320.1858      208.11357     -1528.2994      273.79526      545.30506      3840.7412      0.99696119
   1469000  -1305.9101      216.6136      -1522.5237      284.97794     -217.96167      3840.7412      0.99696119
   1470000  -1327.3048      216.35833     -1543.6632      284.6421      -2126.8591      3840.7412      0.99696119
   1471000  -1299.8448      230.63602     -1530.4808      303.4259      -559.02104      3840.7412      0.99696119
   1472000  -1323.4351      212.86772     -1536.3028      280.04983     -1558.8673      3840.7412      0.99696119
   1473000  -1308.785       213.31524     -1522.1002      280.6386      -1246.1615      3840.7412      0.99696119
   1474000  -1310.7543      222.60247     -1533.3568      292.85693     -2605.4841      3840.7412      0.99696119
   1475000  -1329.1275      213.80027     -1542.9277      281.2767      -1671.7201      3840.7412      0.99696119
   1476000  -1284.7794      228.32206     -1513.1015      300.38165      705.66369      3840.7412      0.99696119
   1477000  -1322.3075      209.23012     -1531.5377      275.2642       920.46288      3840.7412      0.99696119
   1478000  -1280.8084      227.15803     -1507.9665      298.85024     -413.81472      3840.7412      0.99696119
   1479000  -1284.9768      239.51928     -1524.4961      315.11277      565.29043      3840.7412      0.99696119
   1480000  -1256.0813      247.59171     -1503.673       325.73289      1981.6256      3840.7412      0.99696119
   1481000  -1321.018       207.2864      -1528.3044      272.70703     -615.64563      3840.7412      0.99696119
   1482000  -1293.1215      227.95485     -1521.0763      299.89854     -55.334112      3840.7412      0.99696119
   1483000  -1318.1261      223.14492     -1541.2711      293.57057     -645.44636      3840.7412      0.99696119
   1484000  -1275.1542      218.61235     -1493.7665      287.60751      1243.9438      3840.7412      0.99696119
   1485000  -1323.0417      200.84502     -1523.8867      264.23272     -2328.486       3840.7412      0.99696119
   1486000  -1312.8509      206.94128     -1519.7922      272.25299     -57.401218      3840.7412      0.99696119
   1487000  -1292.2669      210.52099     -1502.7879      276.96247     -1093.587       3840.7412      0.99696119
   1488000  -1285.5584      238.46455     -1524.0229      313.72515     -248.82675      3840.7412      0.99696119
   1489000  -1318.1728      200.96035     -1519.1332      264.38445     -253.59615      3840.7412      0.99696119
   1490000  -1286.4852      233.94333     -1520.4285      307.77701     -141.36681      3840.7412      0.99696119
   1491000  -1306.8059      239.57203     -1546.3779      315.18216      883.62806      3840.7412      0.99696119
   1492000  -1328.7546      222.88172     -1551.6363      293.2243       17.856062      3840.7412      0.99696119
   1493000  -1362.9463      205.15988     -1568.1062      269.90936     -649.26334      3840.7412      0.99696119
   1494000  -1328.25        224.12765     -1552.3776      294.86346     -1676.3224      3840.7412      0.99696119
   1495000  -1307.0707      243.50853     -1550.5792      320.36104      1368.1469      3840.7412      0.99696119
   1496000  -1307.6143      244.30924     -1551.9235      321.41446     -1716.8608      3840.7412      0.99696119
   1497000  -1291.8024      223.50569     -1515.308       294.0452       189.88118      3840.7412      0.99696119
   1498000  -1343.314       227.33186     -1570.6459      299.07893      391.8503       3840.7412      0.99696119
   1499000  -1355.423       214.94214     -1570.3651      282.77895      613.66998      3840.7412      0.99696119
   1500000  -1354.8201      210.78104     -1565.6011      277.3046       750.16115      3840.7412      0.99696119
   1501000  -1311.4707      224.86098     -1536.3317      295.82823      587.01942      3840.7412      0.99696119
   1502000  -1349.5474      229.80638     -1579.3537      302.33442     -402.10803      3840.7412      0.99696119
   1503000  -1294.5628      246.68692     -1541.2497      324.54254      608.07696      3840.7412      0.99696119
   1504000  -1322.0731      225.44959     -1547.5227      296.60261     -1609.2622      3840.7412      0.99696119
   1505000  -1294.9101      248.69728     -1543.6074      327.18738     -375.57823      3840.7412      0.99696119
   1506000  -1322.5255      212.66109     -1535.1866      279.77799     -2555.9134      3840.7412      0.99696119
   1507000  -1323.4953      215.5054      -1539.0007      283.51999     -1278.6769      3840.7412      0.99696119
   1508000  -1293.2194      224.77415     -1517.9936      295.714       -2584.3252      3840.7412      0.99696119
   1509000  -1271.6057      245.9499      -1517.5556      323.57292     -275.91728      3840.7412      0.99696119
   1510000  -1313.1001      233.35538     -1546.4555      307.0035      -1547.7677      3840.7412      0.99696119
   1511000  -1339.3556      215.24712     -1554.6027      283.18019     -1884.1585      3840.7412      0.99696119
   1512000  -1332.8821      194.3722      -1527.2543      255.71704      256.90353      3840.7412      0.99696119
   1513000  -1357.8023      220.35599     -1578.1583      289.90145      1837.557       3840.7412      0.99696119
   1514000  -1353.0374      225.53974     -1578.5772      296.72121      1455.1864      3840.7412      0.99696119
   1515000  -1341.2432      229.87106     -1571.1142      302.41952     -1410.316       3840.7412      0.99696119
   1516000  -1320.6337      217.44348     -1538.0771      286.06974     -396.51329      3840.7412      0.99696119
   1517000  -1333.4731      230.52335     -1563.9964      303.27767     -1714.373       3840.7412      0.99696119
   1518000  -1333.2037      212.10299     -1545.3067      279.04375     -1255.6898      3840.7412      0.99696119
   1519000  -1336.5393      208.68386     -1545.2231      274.54553     -639.49758      3840.7412      0.99696119
   1520000  -1339.1963      226.96358     -1566.1598      298.59442     -242.08827      3840.7412      0.99696119
   1521000  -1328.4622      212.77734     -1541.2395      279.93093     -488.19501      3840.7412      0.99696119
   1522000  -1342.8479      227.457       -1570.3049      299.24357      941.04092      3840.7412      0.99696119
   1523000  -1296.6531      233.74627     -1530.3993      307.51777      1131.3354      3840.7412      0.99696119
   1524000  -1310.4352      202.14476     -1512.58        265.94265     -1079.6607      3840.7412      0.99696119
   1525000  -1306.3726      230.02773     -1536.4003      302.62564      48.619526      3840.7412      0.99696119
   1526000  -1268.9055      232.1211      -1501.0266      305.37969      417.7571       3840.7412      0.99696119
   1527000  -1331.6858      227.51353     -1559.1993      299.31794      1829.732       3840.7412      0.99696119
   1528000  -1290.8747      231.65648     -1522.5312      304.76843      347.43917      3840.7412      0.99696119
   1529000  -1276.4264      247.0693      -1523.4957      325.04561      467.40143      3840.7412      0.99696119
   1530000  -1290.2031      229.37262     -1519.5757      301.76377     -989.64103      3840.7412      0.99696119
   1531000  -1302.6833      221.20546     -1523.8888      291.01901     -1666.8885      3840.7412      0.99696119
   1532000  -1293.5134      232.58103     -1526.0944      305.98477     -1789.0416      3840.7412      0.99696119
   1533000  -1314.3141      213.23783     -1527.5519      280.53675      995.13664      3840.7412      0.99696119
   1534000  -1308.501       224.74972     -1533.2508      295.68185      468.29375      3840.7412      0.99696119
   1535000  -1294.7267      227.7551      -1522.4818      299.63575      84.93678       3840.7412      0.99696119
   1536000  -1289.9989      243.25181     -1533.2507      320.0233       852.84101      3840.7412      0.99696119
   1537000  -1343.4783      228.41903     -1571.8973      300.50921     -37.288833      3840.7412      0.99696119
   1538000  -1294.6618      233.02897     -1527.6907      306.57407      826.67936      3840.7412      0.99696119
   1539000  -1337.2746      229.13576     -1566.4103      301.45215      1504.7596      3840.7412      0.99696119
   1540000  -1313.7744      229.88459     -1543.6589      302.43732      350.8078       3840.7412      0.99696119
   1541000  -1351.8291      210.07207     -1561.9012      276.37186     -1005.1546      3840.7412      0.99696119
   1542000  -1322.2194      221.11403     -1543.3334      290.89872     -117.45988      3840.7412      0.99696119
   1543000  -1305.6548      223.51493     -1529.1697      294.05736     -1001.3274      3840.7412      0.99696119
   1544000  -1308.0603      231.98769     -1540.048       305.20417     -544.16187      3840.7412      0.99696119
   1545000  -1334.9926      217.95112     -1552.9437      286.73758     -1083.297       3840.7412      0.99696119
   1546000  -1315.2639      221.30622     -1536.5701      291.15158     -1337.8612      3840.7412      0.99696119
   1547000  -1257.9365      225.01461     -1482.9511      296.03035      1348.1018      3840.7412      0.99696119
   1548000  -1316.4978      223.01241     -1539.5102      293.39624     -576.44113      3840.7412      0.99696119
   1549000  -1290.8495      219.65446     -1510.5039      288.9785       701.31397      3840.7412      0.99696119
   1550000  -1326.3435      233.99531     -1560.3388      307.8454      -797.02542      3840.7412      0.99696119
   1551000  -1319.9602      227.02426     -1546.9845      298.67425     -1324.9522      3840.7412      0.99696119
   1552000  -1320.8279      216.75012     -1537.578       285.15755     -1140.7847      3840.7412      0.99696119
   1553000  -1276.4844      228.43106     -1504.9155      300.52505      95.520668      3840.7412      0.99696119
   1554000  -1301.7265      232.00081     -1533.7273      305.22143     -448.13336      3840.7412      0.99696119
   1555000  -1310.6503      231.68397     -1542.3343      304.80459     -967.86158      3840.7412      0.99696119
   1556000  -1285.6885      233.45983     -1519.1484      307.14093     -296.51893      3840.7412      0.99696119
   1557000  -1319.6239      217.59913     -1537.2231      286.27451      1164.1741      3840.7412      0.99696119
   1558000  -1303.5942      227.43627     -1531.0305      299.2163       540.20072      3840.7412      0.99696119
   1559000  -1305.5473      211.08977     -1516.637       277.71075     -1923.6685      3840.7412      0.99696119
   1560000  -1306.9176      215.90732     -1522.8249      284.04875     -366.00576      3840.7412      0.99696119
   1561000  -1317.198       212.85053     -1530.0485      280.02723     -1806.6408      3840.7412      0.99696119
   1562000  -1325.6921      229.48948     -1555.1816      301.91751     -1627.9652      3840.7412      0.99696119
   1563000  -1289.7598      239.83404     -1529.5938      315.52686     -1390.7906      3840.7412      0.99696119
   1564000  -1304.4131      241.52397     -1545.937       317.75015     -715.26948      3840.7412      0.99696119
   1565000  -1275.1227      233.57053     -1508.6932      307.28656     -903.53927      3840.7412      0.99696119
   1566000  -1303.5827      215.26347     -1518.8462      283.2017      -364.06957      3840.7412      0.99696119
   1567000  -1258.9936      224.44941     -1483.4431      295.28677      926.75015      3840.7412      0.99696119
   1568000  -1331.6232      206.27454     -1537.8977      271.37582     -1278.6233      3840.7412      0.99696119
   1569000  -1313.1826      228.18715     -1541.3698      300.20415     -1429.8876      3840.7412      0.99696119
   1570000  -1343.5622      220.4116      -1563.9738      289.97461     -1223.2162      3840.7412      0.99696119
   1571000  -1332.8841      209.17432     -1542.0584      275.19078      638.95605      3840.7412      0.99696119
   1572000  -1288.1036      250.0131      -1538.1167      328.91849     -998.25647      3840.7412      0.99696119
   1573000  -1305.6094      241.89852     -1547.5079      318.24291      825.3113       3840.7412      0.99696119
   1574000  -1351.238       211.75952     -1562.9975      278.59188     -1384.6589      3840.7412      0.99696119
   1575000  -1298.6237      231.52068     -1530.1444      304.58977      1575.4613      3840.7412      0.99696119
   1576000  -1273.216       245.34027     -1518.5562      322.77089     -552.64279      3840.7412      0.99696119
   1577000  -1306.5635      239.63026     -1546.1937      315.25876      846.92416      3840.7412      0.99696119
   1578000  -1310.0028      235.88895     -1545.8917      310.33669      501.07204      3840.7412      0.99696119
   1579000  -1308.7357      227.83795     -1536.5736      299.74475     -208.97317      3840.7412      0.99696119
   1580000  -1354.2089      210.83589     -1565.0447      277.37676      1162.0147      3840.7412      0.99696119
   1581000  -1284.4314      230.50893     -1514.9403      303.2587      -1200.0651      3840.7412      0.99696119
   1582000  -1266.0741      220.98185     -1487.056       290.72483      753.29138      3840.7412      0.99696119
   1583000  -1297.0127      228.72104     -1525.7337      300.90654      278.05389      3840.7412      0.99696119
   1584000  -1295.1171      233.18715     -1528.3042      306.78219     -516.97701      3840.7412      0.99696119
   1585000  -1304.7514      239.62372     -1544.3751      315.25017      608.8901       3840.7412      0.99696119
   1586000  -1329.5597      234.79966     -1564.3594      308.9036      -1713.613       3840.7412      0.99696119
   1587000  -1289.5025      226.54342     -1516.0459      298.04166     -1021.4452      3840.7412      0.99696119
   1588000  -1240.1353      254.85502     -1494.9903      335.28853      70.383397      3840.7412      0.99696119
   1589000  -1318.8668      215.1575      -1534.0243      283.06228     -1958.3693      3840.7412      0.99696119
   1590000  -1324.3825      219.1983      -1543.5808      288.37838     -1199.8617      3840.7412      0.99696119
   1591000  -1284.8136      235.79258     -1520.6062      310.2099       281.00066      3840.7412      0.99696119
   1592000  -1315.2313      200.4143      -1515.6456      263.66606      172.49096      3840.7412      0.99696119
   1593000  -1302.3661      246.31253     -1548.6786      324.04999      296.79002      3840.7412      0.99696119
   1594000  -1303.1782      232.38507     -1535.5633      305.72697     -374.93496      3840.7412      0.99696119
   1595000  -1302.23        222.8383      -1525.0683      293.16718     -2064.1742      3840.7412      0.99696119
   1596000  -1286.3554      247.9556      -1534.311       326.21163      93.400453      3840.7412      0.99696119
   1597000  -1288.3701      230.00125     -1518.3713      302.5908      -1346.1422      3840.7412      0.99696119
   1598000  -1307.6442      217.85171     -1525.4959      286.6068       1067.8811      3840.7412      0.99696119
   1599000  -1328.7935      243.95733     -1572.7508      320.95148     -542.2125       3840.7412      0.99696119
   1600000  -1297.8244      239.70578     -1537.5302      315.35812      1510.561       3840.7412      0.99696119
   1601000  -1294.7362      215.62169     -1510.3579      283.67298      48.571712      3840.7412      0.99696119
   1602000  -1328.7334      208.0604      -1536.7938      273.72531     -1160.3702      3840.7412      0.99696119
   1603000  -1287.6788      229.38408     -1517.0629      301.77884     -1557.8504      3840.7412      0.99696119
   1604000  -1359.0239      210.81633     -1569.8403      277.35103     -691.80241      3840.7412      0.99696119
   1605000  -1294.9263      234.02525     -1528.9516      307.88479      286.82684      3840.7412      0.99696119
   1606000  -1307.2386      227.81633     -1535.0549      299.7163      -442.56018      3840.7412      0.99696119
   1607000  -1302.485       220.13598     -1522.621       289.612        343.19786      3840.7412      0.99696119
   1608000  -1279.0047      229.95786     -1508.9625      302.53371     -1733.6736      3840.7412      0.99696119
   1609000  -1319.5382      220.582       -1540.1202      290.19879      99.09325       3840.7412      0.99696119
   1610000  -1318.7675      213.90346     -1532.671       281.41246     -1387.1938      3840.7412      0.99696119
   1611000  -1273.9718      242.3947      -1516.3665      318.89569     -2364.2965      3840.7412      0.99696119
   1612000  -1301.0014      231.89782     -1532.8992      305.08593     -83.047247      3840.7412      0.99696119
   1613000  -1301.5068      215.40953     -1516.9164      283.39385     -2286.6049      3840.7412      0.99696119
   1614000  -1294.7703      230.77031     -1525.5407      303.60257     -1120.0597      3840.7412      0.99696119
   1615000  -1299.3248      230.57534     -1529.9002      303.34607      1498.4081      3840.7412      0.99696119
   1616000  -1313.8924      206.35545     -1520.2478      271.48226     -3236.0605      3840.7412      0.99696119
   1617000  -1300.4138      239.13178     -1539.5456      314.60296     -1291.4698      3840.7412      0.99696119
   1618000  -1288.8492      244.59561     -1533.4448      321.79121     -323.99093      3840.7412      0.99696119
   1619000  -1348.1255      190.41911     -1538.5446      250.51634     -507.99512      3840.7412      0.99696119
   1620000  -1281.2908      237.51007     -1518.8009      312.46944     -1153.5684      3840.7412      0.99696119
   1621000  -1247.1392      244.91506     -1492.0543      322.21148     -504.44038      3840.7412      0.99696119
   1622000  -1302.4555      224.89181     -1527.3473      295.8688       204.28537      3840.7412      0.99696119
   1623000  -1325.8937      224.94737     -1550.8411      295.94189     -723.44304      3840.7412      0.99696119
   1624000  -1328.1953      224.59754     -1552.7928      295.48165     -1636.0707      3840.7412      0.99696119
   1625000  -1315.4243      222.57784     -1538.0021      292.82452     -245.10291      3840.7412      0.99696119
   1626000  -1295.1258      241.30619     -1536.432       317.46363      206.65089      3840.7412      0.99696119
   1627000  -1293.2705      229.94745     -1523.2179      302.52002     -428.14083      3840.7412      0.99696119
   1628000  -1289.8691      227.1696      -1517.0387      298.86546      1026.2235      3840.7412      0.99696119
   1629000  -1326.4201      218.24386     -1544.664       287.12272     -2231.8719      3840.7412      0.99696119
   1630000  -1273.102       254.27296     -1527.375       334.52278     -2090.3268      3840.7412      0.99696119
   1631000  -1291.1494      220.00101     -1511.1504      289.43443      400.97308      3840.7412      0.99696119
   1632000  -1313.5763      232.24902     -1545.8254      305.54797      163.93413      3840.7412      0.99696119
   1633000  -1319.0508      214.28315     -1533.334       281.91198      1619.0212      3840.7412      0.99696119
   1634000  -1326.0511      218.92693     -1544.978       288.02136     -726.62811      3840.7412      0.99696119
   1635000  -1358.6128      211.62262     -1570.2354      278.41177     -883.02196      3840.7412      0.99696119
   1636000  -1286.5861      221.15326     -1507.7394      290.95034      296.65338      3840.7412      0.99696119
   1637000  -1341.8252      202.6741      -1544.4993      266.63906      4.1090765      3840.7412      0.99696119
   1638000  -1319.1719      223.03626     -1542.2081      293.42762      668.18634      3840.7412      0.99696119
   1639000  -1327.7028      222.42876     -1550.1315      292.62839     -1203.1944      3840.7412      0.99696119
   1640000  -1291.6493      211.74376     -1503.393       278.57115     -470.87349      3840.7412      0.99696119
   1641000  -1298.777       222.13187     -1520.9089      292.23781     -967.03755      3840.7412      0.99696119
   1642000  -1288.1574      237.05704     -1525.2144      311.87343      310.86744      3840.7412      0.99696119
   1643000  -1316.3188      225.65114     -1541.97        296.86777     -598.1436       3840.7412      0.99696119
   1644000  -1338.5128      209.19139     -1547.7042      275.21325     -2794.4639      3840.7412      0.99696119
   1645000  -1324.9377      233.94937     -1558.8871      307.78497      42.181222      3840.7412      0.99696119
   1646000  -1285.7308      232.21423     -1517.945       305.50221      735.35741      3840.7412      0.99696119
   1647000  -1283.1516      243.60235     -1526.7539      320.48447     -541.86754      3840.7412      0.99696119
   1648000  -1325.9151      225.71537     -1551.6305      296.95227      214.85345      3840.7412      0.99696119
   1649000  -1279.4692      219.02575     -1498.495       288.15137     -663.8138       3840.7412      0.99696119
   1650000  -1297.5047      232.99103     -1530.4958      306.52417     -1523.1218      3840.7412      0.99696119
   1651000  -1293.1652      223.51715     -1516.6823      294.06028      533.54017      3840.7412      0.99696119
   1652000  -1281.323       227.52993     -1508.8529      299.33951     -408.41375      3840.7412      0.99696119
   1653000  -1301.5196      206.87758     -1508.3972      272.16918     -1113.5776      3840.7412      0.99696119
   1654000  -1312.0565      226.08101     -1538.1375      297.43331     -1394.7247      3840.7412      0.99696119
   1655000  -1319.8091      219.28568     -1539.0948      288.49334     -643.22248      3840.7412      0.99696119
   1656000  -1290.9162      230.73283     -1521.649       303.55327     -130.48123      3840.7412      0.99696119
   1657000  -1318.6177      221.43823     -1540.0559      291.32524      848.70307      3840.7412      0.99696119
   1658000  -1281.3213      192.05687     -1473.3782      252.67098      1116.4045      3840.7412      0.99696119
   1659000  -1314.6252      227.83142     -1542.4566      299.73616      1753.0114      3840.7412      0.99696119
   1660000  -1304.2237      244.10152     -1548.3252      321.14119      1893.8219      3840.7412      0.99696119
   1661000  -1327.172       236.02255     -1563.1945      310.51245      679.50296      3840.7412      0.99696119
   1662000  -1270.8803      251.40242     -1522.2827      330.74628      146.17394      3840.7412      0.99696119
   1663000  -1324.023       219.46185     -1543.4849      288.72511      125.03136      3840.7412      0.99696119
   1664000  -1299.5658      214.97803     -1514.5438      282.82617     -1121.9365      3840.7412      0.99696119
   1665000  -1298.9287      228.56828     -1527.497       300.70557     -275.66013      3840.7412      0.99696119
   1666000  -1252.7558      250.0202      -1502.776       328.92782     -178.27358      3840.7412      0.99696119
   1667000  -1291.1043      229.17179     -1520.2761      301.49955      1074.8728      3840.7412      0.99696119
   1668000  -1273.6418      243.8117      -1517.4535      320.7599       298.43696      3840.7412      0.99696119
   1669000  -1267.2628      237.17267     -1504.4355      312.02556     -806.09599      3840.7412      0.99696119
   1670000  -1331.7146      218.38562     -1550.1003      287.30921     -440.51178      3840.7412      0.99696119
   1671000  -1312.5335      209.3178      -1521.8513      275.37955     -1355.1583      3840.7412      0.99696119
   1672000  -1376.0301      205.18028     -1581.2104      269.93621     -1765.9599      3840.7412      0.99696119
   1673000  -1320.9534      239.65859     -1560.612       315.29604      342.18768      3840.7412      0.99696119
   1674000  -1352.452       218.36302     -1570.815       287.27948      2000.1989      3840.7412      0.99696119
   1675000  -1349.4283      212.64926     -1562.0776      279.76243      479.53041      3840.7412      0.99696119
   1676000  -1304.8516      219.80633     -1524.6579      289.17831     -1067.2221      3840.7412      0.99696119
   1677000  -1349.8606      205.29513     -1555.1557      270.0873       229.10106      3840.7412      0.99696119
   1678000  -1299.043       218.40336     -1517.4463      287.33255     -1885.8721      3840.7412      0.99696119
   1679000  -1260.6169      254.29969     -1514.9166      334.55795      370.63164      3840.7412      0.99696119
   1680000  -1287.7547      253.16783     -1540.9225      333.06886      453.41316      3840.7412      0.99696119
   1681000  -1279.7866      249.342       -1529.1286      328.03558      1786.3515      3840.7412      0.99696119
   1682000  -1304.4212      218.76043     -1523.1816      287.80232     -464.83421      3840.7412      0.99696119
   1683000  -1319.7085      219.5812      -1539.2897      288.88213     -993.34951      3840.7412      0.99696119
   1684000  -1276.6377      227.69084     -1504.3286      299.5512       742.51659      3840.7412      0.99696119
   1685000  -1312.8221      220.07635     -1532.8984      289.53354     -782.13208      3840.7412      0.99696119
   1686000  -1324.2589      212.29563     -1536.5546      279.29719      584.11744      3840.7412      0.99696119
   1687000  -1302.2422      234.96205     -1537.2042      309.11726      585.22162      3840.7412      0.99696119
   1688000  -1338.3751      217.95819     -1556.3333      286.74689     -1209.852       3840.7412      0.99696119
   1689000  -1311.235       225.2674      -1536.5024      296.36292     -1674.4978      3840.7412      0.99696119
   1690000  -1302.8172      222.33827     -1525.1555      292.50934     -1255.1546      3840.7412      0.99696119
   1691000  -1290.6669      227.65118     -1518.3181      299.49903     -155.16597      3840.7412      0.99696119
   1692000  -1306.4173      209.34107     -1515.7584      275.41016     -2473.8671      3840.7412      0.99696119
   1693000  -1284.6444      223.05838     -1507.7028      293.45673     -516.6763       3840.7412      0.99696119
   1694000  -1318.7494      222.6771      -1541.4265      292.95511     -1804.4712      3840.7412      0.99696119
   1695000  -1292.0633      234.7021      -1526.7654      308.77525     -1942.4246      3840.7412      0.99696119
   1696000  -1328.3008      240.75236     -1569.0532      316.73501     -24.567149      3840.7412      0.99696119
   1697000  -1283.181       247.25656     -1530.4375      325.29197      1077.5965      3840.7412      0.99696119
   1698000  -1277.7216      230.99052     -1508.7121      303.89228      498.04679      3840.7412      0.99696119
   1699000  -1327.3356      229.58227     -1556.9178      302.03958      1799.6558      3840.7412      0.99696119
   1700000  -1271.0658      252.04198     -1523.1077      331.58768      62.388463      3840.7412      0.99696119
   1701000  -1314.5878      218.64031     -1533.2281      287.64428      2460.4284      3840.7412      0.99696119
   1702000  -1346.1193      212.3161      -1558.4354      279.32412      629.91783      3840.7412      0.99696119
   1703000  -1297.684       239.17855     -1536.8626      314.66449     -1209.2787      3840.7412      0.99696119
   1704000  -1348.1734      203.37661     -1551.55        267.56329      434.18022      3840.7412      0.99696119
   1705000  -1310.7462      210.60899     -1521.3551      277.07825     -1050.6764      3840.7412      0.99696119
   1706000  -1297.789       250.13903     -1547.928       329.08416     -992.35288      3840.7412      0.99696119
   1707000  -1281.0429      226.56488     -1507.6077      298.06989     -142.0253       3840.7412      0.99696119
   1708000  -1258.1715      242.56909     -1500.7406      319.12511     -278.71558      3840.7412      0.99696119
   1709000  -1304.8405      226.53786     -1531.3783      298.03434      1052.7145      3840.7412      0.99696119
   1710000  -1306.5071      220.77062     -1527.2777      290.44693     -1327.8638      3840.7412      0.99696119
   1711000  -1321.3301      209.19966     -1530.5297      275.22411     -250.3536       3840.7412      0.99696119
   1712000  -1294.2118      228.07992     -1522.2917      300.06308      1447.0323      3840.7412      0.99696119
   1713000  -1328.187       218.68761     -1546.8746      287.70652     -362.05699      3840.7412      0.99696119
   1714000  -1313.8937      241.07788     -1554.9716      317.16326      672.94906      3840.7412      0.99696119
   1715000  -1315.5059      203.51547     -1519.0214      267.74598     -550.72929      3840.7412      0.99696119
   1716000  -1284.7827      228.07289     -1512.8556      300.05384      766.12813      3840.7412      0.99696119
   1717000  -1316.4157      212.76438     -1529.18        279.91389      1257.4118      3840.7412      0.99696119
   1718000  -1311.9291      230.06952     -1541.9986      302.68061     -1195.3448      3840.7412      0.99696119
   1719000  -1268.3771      227.95775     -1496.3349      299.90236      160.60326      3840.7412      0.99696119
   1720000  -1347.3454      197.55774     -1544.9032      259.90795      580.63922      3840.7412      0.99696119
   1721000  -1303.753       228.10884     -1531.8619      300.10114      600.56344      3840.7412      0.99696119
   1722000  -1361.2065      214.53198     -1575.7385      282.23934      56.629101      3840.7412      0.99696119
   1723000  -1312.1272      229.9036      -1542.0308      302.46233     -1134.5271      3840.7412      0.99696119
   1724000  -1272.3188      251.63752     -1523.9563      331.05559     -152.20324      3840.7412      0.99696119
   1725000  -1289.8322      228.15034     -1517.9825      300.15573     -456.60768      3840.7412      0.99696119
   1726000  -1294.4723      261.47776     -1555.9501      344.00145      908.20467      3840.7412      0.99696119
   1727000  -1284.6253      229.85561     -1514.4809      302.39919     -1457.3267      3840.7412      0.99696119
   1728000  -1305.2661      226.14326     -1531.4093      297.5152       610.96471      3840.7412      0.99696119
   1729000  -1286.6885      239.23033     -1525.9188      314.73262      722.64217      3840.7412      0.99696119
   1730000  -1317.6645      219.41326     -1537.0778      288.66118     -667.12952      3840.7412      0.99696119
   1731000  -1302.9152      240.1767      -1543.0919      315.97767      402.9871       3840.7412      0.99696119
   1732000  -1308.5811      223.41819     -1531.9993      293.93009      980.33797      3840.7412      0.99696119
   1733000  -1344.9073      210.10704     -1555.0143      276.41788     -1005.9321      3840.7412      0.99696119
   1734000  -1280.8702      240.95176     -1521.822       316.99735     -807.38849      3840.7412      0.99696119
   1735000  -1307.7986      225.9838      -1533.7824      297.30542     -1571.9446      3840.7412      0.99696119
   1736000  -1316.786       207.99491     -1524.7809      273.63915     -1524.5699      3840.7412      0.99696119
   1737000  -1293.2517      206.01603     -1499.2678      271.03572     -1272.9068      3840.7412      0.99696119
   1738000  -1261.2814      230.49134     -1491.7727      303.23556      840.35039      3840.7412      0.99696119
   1739000  -1301.0947      226.48448     -1527.5792      297.96412     -1051.6745      3840.7412      0.99696119
   1740000  -1300.4209      225.39961     -1525.8205      296.53685     -7.6081896      3840.7412      0.99696119
   1741000  -1321.7086      212.82218     -1534.5308      279.98993      0.84623312     3840.7412      0.99696119
   1742000  -1264.1293      229.12397     -1493.2533      301.43664      267.84409      3840.7412      0.99696119
   1743000  -1281.5733      225.6645      -1507.2378      296.88534     -261.151        3840.7412      0.99696119
   1744000  -1275.0215      241.38481     -1516.4063      317.56706     -1336.2856      3840.7412      0.99696119
   1745000  -1302.0088      227.35825     -1529.367       299.11365      87.0537        3840.7412      0.99696119
   1746000  -1263.8406      236.36083     -1500.2014      310.95749      255.89         3840.7412      0.99696119
   1747000  -1298.7821      220.5102      -1519.2923      290.10432     -1240.1411      3840.7412      0.99696119
   1748000  -1330.5205      200.42936     -1530.9498      263.68588     -1104.438       3840.7412      0.99696119
   1749000  -1290.5916      250.49585     -1541.0875      329.5536       1342.1924      3840.7412      0.99696119
   1750000  -1243.5033      256.54348     -1500.0468      337.50989     -168.62213      3840.7412      0.99696119
   1751000  -1319.3708      211.57133     -1530.9421      278.3443       996.69314      3840.7412      0.99696119
   1752000  -1283.3016      222.20062     -1505.5022      292.32824     -453.09216      3840.7412      0.99696119
   1753000  -1288.3608      237.99899     -1526.3598      313.11266      655.35937      3840.7412      0.99696119
   1754000  -1315.8852      216.26679     -1532.152       284.52168     -508.64076      3840.7412      0.99696119
   1755000  -1288.1154      234.98252     -1523.0979      309.14417     -17.468089      3840.7412      0.99696119
   1756000  -1327.8512      199.31463     -1527.1659      262.21933      30.414105      3840.7412      0.99696119
   1757000  -1303.6607      214.30677     -1517.9675      281.94307     -1168.6204      3840.7412      0.99696119
   1758000  -1306.373       226.57083     -1532.9438      298.07772     -447.47797      3840.7412      0.99696119
   1759000  -1331.3208      223.50897     -1554.8298      294.04952     -1192.2852      3840.7412      0.99696119
   1760000  -1293.3357      248.31682     -1541.6526      326.68686      1811.3884      3840.7412      0.99696119
   1761000  -1266.325       237.74864     -1504.0736      312.78331     -288.17831      3840.7412      0.99696119
   1762000  -1324.2984      234.39086     -1558.6893      308.36579     -1608.866       3840.7412      0.99696119
   1763000  -1328.4711      217.46256     -1545.9336      286.09483      1422.9028      3840.7412      0.99696119
   1764000  -1307.2675      210.21311     -1517.4806      276.55742      420.86282      3840.7412      0.99696119
   1765000  -1286.4375      244.67262     -1531.1101      321.89252      244.99655      3840.7412      0.99696119
   1766000  -1312.7361      221.8923      -1534.6284      291.92262      153.42352      3840.7412      0.99696119
   1767000  -1274.4069      218.1293      -1492.5362      286.972        1441.8845      3840.7412      0.99696119
   1768000  -1301.591       232.03612     -1533.6271      305.26788     -649.57978      3840.7412      0.99696119
   1769000  -1291.9087      225.56361     -1517.4723      296.75261     -221.22027      3840.7412      0.99696119
   1770000  -1317.5768      228.99932     -1546.5761      301.27265     -858.85151      3840.7412      0.99696119
   1771000  -1273.1166      235.68415     -1508.8007      310.06724      1156.8014      3840.7412      0.99696119
   1772000  -1272.8428      233.00927     -1505.8521      306.54816     -1392.3626      3840.7412      0.99696119
   1773000  -1328.008       208.58825     -1536.5963      274.41974      250.38064      3840.7412      0.99696119
   1774000  -1297.4617      228.10155     -1525.5633      300.09155     -299.3955       3840.7412      0.99696119
   1775000  -1305.8179      232.20706     -1538.025       305.49278     -1906.2462      3840.7412      0.99696119
   1776000  -1326.6277      199.03963     -1525.6673      261.85753     -2688.6756      3840.7412      0.99696119
   1777000  -1316.9161      233.48193     -1550.3981      307.17         2916.6749      3840.7412      0.99696119
   1778000  -1293.9891      232.98764     -1526.9767      306.5197       621.48418      3840.7412      0.99696119
   1779000  -1260.9417      253.03569     -1513.9774      332.89502     -517.39569      3840.7412      0.99696119
   1780000  -1311.9302      219.14906     -1531.0792      288.31361     -887.67587      3840.7412      0.99696119
   1781000  -1327.0374      223.19033     -1550.2277      293.63032     -1661.1769      3840.7412      0.99696119
   1782000  -1283.8638      237.98368     -1521.8475      313.09252      408.35645      3840.7412      0.99696119
   1783000  -1333.8258      216.58162     -1550.4074      284.93586     -2270.5653      3840.7412      0.99696119
   1784000  -1310.8826      214.48267     -1525.3653      282.17447     -780.23356      3840.7412      0.99696119
   1785000  -1332.5834      216.72015     -1549.3035      285.11812      1390.1847      3840.7412      0.99696119
   1786000  -1300.1771      231.90141     -1532.0785      305.09065     -1032.8076      3840.7412      0.99696119
   1787000  -1334.2927      218.67305     -1552.9657      287.68736     -179.68168      3840.7412      0.99696119
   1788000  -1358.1843      202.69772     -1560.882       266.67013     -1219.5235      3840.7412      0.99696119
   1789000  -1325.9893      212.1462      -1538.1355      279.1006       90.211244      3840.7412      0.99696119
   1790000  -1309.9018      223.70566     -1533.6075      294.30829     -2209.5315      3840.7412      0.99696119
   1791000  -1309.1461      220.51553     -1529.6617      290.11134     -1076.9294      3840.7412      0.99696119
   1792000  -1319.2785      215.28064     -1534.5591      283.22429     -1098.6846      3840.7412      0.99696119
   1793000  -1349.5428      204.31561     -1553.8584      268.79864     -205.96211      3840.7412      0.99696119
   1794000  -1302.2897      241.32258     -1543.6123      317.48519     -1586.1404      3840.7412      0.99696119
   1795000  -1281.1417      234.71743     -1515.8592      308.79543      373.45998      3840.7412      0.99696119
   1796000  -1325.8494      220.6326      -1546.482       290.26535     -1760.9071      3840.7412      0.99696119
   1797000  -1294.3425      239.53206     -1533.8746      315.12958      354.40795      3840.7412      0.99696119
   1798000  -1288.5625      233.60753     -1522.1701      307.33524     -348.47092      3840.7412      0.99696119
   1799000  -1322.5339      212.84073     -1535.3746      280.01432     -930.19574      3840.7412      0.99696119
   1800000  -1329.9061      219.12224     -1549.0284      288.27832      426.67907      3840.7412      0.99696119
   1801000  -1331.8855      207.87742     -1539.7629      273.48457     -850.67511      3840.7412      0.99696119
   1802000  -1318.0578      242.87861     -1560.9364      319.53232     -834.48224      3840.7412      0.99696119
   1803000  -1347.8896      211.70491     -1559.5945      278.52005     -1744.2624      3840.7412      0.99696119
   1804000  -1306.2465      247.04851     -1553.295       325.01826     -1678.882       3840.7412      0.99696119
   1805000  -1358.6191      233.93622     -1592.5554      307.76766      280.52161      3840.7412      0.99696119
   1806000  -1341.5719      206.77265     -1548.3446      272.03114     -344.34797      3840.7412      0.99696119
   1807000  -1299.4316      239.80047     -1539.232       315.4827       551.19255      3840.7412      0.99696119
   1808000  -1293.7786      210.10965     -1503.8883      276.42131      500.08938      3840.7412      0.99696119
   1809000  -1318.417       206.20682     -1524.6238      271.28672      1892.0269      3840.7412      0.99696119
   1810000  -1291.8814      203.13131     -1495.0127      267.24056      1657.7287      3840.7412      0.99696119
   1811000  -1289.2813      241.19331     -1530.4746      317.31513     -889.64336      3840.7412      0.99696119
   1812000  -1316.5571      211.00829     -1527.5654      277.60356     -439.40251      3840.7412      0.99696119
   1813000  -1290.9188      244.93846     -1535.8573      322.24226      17.983036      3840.7412      0.99696119
   1814000  -1274.7668      217.2878      -1492.0546      285.86492     -55.428556      3840.7412      0.99696119
   1815000  -1314.1867      223.61921     -1537.8059      294.19455     -773.79401      3840.7412      0.99696119
   1816000  -1288.8935      206.90588     -1495.7994      272.20642     -1376.0522      3840.7412      0.99696119
   1817000  -1302.0505      237.00687     -1539.0573      311.80743     -1992.4815      3840.7412      0.99696119
   1818000  -1292.1939      221.89336     -1514.0873      291.92401      801.05494      3840.7412      0.99696119
   1819000  -1296.6355      210.93339     -1507.5689      277.50502      441.04884      3840.7412      0.99696119
   1820000  -1302.5833      227.25546     -1529.8388      298.97842     -2677.7223      3840.7412      0.99696119
   1821000  -1281.9539      227.7939      -1509.7478      299.68679     -2061.2901      3840.7412      0.99696119
   1822000  -1323.6883      212.2399      -1535.9281      279.22387     -32.472107      3840.7412      0.99696119
   1823000  -1289.8077      230.25829     -1520.066       302.92895      1862.5673      3840.7412      0.99696119
   1824000  -1276.5792      237.82627     -1514.4055      312.88543     -263.89302      3840.7412      0.99696119
   1825000  -1303.8415      208.38301     -1512.2245      274.14973     -902.63988      3840.7412      0.99696119
   1826000  -1271.1348      242.41689     -1513.5517      318.92487      1142.7353      3840.7412      0.99696119
   1827000  -1350.6574      218.61629     -1569.2737      287.61268     -517.3981       3840.7412      0.99696119
   1828000  -1295.8372      230.67248     -1526.5097      303.47387     -332.24635      3840.7412      0.99696119
   1829000  -1278.1719      226.64727     -1504.8192      298.17828     -1886.5062      3840.7412      0.99696119
   1830000  -1287.9919      226.93145     -1514.9233      298.55215     -1215.2514      3840.7412      0.99696119
   1831000  -1300.2033      205.95273     -1506.156       270.95244     -1510.9132      3840.7412      0.99696119
   1832000  -1307.3416      217.63553     -1524.9771      286.32239     -1219.3508      3840.7412      0.99696119
   1833000  -1294.515       246.63019     -1541.1452      324.46792     -1805.267       3840.7412      0.99696119
   1834000  -1310.1303      225.63233     -1535.7626      296.84303      507.98174      3840.7412      0.99696119
   1835000  -1314.6912      217.22328     -1531.9145      285.78003     -764.01418      3840.7412      0.99696119
   1836000  -1312.1195      226.58171     -1538.7012      298.09203     -821.17265      3840.7412      0.99696119
   1837000  -1329.7569      205.38713     -1535.1441      270.20833     -1052.793       3840.7412      0.99696119
   1838000  -1314.7151      229.30474     -1544.0199      301.67447      1333.7609      3840.7412      0.99696119
   1839000  -1290.3738      238.97925     -1529.353       314.4023       1827.1373      3840.7412      0.99696119
   1840000  -1263.9732      224.15299     -1488.1262      294.8968      -221.68427      3840.7412      0.99696119
   1841000  -1278.1268      231.01443     -1509.1413      303.92374      1566.0784      3840.7412      0.99696119
   1842000  -1241.0571      233.83718     -1474.8943      307.63737     -539.51119      3840.7412      0.99696119
   1843000  -1292.1153      226.53835     -1518.6536      298.03499      1201.8551      3840.7412      0.99696119
   1844000  -1307.86        243.17213     -1551.0321      319.91847     -155.45835      3840.7412      0.99696119
   1845000  -1328.0533      221.16597     -1549.2192      290.96706      807.31812      3840.7412      0.99696119
   1846000  -1305.1107      227.97334     -1533.084       299.92286      1425.6411      3840.7412      0.99696119
   1847000  -1347.8962      203.34802     -1551.2442      267.52567      502.07697      3840.7412      0.99696119
   1848000  -1310.2716      234.5656      -1544.8372      308.59568     -2274.9079      3840.7412      0.99696119
   1849000  -1316.6019      214.67152     -1531.2735      282.42293      991.2402       3840.7412      0.99696119
   1850000  -1331.2289      222.49609     -1553.725       292.71697     -1938.0263      3840.7412      0.99696119
   1851000  -1291.3406      238.29536     -1529.6359      313.50257     -54.35858       3840.7412      0.99696119
   1852000  -1304.1329      230.29982     -1534.4328      302.98359      298.22903      3840.7412      0.99696119
   1853000  -1313.4533      218.82451     -1532.2779      287.88662      818.16925      3840.7412      0.99696119
   1854000  -1264.9021      228.22628     -1493.1284      300.25564     -343.06707      3840.7412      0.99696119
   1855000  -1337.8177      209.45089     -1547.2686      275.55464     -272.83012      3840.7412      0.99696119
   1856000  -1328.3141      214.80962     -1543.1238      282.60461     -367.88267      3840.7412      0.99696119
   1857000  -1313.5087      214.75787     -1528.2665      282.53653     -645.24071      3840.7412      0.99696119
   1858000  -1335.6752      215.25573     -1550.931       283.19152     -594.89511      3840.7412      0.99696119
   1859000  -1329.6838      225.48244     -1555.1663      296.64582     -875.48172      3840.7412      0.99696119
   1860000  -1299.0878      237.09528     -1536.1831      311.92374     -323.29993      3840.7412      0.99696119
   1861000  -1318.3952      194.40758     -1512.8028      255.76359     -924.97038      3840.7412      0.99696119
   1862000  -1282.1858      237.59919     -1519.785       312.58669      655.81327      3840.7412      0.99696119
   1863000  -1342.2014      231.16641     -1573.3678      304.12369     -607.04807      3840.7412      0.99696119
   1864000  -1299.8528      227.14352     -1526.9963      298.83115     -596.98685      3840.7412      0.99696119
   1865000  -1339.0918      230.53349     -1569.6253      303.29102     -1930.9738      3840.7412      0.99696119
   1866000  -1305.1         236.1393      -1541.2393      310.66604      639.62697      3840.7412      0.99696119
   1867000  -1304.6535      217.07878     -1521.7322      285.58993     -1194.9467      3840.7412      0.99696119
   1868000  -1300.0686      227.63248     -1527.7011      299.47443      848.72017      3840.7412      0.99696119
   1869000  -1326.6368      217.43487     -1544.0716      286.0584       399.91215      3840.7412      0.99696119
   1870000  -1304.921       235.86991     -1540.7909      310.31164      817.95953      3840.7412      0.99696119
   1871000  -1310.1449      237.78009     -1547.925       312.82468      802.37246      3840.7412      0.99696119
   1872000  -1308.275       208.95769     -1517.2327      274.90578     -241.91546      3840.7412      0.99696119
   1873000  -1290.4326      221.72946     -1512.162       291.70839     -1766.4306      3840.7412      0.99696119
   1874000  -1330.9879      220.80667     -1551.7946      290.49436     -31.903743      3840.7412      0.99696119
   1875000  -1283.2075      228.11014     -1511.3176      300.10284      2186.3863      3840.7412      0.99696119
   1876000  -1298.5504      219.73273     -1518.2832      289.08148     -275.86752      3840.7412      0.99696119
   1877000  -1297.5942      231.70833     -1529.3025      304.83664     -1796.4959      3840.7412      0.99696119
   1878000  -1335.758       217.30907     -1553.0671      285.8929      -577.80729      3840.7412      0.99696119
   1879000  -1294.3287      225.57671     -1519.9054      296.76985     -261.48903      3840.7412      0.99696119
   1880000  -1275.7229      244.42986     -1520.1528      321.57314     -929.62286      3840.7412      0.99696119
   1881000  -1321.2103      209.82811     -1531.0385      276.05091      1240.9025      3840.7412      0.99696119
   1882000  -1288.4229      243.08531     -1531.5083      319.80425     -1710.9734      3840.7412      0.99696119
   1883000  -1310.7196      229.5987      -1540.3183      302.0612      -1104.9652      3840.7412      0.99696119
   1884000  -1267.0754      238.56835     -1505.6438      313.86171      2014.3603      3840.7412      0.99696119
   1885000  -1292.6216      227.0217      -1519.6432      298.67088     -177.23765      3840.7412      0.99696119
   1886000  -1301.8982      222.71511     -1524.6133      293.00511     -1377.3361      3840.7412      0.99696119
   1887000  -1315.7005      211.70124     -1527.4017      278.51521      1171.3862      3840.7412      0.99696119
   1888000  -1337.734       202.30633     -1540.0404      266.15522     -760.68622      3840.7412      0.99696119
   1889000  -1291.4088      235.79316     -1527.2019      310.21066     -1675.8413      3840.7412      0.99696119
   1890000  -1332.6992      219.50437     -1552.2036      288.78105     -522.61166      3840.7412      0.99696119
   1891000  -1297.7581      224.33165     -1522.0898      295.13184     -453.05888      3840.7412      0.99696119
   1892000  -1267.5498      233.54505     -1501.0949      307.25304     -481.04742      3840.7412      0.99696119
   1893000  -1313.1092      234.38798     -1547.4972      308.362       -777.1932       3840.7412      0.99696119
   1894000  -1288.5128      212.67668     -1501.1895      279.7985      -559.30701      3840.7412      0.99696119
   1895000  -1320.419       208.77239     -1529.1914      274.66201      1053.7963      3840.7412      0.99696119
   1896000  -1307.6002      213.43076     -1521.031       280.79058     -431.21671      3840.7412      0.99696119
   1897000  -1323.5142      210.83361     -1534.3478      277.37376      1704.1203      3840.7412      0.99696119
   1898000  -1307.6465      227.3552      -1535.0017      299.10963      165.51524      3840.7412      0.99696119
   1899000  -1289.3358      236.44975     -1525.7855      311.07448     -40.571892      3840.7412      0.99696119
   1900000  -1307.608       214.13637     -1521.7443      281.71889      530.48597      3840.7412      0.99696119
   1901000  -1252.8933      223.81442     -1476.7077      294.45137      1872.9816      3840.7412      0.99696119
   1902000  -1282.5271      222.03943     -1504.5666      292.11618      770.89001      3840.7412      0.99696119
   1903000  -1294.8558      232.09577     -1526.9515      305.34635     -3180.9619      3840.7412      0.99696119
   1904000  -1280.4843      253.24125     -1533.7256      333.16545      617.53224      3840.7412      0.99696119
   1905000  -1323.4958      214.0796      -1537.5754      281.64419      1342.2401      3840.7412      0.99696119
   1906000  -1347.2129      222.60676     -1569.8197      292.86257      831.56021      3840.7412      0.99696119
   1907000  -1339.0519      229.44496     -1568.4969      301.85893     -328.375        3840.7412      0.99696119
   1908000  -1297.4764      247.85895     -1545.3354      326.08447     -282.42948      3840.7412      0.99696119
   1909000  -1333.708       224.01311     -1557.7211      294.71277      1130.5869      3840.7412      0.99696119
   1910000  -1293.5697      237.33612     -1530.9058      312.24059     -242.35089      3840.7412      0.99696119
   1911000  -1299.9082      230.90366     -1530.8118      303.77801      74.411408      3840.7412      0.99696119
   1912000  -1332.4858      214.59954     -1547.0854      282.32822     -770.68474      3840.7412      0.99696119
   1913000  -1293.4919      250.55903     -1544.051       329.63671     -589.07685      3840.7412      0.99696119
   1914000  -1318.0123      223.53451     -1541.5468      294.08311     -108.42053      3840.7412      0.99696119
   1915000  -1334.3807      217.47515     -1551.8559      286.1114       220.02071      3840.7412      0.99696119
   1916000  -1301.0134      223.23438     -1524.2478      293.68827      1722.9438      3840.7412      0.99696119
   1917000  -1319.3871      223.28716     -1542.6742      293.7577      -430.35759      3840.7412      0.99696119
   1918000  -1320.4146      219.92458     -1540.3392      289.33388     -1553.4059      3840.7412      0.99696119
   1919000  -1301.3274      233.82438     -1535.1518      307.62053      262.67126      3840.7412      0.99696119
   1920000  -1316.7611      235.37768     -1552.1388      309.66405     -1268.3312      3840.7412      0.99696119
   1921000  -1299.7281      242.94761     -1542.6757      319.62309     -1080.966       3840.7412      0.99696119
   1922000  -1285.5789      242.38916     -1527.9681      318.88839     -2086.3435      3840.7412      0.99696119
   1923000  -1313.0172      228.61603     -1541.6333      300.76839     -49.755186      3840.7412      0.99696119
   1924000  -1305.7976      241.29719     -1547.0948      317.4518      -1103.8939      3840.7412      0.99696119
   1925000  -1273.4059      237.78467     -1511.1905      312.8307      -975.34431      3840.7412      0.99696119
   1926000  -1262.383       226.85445     -1489.2374      298.45085      107.79735      3840.7412      0.99696119
   1927000  -1281.0761      227.86566     -1508.9418      299.78121     -494.59474      3840.7412      0.99696119
   1928000  -1317.5339      215.16252     -1532.6965      283.06889      274.83312      3840.7412      0.99696119
   1929000  -1298.3766      237.09365     -1535.4703      311.9216      -1197.3985      3840.7412      0.99696119
   1930000  -1283.9519      225.01843     -1508.9703      296.03537     -1494.9383      3840.7412      0.99696119
   1931000  -1322.8611      202.89284     -1525.754       266.92684      447.70321      3840.7412      0.99696119
   1932000  -1308.4142      231.2161      -1539.6303      304.18906     -1658.0693      3840.7412      0.99696119
   1933000  -1300.7749      239.70889     -1540.4838      315.36221      143.69453      3840.7412      0.99696119
   1934000  -1316.2243      226.1368      -1542.3611      297.5067       1185.641       3840.7412      0.99696119
   1935000  -1281.6399      236.99114     -1518.631       311.78673     -618.43561      3840.7412      0.99696119
   1936000  -1325.7151      214.11232     -1539.8274      281.68724     -419.4146       3840.7412      0.99696119
   1937000  -1308.3038      230.15329     -1538.4571      302.79082     -29.29832       3840.7412      0.99696119
   1938000  -1287.5318      253.86662     -1541.3984      333.98819     -1757.9274      3840.7412      0.99696119
   1939000  -1321.8477      215.53724     -1537.385       283.56187     -387.4516       3840.7412      0.99696119
   1940000  -1320.1015      208.05108     -1528.1526      273.71304     -1150.7073      3840.7412      0.99696119
   1941000  -1320.8538      237.45077     -1558.3046      312.39142     -96.61058       3840.7412      0.99696119
   1942000  -1278.9177      240.4093      -1519.327       316.28368      715.71469      3840.7412      0.99696119
   1943000  -1311.647       217.07033     -1528.7174      285.57881      1447.1402      3840.7412      0.99696119
   1944000  -1274.9767      224.45632     -1499.433       295.29586      881.45092      3840.7412      0.99696119
   1945000  -1284.4943      238.84323     -1523.3375      314.22335      608.57929      3840.7412      0.99696119
   1946000  -1286.8033      214.64608     -1501.4494      282.38945     -3003.6296      3840.7412      0.99696119
   1947000  -1280.0343      248.82316     -1528.8575      327.353       -591.03104      3840.7412      0.99696119
   1948000  -1314.9796      218.53439     -1533.514       287.50494     -495.00133      3840.7412      0.99696119
   1949000  -1291.7309      219.41087     -1511.1418      288.65804      1070.1378      3840.7412      0.99696119
   1950000  -1281.0895      227.47135     -1508.5609      299.26244     -614.9233       3840.7412      0.99696119
   1951000  -1276.0088      230.63381     -1506.6426      303.42299      579.29949      3840.7412      0.99696119
   1952000  -1299.6457      222.02942     -1521.6752      292.10301     -2803.1071      3840.7412      0.99696119
   1953000  -1307.2581      212.98231     -1520.2404      280.20059     -1695.3034      3840.7412      0.99696119
   1954000  -1296.403       214.93546     -1511.3385      282.77017      1443.6602      3840.7412      0.99696119
   1955000  -1321.7212      231.43224     -1553.1534      304.47342      28.377204      3840.7412      0.99696119
   1956000  -1307.7704      227.74178     -1535.5122      299.61823     -104.26033      3840.7412      0.99696119
   1957000  -1339.8872      203.25706     -1543.1442      267.40601     -938.66143      3840.7412      0.99696119
   1958000  -1311.4364      234.24997     -1545.6864      308.18043     -1247.7004      3840.7412      0.99696119
   1959000  -1361.9217      203.88388     -1565.8056      268.23065     -1211.9181      3840.7412      0.99696119
   1960000  -1303.2843      212.55086     -1515.8351      279.63298     -337.66743      3840.7412      0.99696119
   1961000  -1317.2408      206.93392     -1524.1747      272.24331      463.6402       3840.7412      0.99696119
   1962000  -1292.2831      221.55491     -1513.838       291.47875      1157.0202      3840.7412      0.99696119
   1963000  -1278.4446      245.24205     -1523.6866      322.64167     -2481.6882      3840.7412      0.99696119
   1964000  -1306.826       214.66201     -1521.488       282.41042      97.416413      3840.7412      0.99696119
   1965000  -1307.4087      221.7123      -1529.121       291.68581      1012.8561      3840.7412      0.99696119
   1966000  -1311.427       211.34931     -1522.7763      278.05221     -1196.847       3840.7412      0.99696119
   1967000  -1287.3176      252.71327     -1540.0308      332.47084     -294.3115       3840.7412      0.99696119
   1968000  -1285.3858      231.54272     -1516.9286      304.61876      106.62958      3840.7412      0.99696119
   1969000  -1320.3644      220.95705     -1541.3215      290.6922       670.32437      3840.7412      0.99696119
   1970000  -1312.3224      239.19114     -1551.5136      314.68106     -1481.5118      3840.7412      0.99696119
   1971000  -1313.5101      232.94779     -1546.4579      306.46727     -1113.6904      3840.7412      0.99696119
   1972000  -1320.7135      214.12717     -1534.8407      281.70678      1697.6561      3840.7412      0.99696119
   1973000  -1303.553       223.82569     -1527.3787      294.4662       291.82216      3840.7412      0.99696119
   1974000  -1324.7235      227.23082     -1551.9543      298.94601      140.62272      3840.7412      0.99696119
   1975000  -1264.5948      247.14412     -1511.7389      325.14404     -1386.784       3840.7412      0.99696119
   1976000  -1313.5367      224.72841     -1538.2651      295.65383     -565.10645      3840.7412      0.99696119
   1977000  -1303.9757      229.61818     -1533.5939      302.08683     -255.04584      3840.7412      0.99696119
   1978000  -1321.841       217.63707     -1539.478       286.32441      1005.6485      3840.7412      0.99696119
   1979000  -1287.8511      226.43894     -1514.29        297.9042      -658.14584      3840.7412      0.99696119
   1980000  -1317.2727      207.87807     -1525.1508      273.48542     -137.67928      3840.7412      0.99696119
   1981000  -1301.0614      231.40478     -1532.4661      304.43729     -2428.0104      3840.7412      0.99696119
   1982000  -1279.2642      231.95212     -1511.2163      305.15737     -212.64935      3840.7412      0.99696119
   1983000  -1305.4319      219.18551     -1524.6174      288.36156     -1201.056       3840.7412      0.99696119
   1984000  -1323.4168      238.21276     -1561.6295      313.3939       1532.8855      3840.7412      0.99696119
   1985000  -1313.0102      236.91848     -1549.9287      311.69114      114.54202      3840.7412      0.99696119
   1986000  -1292.8549      201.56486     -1494.4198      265.17974     -1118.5796      3840.7412      0.99696119
   1987000  -1316.0714      207.19279     -1523.2642      272.58387     -1653.3401      3840.7412      0.99696119
   1988000  -1284.6096      218.46329     -1503.0729      287.4114      -1155.7519      3840.7412      0.99696119
   1989000  -1313.8379      207.29845     -1521.1363      272.72288     -474.96961      3840.7412      0.99696119
   1990000  -1338.9871      220.0374      -1559.0245      289.4823       85.451516      3840.7412      0.99696119
   1991000  -1321.9447      220.78682     -1542.7315      290.46824     -222.12603      3840.7412      0.99696119
   1992000  -1277.6191      231.06276     -1508.6818      303.98733      814.62324      3840.7412      0.99696119
   1993000  -1306.3347      211.3989      -1517.7336      278.11745     -323.19709      3840.7412      0.99696119
   1994000  -1296.2104      235.60565     -1531.8161      309.96398     -1394.852       3840.7412      0.99696119
   1995000  -1308.7787      227.89172     -1536.6704      299.81548     -2192.2227      3840.7412      0.99696119
   1996000  -1263.7098      244.53208     -1508.2419      321.70763      1349.0262      3840.7412      0.99696119
   1997000  -1331.9823      210.59685     -1542.5792      277.06227     -1980.0826      3840.7412      0.99696119
   1998000  -1287.739       237.94649     -1525.6855      313.04359     -1071.1052      3840.7412      0.99696119
   1999000  -1312.0236      237.33736     -1549.361       312.24222      578.73271      3840.7412      0.99696119
   2000000  -1287.6326      216.72161     -1504.3542      285.12004      589.00337      3840.7412      0.99696119
   2001000  -1287.3284      245.43369     -1532.7621      322.89379      670.49767      3840.7412      0.99696119
   2002000  -1314.8672      213.83212     -1528.6993      281.31861     -1640.9606      3840.7412      0.99696119
   2003000  -1294.9118      230.47385     -1525.3857      303.21255     -1443.723       3840.7412      0.99696119
   2004000  -1283.5204      233.08873     -1516.6091      306.6527      -63.64337       3840.7412      0.99696119
   2005000  -1302.3965      200.21766     -1502.6142      263.40736     -1064.2029      3840.7412      0.99696119
   2006000  -1300.7405      227.2693      -1528.0098      298.99663     -1142.3059      3840.7412      0.99696119
   2007000  -1290.9137      228.6914      -1519.6051      300.86755     -1389.6315      3840.7412      0.99696119
   2008000  -1282.0729      221.20497     -1503.2779      291.01837     -2490.6416      3840.7412      0.99696119
   2009000  -1307.0575      215.50724     -1522.5647      283.5224       980.95369      3840.7412      0.99696119
   2010000  -1318.6685      243.46182     -1562.1303      320.29959     -801.14183      3840.7412      0.99696119
   2011000  -1304.2048      229.57707     -1533.7819      302.03274     -478.11716      3840.7412      0.99696119
   2012000  -1295.9122      230.5505      -1526.4627      303.31339      989.19893      3840.7412      0.99696119
   2013000  -1302.428       235.96929     -1538.3973      310.44237     -925.38525      3840.7412      0.99696119
   2014000  -1293.1664      236.97819     -1530.1446      311.76969      147.91377      3840.7412      0.99696119
   2015000  -1323.4602      230.16084     -1553.621       302.80075     -111.91452      3840.7412      0.99696119
   2016000  -1257.5605      249.62698     -1507.1875      328.4105      -502.10396      3840.7412      0.99696119
   2017000  -1286.0243      234.74107     -1520.7654      308.82652     -1249.897       3840.7412      0.99696119
   2018000  -1294.3063      227.28742     -1521.5937      299.02047     -466.41535      3840.7412      0.99696119
   2019000  -1306.829       223.17898     -1530.008       293.61539      799.74072      3840.7412      0.99696119
   2020000  -1300.9812      224.68334     -1525.6645      295.59453      184.6814       3840.7412      0.99696119
   2021000  -1316.6505      223.07387     -1539.7243      293.4771      -1222.2464      3840.7412      0.99696119
   2022000  -1303.4429      254.53023     -1557.9731      334.86125     -741.15428      3840.7412      0.99696119
   2023000  -1327.0439      220.86922     -1547.9131      290.57665     -1485.2188      3840.7412      0.99696119
   2024000  -1295.4963      228.49729     -1523.9936      300.61218     -1783.0549      3840.7412      0.99696119
   2025000  -1291.5624      214.08139     -1505.6438      281.64654     -2264.8512      3840.7412      0.99696119
   2026000  -1297.4111      239.47009     -1536.8812      315.04805      885.98288      3840.7412      0.99696119
   2027000  -1330.0274      217.65302     -1547.6805      286.3454       2575.1134      3840.7412      0.99696119
   2028000  -1334.7872      216.3455      -1551.1327      284.62523     -1976.3852      3840.7412      0.99696119
   2029000  -1299.0632      225.06919     -1524.1324      296.10215     -1633.8451      3840.7412      0.99696119
   2030000  -1317.2301      232.14379     -1549.3739      305.40953     -302.45137      3840.7412      0.99696119
   2031000  -1313.6148      226.59395     -1540.2088      298.10814      1201.6641      3840.7412      0.99696119
   2032000  -1304.525       226.54825     -1531.0732      298.04801      1558.7845      3840.7412      0.99696119
   2033000  -1317.8062      222.76611     -1540.5723      293.07221     -1613.3703      3840.7412      0.99696119
   2034000  -1307.0796      234.37257     -1541.4522      308.34173     -1123.3614      3840.7412      0.99696119
   2035000  -1266.8767      239.45711     -1506.3338      315.03097      465.67039      3840.7412      0.99696119
   2036000  -1295.1116      238.36142     -1533.473       313.58948      1232.0062      3840.7412      0.99696119
   2037000  -1306.4823      224.76557     -1531.2479      295.70271     -910.94688      3840.7412      0.99696119
   2038000  -1327.082       233.91556     -1560.9976      307.74048      537.58733      3840.7412      0.99696119
   2039000  -1290.298       233.73103     -1524.029       307.49772      522.57226      3840.7412      0.99696119
   2040000  -1288.6627      225.89904     -1514.5618      297.19391      510.78859      3840.7412      0.99696119
   2041000  -1303.7222      239.75478     -1543.477       315.42259      353.85924      3840.7412      0.99696119
   2042000  -1327.0791      220.37698     -1547.456       289.92906     -1539.8829      3840.7412      0.99696119
   2043000  -1306.4528      218.82        -1525.2728      287.88069     -394.76797      3840.7412      0.99696119
   2044000  -1297.8733      225.02528     -1522.8986      296.04438     -1156.3765      3840.7412      0.99696119
   2045000  -1290.0295      228.16607     -1518.1955      300.17643     -3003.9207      3840.7412      0.99696119
   2046000  -1285.4331      227.15271     -1512.5858      298.84324      705.70106      3840.7412      0.99696119
   2047000  -1272.2451      240.42135     -1512.6665      316.29953     -294.11253      3840.7412      0.99696119
   2048000  -1295.1013      238.54546     -1533.6468      313.8316      -238.24129      3840.7412      0.99696119
   2049000  -1297.7427      223.82686     -1521.5695      294.46774     -963.73389      3840.7412      0.99696119
   2050000  -1294.7373      222.2536      -1516.9909      292.39795      2003.7705      3840.7412      0.99696119
   2051000  -1260.3542      235.39479     -1495.749       309.68657     -86.536577      3840.7412      0.99696119
   2052000  -1298.2124      224.06239     -1522.2748      294.7776      -477.08314      3840.7412      0.99696119
   2053000  -1343.1945      204.47509     -1547.6695      269.00845      1327.0051      3840.7412      0.99696119
   2054000  -1285.2143      242.25307     -1527.4673      318.70935     -1625.4808      3840.7412      0.99696119
   2055000  -1281.4197      231.16976     -1512.5894      304.12809     -1160.0073      3840.7412      0.99696119
   2056000  -1293.0178      236.02901     -1529.0468      310.52095     -849.39524      3840.7412      0.99696119
   2057000  -1335.0057      216.93628     -1551.942       285.40245      1166.901       3840.7412      0.99696119
   2058000  -1286.1743      232.29872     -1518.473       305.61337     -466.65384      3840.7412      0.99696119
   2059000  -1311.2645      217.89725     -1529.1618      286.66671     -255.84979      3840.7412      0.99696119
   2060000  -1315.34        221.08208     -1536.4221      290.85669     -133.76977      3840.7412      0.99696119
   2061000  -1312.7615      205.15172     -1517.9133      269.89864     -47.931664      3840.7412      0.99696119
   2062000  -1254.7643      228.68462     -1483.4489      300.85863      1427.2212      3840.7412      0.99696119
   2063000  -1296.493       242.46219     -1538.9552      318.98447     -224.8854       3840.7412      0.99696119
   2064000  -1296.9095      221.75178     -1518.6613      291.73776     -128.83309      3840.7412      0.99696119
   2065000  -1303.8662      243.78142     -1547.6476      320.72006     -1149.3645      3840.7412      0.99696119
   2066000  -1315.5415      213.89755     -1529.439       281.40469     -1187.2049      3840.7412      0.99696119
   2067000  -1312.6373      226.79091     -1539.4282      298.36726     -180.05317      3840.7412      0.99696119
   2068000  -1314.3919      210.92964     -1525.3216      277.50009     -1579.6593      3840.7412      0.99696119
   2069000  -1324.2402      211.53684     -1535.777       278.29892     -2039.1765      3840.7412      0.99696119
   2070000  -1232.0234      247.72047     -1479.7438      325.90229      2218.1101      3840.7412      0.99696119
   2071000  -1324.3986      217.64825     -1542.0469      286.33912      1276.1374      3840.7412      0.99696119
   2072000  -1345.9575      194.73313     -1540.6907      256.19188      179.50338      3840.7412      0.99696119
   2073000  -1305.2755      235.2384      -1540.5139      309.48082     -1673.3519      3840.7412      0.99696119
   2074000  -1292.0745      247.43054     -1539.5051      325.52085     -553.44163      3840.7412      0.99696119
   2075000  -1320.9667      212.45519     -1533.4219      279.50712     -1808.4597      3840.7412      0.99696119
   2076000  -1293.3889      245.10996     -1538.4989      322.46789     -389.58858      3840.7412      0.99696119
   2077000  -1291.0221      231.46856     -1522.4906      304.52119     -617.31066      3840.7412      0.99696119
   2078000  -1309.7461      222.56006     -1532.3062      292.80112     -970.2209       3840.7412      0.99696119
   2079000  -1316.6062      209.5862      -1526.1924      275.73266      1703.3161      3840.7412      0.99696119
   2080000  -1349.1395      215.47167     -1564.6111      283.4756       1210.4291      3840.7412      0.99696119
   2081000  -1321.7506      215.73007     -1537.4807      283.81556     -877.43256      3840.7412      0.99696119
   2082000  -1324.9456      202.49103     -1527.4367      266.39822     -169.43963      3840.7412      0.99696119
   2083000  -1294.5726      233.94189     -1528.5145      307.77512     -287.30052      3840.7412      0.99696119
   2084000  -1328.2445      237.10885     -1565.3533      311.94159      182.50257      3840.7412      0.99696119
   2085000  -1283.1775      245.45762     -1528.6351      322.92528     -717.64568      3840.7412      0.99696119
   2086000  -1329.9647      226.398       -1556.3627      297.85035      461.4272       3840.7412      0.99696119
   2087000  -1314.4117      223.02665     -1537.4384      293.41498      611.12688      3840.7412      0.99696119
   2088000  -1252.3322      244.80591     -1497.1381      322.06788     -161.55646      3840.7412      0.99696119
   2089000  -1296.0797      223.00203     -1519.0817      293.38259     -1196.1787      3840.7412      0.99696119
   2090000  -1301.6961      222.38281     -1524.0789      292.56794     -2047.9979      3840.7412      0.99696119
   2091000  -1296.8734      228.23424     -1525.1077      300.26611      727.00253      3840.7412      0.99696119
   2092000  -1262.3121      230.26665     -1492.5788      302.93995     -1156.7915      3840.7412      0.99696119
   2093000  -1302.423       223.48709     -1525.9101      294.02073      2405.183       3840.7412      0.99696119
   2094000  -1303.5038      220.8383      -1524.3421      290.53598      1507.7855      3840.7412      0.99696119
   2095000  -1294.1004      231.6424      -1525.7428      304.74991     -1233.3697      3840.7412      0.99696119
   2096000  -1298.5554      240.41357     -1538.969       316.28929     -105.36863      3840.7412      0.99696119
   2097000  -1313.7983      220.6671      -1534.4654      290.31074      1146.7551      3840.7412      0.99696119
   2098000  -1343.588       231.93741     -1575.5254      305.13802      1071.6745      3840.7412      0.99696119
   2099000  -1279.512       229.95452     -1509.4665      302.52932      296.33459      3840.7412      0.99696119
   2100000  -1264.8073      240.98077     -1505.7881      317.03551     -2043.692       3840.7412      0.99696119
   2101000  -1288.1281      220.03724     -1508.1653      289.48209      1003.9198      3840.7412      0.99696119
   2102000  -1265.8435      240.8314      -1506.6749      316.83899     -1726.9747      3840.7412      0.99696119
   2103000  -1284.4725      229.35561     -1513.8281      301.74139      903.69419      3840.7412      0.99696119
   2104000  -1301.2528      224.80597     -1526.0588      295.75585      749.49687      3840.7412      0.99696119
   2105000  -1290.744       223.75175     -1514.4958      294.36892      1021.0107      3840.7412      0.99696119
   2106000  -1296.5716      218.4064      -1514.978       287.33656     -1626.0084      3840.7412      0.99696119
   2107000  -1302.4644      223.93283     -1526.3972      294.60715      1705.0425      3840.7412      0.99696119
   2108000  -1307.7499      217.84777     -1525.5977      286.60162     -70.103093      3840.7412      0.99696119
   2109000  -1331.1761      219.57004     -1550.7462      288.86745     -1509.9543      3840.7412      0.99696119
   2110000  -1299.514       246.04514     -1545.5592      323.69822      242.60306      3840.7412      0.99696119
   2111000  -1321.0769      230.70486     -1551.7818      303.51647     -529.14275      3840.7412      0.99696119
   2112000  -1309.7933      224.44984     -1534.2431      295.28733     -1340.612       3840.7412      0.99696119
   2113000  -1315.7826      227.56954     -1543.3521      299.39163      1285.319       3840.7412      0.99696119
   2114000  -1306.5549      238.341       -1544.8959      313.56261     -570.63778      3840.7412      0.99696119
   2115000  -1290.3801      219.58483     -1509.965       288.8869      -3439.0596      3840.7412      0.99696119
   2116000  -1287.3387      217.13888     -1504.4776      285.669        843.91182      3840.7412      0.99696119
   2117000  -1321.2015      230.3726      -1551.5741      303.07934     -1134.78        3840.7412      0.99696119
   2118000  -1274.0122      225.86643     -1499.8787      297.151       -804.39268      3840.7412      0.99696119
   2119000  -1320.6855      232.10801     -1552.7935      305.36245     -569.20573      3840.7412      0.99696119
   2120000  -1293.1098      231.41116     -1524.521       304.44568      1034.5998      3840.7412      0.99696119
   2121000  -1304.6588      218.30466     -1522.9635      287.20271     -1595.517       3840.7412      0.99696119
   2122000  -1327.4738      224.53173     -1552.0055      295.39507      171.03254      3840.7412      0.99696119
   2123000  -1278.7465      225.11056     -1503.8571      296.15659     -1123.0758      3840.7412      0.99696119
   2124000  -1353.6061      209.67512     -1563.2812      275.84963     -596.28501      3840.7412      0.99696119
   2125000  -1347.0712      216.98356     -1564.0548      285.46466      758.15618      3840.7412      0.99696119
   2126000  -1273.0414      231.52023     -1504.5617      304.58917      1275.9855      3840.7412      0.99696119
   2127000  -1274.2804      220.98105     -1495.2615      290.72377      2355.6202      3840.7412      0.99696119
   2128000  -1313.2382      221.25122     -1534.4894      291.07921     -1128.3629      3840.7412      0.99696119
   2129000  -1266.1917      239.63601     -1505.8278      315.26633     -1162.8574      3840.7412      0.99696119
   2130000  -1292.8682      203.97846     -1496.8466      268.35508      497.14717      3840.7412      0.99696119
   2131000  -1325.3955      212.27001     -1537.6655      279.26349     -2011.176       3840.7412      0.99696119
   2132000  -1300.5259      228.54127     -1529.0672      300.67004     -1451.7631      3840.7412      0.99696119
   2133000  -1331.4363      225.79626     -1557.2325      297.05869     -883.11579      3840.7412      0.99696119
   2134000  -1322.1485      222.97444     -1545.1229      293.34629      22.134073      3840.7412      0.99696119
   2135000  -1328.5808      236.6164      -1565.1972      311.29372     -490.97186      3840.7412      0.99696119
   2136000  -1312.9416      227.12489     -1540.0665      298.80665      908.65987      3840.7412      0.99696119
   2137000  -1349.5267      228.76163     -1578.2883      300.95995      1889.1353      3840.7412      0.99696119
   2138000  -1350.5857      211.29503     -1561.8807      277.9808       109.96678      3840.7412      0.99696119
   2139000  -1327.5853      234.59942     -1562.1847      308.64017      1567.0684      3840.7412      0.99696119
   2140000  -1338.0795      221.65788     -1559.7373      291.61422      903.96593      3840.7412      0.99696119
   2141000  -1342.1467      222.45287     -1564.5996      292.66011     -258.97968      3840.7412      0.99696119
   2142000  -1335.4592      230.56956     -1566.0288      303.33847     -85.1195        3840.7412      0.99696119
   2143000  -1259.9774      254.86117     -1514.8386      335.29663      1404.2399      3840.7412      0.99696119
   2144000  -1327.8269      235.8442      -1563.6711      310.27781      1856.7241      3840.7412      0.99696119
   2145000  -1311.7455      235.76052     -1547.506       310.16772      1368.643       3840.7412      0.99696119
   2146000  -1318.4452      224.35822     -1542.8034      295.16679     -402.70578      3840.7412      0.99696119
   2147000  -1331.7837      217.37973     -1549.1635      285.98586     -1768.2984      3840.7412      0.99696119
   2148000  -1282.1471      233.59168     -1515.7387      307.31439      1188.7194      3840.7412      0.99696119
   2149000  -1340.8027      212.95999     -1553.7627      280.17123     -455.65185      3840.7412      0.99696119
   2150000  -1311.4526      236.04526     -1547.4979      310.54232      122.46881      3840.7412      0.99696119
   2151000  -1294.4249      222.93877     -1517.3636      293.29936     -307.47109      3840.7412      0.99696119
   2152000  -1357.3419      202.08782     -1559.4297      265.86775     -994.32802      3840.7412      0.99696119
   2153000  -1352.8413      210.91638     -1563.7577      277.48265      245.61887      3840.7412      0.99696119
   2154000  -1339.6124      211.74275     -1551.3552      278.56982     -416.80286      3840.7412      0.99696119
   2155000  -1311.8508      237.7207      -1549.5715      312.74654     -1078.066       3840.7412      0.99696119
   2156000  -1278.1305      226.58254     -1504.713       298.09312      508.8611       3840.7412      0.99696119
   2157000  -1310.6704      230.61213     -1541.2826      303.39448     -942.49517      3840.7412      0.99696119
   2158000  -1299.2905      241.88423     -1541.1748      318.2241      -966.08452      3840.7412      0.99696119
   2159000  -1280.345       233.00244     -1513.3474      306.53918     -2021.3385      3840.7412      0.99696119
   2160000  -1283.9069      221.27429     -1505.1812      291.10957     -493.94603      3840.7412      0.99696119
   2161000  -1311.8022      223.36403     -1535.1663      293.85884     -1660.6163      3840.7412      0.99696119
   2162000  -1295.139       233.68265     -1528.8216      307.43407      143.72014      3840.7412      0.99696119
   2163000  -1274.6026      230.29424     -1504.8969      302.97625      1514.4171      3840.7412      0.99696119
   2164000  -1271.8923      240.94047     -1512.8328      316.98248     -456.07152      3840.7412      0.99696119
   2165000  -1291.5794      227.86913     -1519.4486      299.78576     -422.74761      3840.7412      0.99696119
   2166000  -1329.1437      202.38756     -1531.5313      266.26209     -1996.7046      3840.7412      0.99696119
   2167000  -1313.3942      220.66256     -1534.0568      290.30478      1431.5406      3840.7412      0.99696119
   2168000  -1319.5179      209.8508      -1529.3687      276.08076      169.44884      3840.7412      0.99696119
   2169000  -1311.8215      245.92973     -1557.7512      323.54638      1043.9118      3840.7412      0.99696119
   2170000  -1284.2657      234.72007     -1518.9858      308.7989      -1402.1149      3840.7412      0.99696119
   2171000  -1304.9855      247.82621     -1552.8117      326.0414       370.72913      3840.7412      0.99696119
   2172000  -1325.3263      207.39929     -1532.7256      272.85554     -1438.0642      3840.7412      0.99696119
   2173000  -1291.5901      213.65489     -1505.245       281.08545      79.051727      3840.7412      0.99696119
   2174000  -1314.7509      234.37649     -1549.1274      308.34688      908.71963      3840.7412      0.99696119
   2175000  -1300.7617      231.92024     -1532.682       305.11542     -557.06653      3840.7412      0.99696119
   2176000  -1279.9478      250.64423     -1530.5921      329.7488      -285.81117      3840.7412      0.99696119
   2177000  -1331.1804      228.2226      -1559.403       300.25079     -1313.428       3840.7412      0.99696119
   2178000  -1311.8071      233.09046     -1544.8976      306.65497     -1569.0759      3840.7412      0.99696119
   2179000  -1299.8868      217.53515     -1517.4219      286.19034     -2015.5847      3840.7412      0.99696119
   2180000  -1275.9291      218.35008     -1494.2792      287.26245     -871.09289      3840.7412      0.99696119
   2181000  -1263.9565      236.60363     -1500.5602      311.27692     -2131.3649      3840.7412      0.99696119
   2182000  -1306.502       210.24203     -1516.744       276.59547      170.85903      3840.7412      0.99696119
   2183000  -1274.7781      237.12136     -1511.8994      311.95805     -1231.663       3840.7412      0.99696119
   2184000  -1328.8352      223.50371     -1552.3389      294.0426      -1450.94        3840.7412      0.99696119
   2185000  -1312.7512      231.45143     -1544.2026      304.49867     -519.89375      3840.7412      0.99696119
   2186000  -1301.0304      224.89241     -1525.9228      295.86958     -536.64669      3840.7412      0.99696119
   2187000  -1300.9104      245.47763     -1546.388       322.9516      -2012.8839      3840.7412      0.99696119
   2188000  -1309.4611      223.93306     -1533.3942      294.60746     -847.8876       3840.7412      0.99696119
   2189000  -1324.4941      208.74441     -1533.2385      274.62519     -1104.8481      3840.7412      0.99696119
   2190000  -1279.8801      232.48324     -1512.3633      305.85612     -483.5404       3840.7412      0.99696119
   2191000  -1306.0576      223.68346     -1529.7411      294.27908      513.3156       3840.7412      0.99696119
   2192000  -1328.2606      224.90537     -1553.1659      295.88664     -1990.0226      3840.7412      0.99696119
   2193000  -1292.5878      234.0522      -1526.64        307.92024      1078.2421      3840.7412      0.99696119
   2194000  -1330.2273      216.82737     -1547.0547      285.25918     -2799.0289      3840.7412      0.99696119
   2195000  -1288.4011      226.10391     -1514.505       297.46344      952.73022      3840.7412      0.99696119
   2196000  -1269.5429      227.49087     -1497.0338      299.28813     -396.70819      3840.7412      0.99696119
   2197000  -1310.8116      214.53864     -1525.3503      282.24811     -78.175315      3840.7412      0.99696119
   2198000  -1294.8719      227.82954     -1522.7014      299.73368     -1831.9728      3840.7412      0.99696119
   2199000  -1352.0134      200.95858     -1552.972       264.38212     -7.4063328      3840.7412      0.99696119
   2200000  -1300.3128      217.38187     -1517.6947      285.98868     -2431.3352      3840.7412      0.99696119
   2201000  -1308.3662      233.79073     -1542.1569      307.57626      147.07239      3840.7412      0.99696119
   2202000  -1310.1178      218.7322      -1528.85        287.76518      590.77849      3840.7412      0.99696119
   2203000  -1264.6416      227.4382      -1492.0798      299.21883     -1015.4634      3840.7412      0.99696119
   2204000  -1298.1922      217.93035     -1516.1225      286.71025     -1212.995       3840.7412      0.99696119
   2205000  -1295.3271      227.26375     -1522.5908      298.98932      1401.8195      3840.7412      0.99696119
   2206000  -1311.9623      226.35152     -1538.3138      297.7892      -415.47382      3840.7412      0.99696119
   2207000  -1275.223       233.66532     -1508.8883      307.41126     -96.327534      3840.7412      0.99696119
   2208000  -1326.3284      226.55995     -1552.8883      298.06341     -749.72731      3840.7412      0.99696119
   2209000  -1326.9735      212.96757     -1539.9411      280.1812      -454.79152      3840.7412      0.99696119
   2210000  -1292.0277      229.77271     -1521.8005      302.29013      493.3836       3840.7412      0.99696119
   2211000  -1344.0968      205.91        -1550.0068      270.89622     -9.3262218      3840.7412      0.99696119
   2212000  -1291.3334      230.23263     -1521.566       302.8952      -483.62375      3840.7412      0.99696119
   2213000  -1315.7599      242.88772     -1558.6476      319.54431     -57.995692      3840.7412      0.99696119
   2214000  -1276.6799      240.52894     -1517.2089      316.44108      1032.0531      3840.7412      0.99696119
   2215000  -1320.1213      216.94295     -1537.0642      285.41123     -691.41348      3840.7412      0.99696119
   2216000  -1302.1047      245.14709     -1547.2518      322.51674      41.696725      3840.7412      0.99696119
   2217000  -1356.6564      216.81392     -1573.4703      285.24148     -1074.5882      3840.7412      0.99696119
   2218000  -1274.0822      251.99105     -1526.0733      331.52068      2518.1558      3840.7412      0.99696119
   2219000  -1334.4555      224.92455     -1559.3801      295.91186     -1214.388       3840.7412      0.99696119
   2220000  -1318.8542      229.4479      -1548.3021      301.86281      1657.3961      3840.7412      0.99696119
   2221000  -1321.2256      218.71869     -1539.9443      287.74741     -1796.6732      3840.7412      0.99696119
   2222000  -1317.9312      239.63734     -1557.5685      315.26808     -1519.4996      3840.7412      0.99696119
   2223000  -1336.8606      213.51092     -1550.3716      280.89604     -252.87368      3840.7412      0.99696119
   2224000  -1311.0564      237.8524      -1548.9088      312.91981     -2681.1455      3840.7412      0.99696119
   2225000  -1301.5258      235.7418      -1537.2676      310.14309     -249.04967      3840.7412      0.99696119
   2226000  -1310.2349      208.94915     -1519.184       274.89455     -143.76419      3840.7412      0.99696119
   2227000  -1323.4529      224.88174     -1548.3346      295.85554     -798.32944      3840.7412      0.99696119
   2228000  -1319.4456      216.66301     -1536.1086      285.04294      733.28228      3840.7412      0.99696119
   2229000  -1318.0973      218.75521     -1536.8525      287.79546     -192.27369      3840.7412      0.99696119
   2230000  -1261.0871      218.6278      -1479.7149      287.62783      408.65516      3840.7412      0.99696119
   2231000  -1279.7024      237.8951      -1517.5975      312.97599      1541.1871      3840.7412      0.99696119
   2232000  -1305.0271      217.13699     -1522.1641      285.66651     -1007.2656      3840.7412      0.99696119
   2233000  -1307.6262      212.85827     -1520.4844      280.0374      -120.85997      3840.7412      0.99696119
   2234000  -1304.7528      238.9903      -1543.7431      314.41683      1605.1394      3840.7412      0.99696119
   2235000  -1313.3677      220.62618     -1533.9939      290.25691     -116.30743      3840.7412      0.99696119
   2236000  -1300.0199      225.00843     -1525.0283      296.02222     -840.90544      3840.7412      0.99696119
   2237000  -1281.3692      232.87192     -1514.2411      306.36746      406.69856      3840.7412      0.99696119
   2238000  -1298.7662      222.56967     -1521.3359      292.81377      68.670296      3840.7412      0.99696119
   2239000  -1283.7964      227.58957     -1511.386       299.41798      297.85791      3840.7412      0.99696119
   2240000  -1326.8793      215.20024     -1542.0796      283.11851     -2708.7821      3840.7412      0.99696119
   2241000  -1317.8435      229.92175     -1547.7652      302.4862      -370.74533      3840.7412      0.99696119
   2242000  -1340.763       223.36408     -1564.127       293.8589      -1288.1081      3840.7412      0.99696119
   2243000  -1302.8164      220.67328     -1523.4897      290.31888     -1127.9372      3840.7412      0.99696119
   2244000  -1304.3419      208.28433     -1512.6262      274.0199       387.19895      3840.7412      0.99696119
   2245000  -1308.2024      223.07491     -1531.2773      293.47847     -177.62437      3840.7412      0.99696119
   2246000  -1288.0366      239.78596     -1527.8226      315.4636       699.38557      3840.7412      0.99696119
   2247000  -1332.0588      210.91925     -1542.9781      277.48643     -177.38274      3840.7412      0.99696119
   2248000  -1297.2051      222.58045     -1519.7856      292.82796      41.557965      3840.7412      0.99696119
   2249000  -1300.533       205.61232     -1506.1453      270.50459      499.97468      3840.7412      0.99696119
   2250000  -1341.1877      204.22963     -1545.4174      268.68552     -1568.1487      3840.7412      0.99696119
   2251000  -1310.5879      223.3216      -1533.9095      293.80301      155.82811      3840.7412      0.99696119
   2252000  -1282.1513      226.9104      -1509.0617      298.52446      414.24366      3840.7412      0.99696119
   2253000  -1306.6043      223.28521     -1529.8895      293.75514     -751.2375       3840.7412      0.99696119
   2254000  -1294.9166      235.11698     -1530.0335      309.32108     -1188.9071      3840.7412      0.99696119
   2255000  -1309.2428      207.97283     -1517.2156      273.61009      164.43443      3840.7412      0.99696119
   2256000  -1291.6974      217.16997     -1508.8673      285.7099       878.03267      3840.7412      0.99696119
   2257000  -1303.1338      233.1436      -1536.2774      306.72488      420.05406      3840.7412      0.99696119
   2258000  -1282.9569      224.92626     -1507.8832      295.91411     -1235.1453      3840.7412      0.99696119
   2259000  -1332.7009      223.96438     -1556.6653      294.64865     -607.73785      3840.7412      0.99696119
   2260000  -1288.5966      235.59763     -1524.1942      309.95342     -579.28898      3840.7412      0.99696119
   2261000  -1306.1712      221.3742      -1527.5454      291.241       -803.15488      3840.7412      0.99696119
   2262000  -1310.4895      227.31974     -1537.8093      299.06298     -753.84689      3840.7412      0.99696119
   2263000  -1339.6327      214.05112     -1553.6839      281.60672      260.12083      3840.7412      0.99696119
   2264000  -1311.6524      226.84807     -1538.5005      298.44245      271.9516       3840.7412      0.99696119
   2265000  -1264.3826      236.47302     -1500.8556      311.10509     -1661.2079      3840.7412      0.99696119
   2266000  -1290.9364      238.9397      -1529.8761      314.35026      1438.4177      3840.7412      0.99696119
   2267000  -1322.9504      222.14135     -1545.0918      292.25027     -1255.1587      3840.7412      0.99696119
   2268000  -1295.5721      224.55062     -1520.1227      295.41992     -39.643617      3840.7412      0.99696119
   2269000  -1245.4509      228.04801     -1473.4989      300.0211       1800.6052      3840.7412      0.99696119
   2270000  -1285.2139      233.49503     -1518.7089      307.18724      478.42711      3840.7412      0.99696119
   2271000  -1325.7371      218.12493     -1543.862       286.96624     -73.539984      3840.7412      0.99696119
   2272000  -1271.5975      229.87911     -1501.4766      302.43011      474.34276      3840.7412      0.99696119
   2273000  -1294.987       218.56002     -1513.547       287.53866     -1231.4705      3840.7412      0.99696119
   2274000  -1256.929       255.98734     -1512.9164      336.77822      709.86813      3840.7412      0.99696119
   2275000  -1308.0328      217.24664     -1525.2795      285.81077     -1888.4786      3840.7412      0.99696119
   2276000  -1335.5459      225.72118     -1561.2671      296.95991     -224.11604      3840.7412      0.99696119
   2277000  -1307.1402      215.05044     -1522.1907      282.92143     -1294.1928      3840.7412      0.99696119
   2278000  -1297.1695      222.05677     -1519.2262      292.139        443.96215      3840.7412      0.99696119
   2279000  -1294.6691      230.50499     -1525.1741      303.25352      2295.5531      3840.7412      0.99696119
   2280000  -1314.5147      226.23394     -1540.7487      297.63451     -1618.5821      3840.7412      0.99696119
   2281000  -1296.0411      250.65138     -1546.6924      329.75821     -873.68337      3840.7412      0.99696119
   2282000  -1351.538       231.14766     -1582.6857      304.09902     -1371.4168      3840.7412      0.99696119
   2283000  -1313.8741      244.42092     -1558.295       321.56138     -1284.9008      3840.7412      0.99696119
   2284000  -1284.1407      226.41819     -1510.5589      297.87691     -261.46946      3840.7412      0.99696119
   2285000  -1348.3237      206.07501     -1554.3987      271.11331     -144.73109      3840.7412      0.99696119
   2286000  -1290.0772      227.49093     -1517.5682      299.2882      -2702.6602      3840.7412      0.99696119
   2287000  -1301.4253      232.86804     -1534.2933      306.36236     -720.19223      3840.7412      0.99696119
   2288000  -1336.1365      197.44697     -1533.5835      259.76222     -2317.402       3840.7412      0.99696119
   2289000  -1315.1531      216.17748     -1531.3305      284.40417      2614.0593      3840.7412      0.99696119
   2290000  -1320.1834      224.45984     -1544.6432      295.30049     -622.93691      3840.7412      0.99696119
   2291000  -1318.843       226.11485     -1544.9579      297.47783      1084.28        3840.7412      0.99696119
   2292000  -1274.4472      249.84934     -1524.2966      328.70304      1348.1368      3840.7412      0.99696119
   2293000  -1312.6519      222.32611     -1534.978       292.49334     -546.23742      3840.7412      0.99696119
   2294000  -1296.3139      224.57465     -1520.8885      295.45153     -824.37673      3840.7412      0.99696119
   2295000  -1312.8245      234.94914     -1547.7737      309.10026     -808.82134      3840.7412      0.99696119
   2296000  -1317.6473      214.28319     -1531.9305      281.91204     -528.15525      3840.7412      0.99696119
   2297000  -1296.2922      223.95382     -1520.246       294.63477      1287.8905      3840.7412      0.99696119
   2298000  -1307.5931      210.66413     -1518.2572      277.15078      1315.528       3840.7412      0.99696119
   2299000  -1280.8371      223.09329     -1503.9303      293.50264     -2002.2393      3840.7412      0.99696119
   2300000  -1320.1813      209.5373      -1529.7186      275.66832     -2306.8937      3840.7412      0.99696119
   2301000  -1308.6405      230.8729      -1539.5134      303.73755     -647.09344      3840.7412      0.99696119
   2302000  -1280.8192      255.55211     -1536.3713      336.20564      952.92804      3840.7412      0.99696119
   2303000  -1326.9854      214.41523     -1541.4006      282.08575     -1917.9566      3840.7412      0.99696119
   2304000  -1284.6559      219.54332     -1504.1992      288.83229      1220.8903      3840.7412      0.99696119
   2305000  -1305.4036      227.98259     -1533.3862      299.93504     -256.70982      3840.7412      0.99696119
   2306000  -1296.9212      217.80694     -1514.7281      286.5479      -885.91542      3840.7412      0.99696119
   2307000  -1268.8304      236.39915     -1505.2296      311.0079       492.9597       3840.7412      0.99696119
   2308000  -1293.5275      219.40607     -1512.9335      288.65172     -537.23456      3840.7412      0.99696119
   2309000  -1309.573       221.61301     -1531.186       291.55519     -859.53557      3840.7412      0.99696119
   2310000  -1264.5135      235.50777     -1500.0213      309.8352       63.643517      3840.7412      0.99696119
   2311000  -1281.4304      229.73689     -1511.1673      302.24301      1767.4254      3840.7412      0.99696119
   2312000  -1311.6558      215.76704     -1527.4229      283.8642      -651.0691       3840.7412      0.99696119
   2313000  -1297.1898      231.84671     -1529.0365      305.01869     -1787.178       3840.7412      0.99696119
   2314000  -1299.3796      234.81512     -1534.1947      308.92395     -68.092564      3840.7412      0.99696119
   2315000  -1319.872       233.51473     -1553.3867      307.21315     -1804.3977      3840.7412      0.99696119
   2316000  -1301.6337      226.15803     -1527.7918      297.53463      977.46694      3840.7412      0.99696119
   2317000  -1299.3226      227.23537     -1526.558       298.95199     -443.46183      3840.7412      0.99696119
   2318000  -1309.5051      204.71543     -1514.2205      269.32464      1109.7328      3840.7412      0.99696119
   2319000  -1296.8327      225.6414      -1522.4741      296.85495      985.36864      3840.7412      0.99696119
   2320000  -1341.889       211.01969     -1552.9087      277.61857     -604.17468      3840.7412      0.99696119
   2321000  -1318.7892      216.11841     -1534.9076      284.32647     -1202.2036      3840.7412      0.99696119
   2322000  -1312.4867      213.15779     -1525.6445      280.43146     -1323.0511      3840.7412      0.99696119
   2323000  -1322.2785      205.02765     -1527.3062      269.73541      908.22986      3840.7412      0.99696119
   2324000  -1300.9591      232.79128     -1533.7503      306.26138     -1944.6965      3840.7412      0.99696119
   2325000  -1290.3553      232.76832     -1523.1236      306.23117      1773.6921      3840.7412      0.99696119
   2326000  -1310.1307      220.93347     -1531.0642      290.66118      768.70429      3840.7412      0.99696119
   2327000  -1340.1205      203.00333     -1543.1238      267.0722      -459.21144      3840.7412      0.99696119
   2328000  -1295.1999      236.4341      -1531.634       311.05388     -1392.8454      3840.7412      0.99696119
   2329000  -1345.3228      208.87167     -1554.1944      274.79262      435.4338       3840.7412      0.99696119
   2330000  -1280.3425      234.21028     -1514.5528      308.12821     -115.20151      3840.7412      0.99696119
   2331000  -1295.8316      229.17655     -1525.0082      301.50582      1141.3372      3840.7412      0.99696119
   2332000  -1319.1357      204.78219     -1523.9179      269.41248     -21.826439      3840.7412      0.99696119
   2333000  -1314.5777      227.24243     -1541.8202      298.96128      1372.6294      3840.7412      0.99696119
   2334000  -1273.4584      226.57584     -1500.0342      298.08431     -208.88375      3840.7412      0.99696119
   2335000  -1309.5134      235.8761      -1545.3895      310.31978     -464.76926      3840.7412      0.99696119
   2336000  -1317.4575      209.28987     -1526.7473      275.34281      287.05848      3840.7412      0.99696119
   2337000  -1311.2516      215.15761     -1526.4092      283.06243     -688.11041      3840.7412      0.99696119
   2338000  -1270.7323      246.47639     -1517.2087      324.26557      2508.9489      3840.7412      0.99696119
   2339000  -1313.0441      221.65001     -1534.6941      291.60386     -1561.2653      3840.7412      0.99696119
   2340000  -1326.7587      224.02038     -1550.7791      294.72233     -926.0897       3840.7412      0.99696119
   2341000  -1302.108       216.5421      -1518.6501      284.88387     -971.98945      3840.7412      0.99696119
   2342000  -1328.2193      209.61875     -1537.838       275.77547     -103.09035      3840.7412      0.99696119
   2343000  -1284.2542      240.73216     -1524.9863      316.70843     -156.59507      3840.7412      0.99696119
   2344000  -1283.8079      224.82896     -1508.6369      295.7861      -1706.1052      3840.7412      0.99696119
   2345000  -1290.1702      229.08808     -1519.2583      301.38943      318.25045      3840.7412      0.99696119
   2346000  -1252.7544      232.37238     -1485.1268      305.71027     -325.20729      3840.7412      0.99696119
   2347000  -1269.4769      230.40044     -1499.8773      303.11597      1882.6396      3840.7412      0.99696119
   2348000  -1288.943       244.48318     -1533.4262      321.6433      -14.368715      3840.7412      0.99696119
   2349000  -1286.6079      246.13967     -1532.7475      323.82258     -1415.9945      3840.7412      0.99696119
   2350000  -1305.9409      214.24799     -1520.1889      281.86573     -3154.3607      3840.7412      0.99696119
   2351000  -1303.3984      217.81397     -1521.2124      286.55715     -190.70206      3840.7412      0.99696119
   2352000  -1299.9352      219.46564     -1519.4008      288.7301      -2068.1264      3840.7412      0.99696119
   2353000  -1299.5298      239.86822     -1539.398       315.57183      59.061671      3840.7412      0.99696119
   2354000  -1280.2372      249.45264     -1529.6898      328.18114      668.39914      3840.7412      0.99696119
   2355000  -1270.1441      224.1131      -1494.2573      294.84432      580.39041      3840.7412      0.99696119
   2356000  -1297.0401      234.47129     -1531.5114      308.4716       435.80283      3840.7412      0.99696119
   2357000  -1316.5727      210.77017     -1527.3429      277.29029     -65.984977      3840.7412      0.99696119
   2358000  -1318.1352      206.67123     -1524.8065      271.8977      -1766.1094      3840.7412      0.99696119
   2359000  -1302.949       213.88761     -1516.8366      281.39161      430.0276       3840.7412      0.99696119
   2360000  -1302.6923      228.86733     -1531.5596      301.099       -1220.5676      3840.7412      0.99696119
   2361000  -1320.3415      226.39624     -1546.7377      297.84802     -1671.1014      3840.7412      0.99696119
   2362000  -1275.3369      228.48567     -1503.8225      300.59689      7.381547       3840.7412      0.99696119
   2363000  -1306.1432      236.63854     -1542.7817      311.32285     -2208.1809      3840.7412      0.99696119
   2364000  -1326.8836      215.0015      -1541.8851      282.85705     -2011.513       3840.7412      0.99696119
   2365000  -1265.9454      226.09308     -1492.0385      297.44919      654.86274      3840.7412      0.99696119
   2366000  -1270.2095      221.04152     -1491.251       290.80333     -1459.8342      3840.7412      0.99696119
   2367000  -1318.7673      222.36534     -1541.1326      292.54495     -1557.2586      3840.7412      0.99696119
   2368000  -1269.5908      247.11264     -1516.7034      325.10263     -538.8757       3840.7412      0.99696119
   2369000  -1314.8522      229.19817     -1544.0504      301.53426     -1176.3644      3840.7412      0.99696119
   2370000  -1286.1598      215.83022     -1501.99        283.94732     -353.51803      3840.7412      0.99696119
   2371000  -1297.1099      236.49741     -1533.6073      311.13718     -1099.5595      3840.7412      0.99696119
   2372000  -1285.8266      222.3233      -1508.1498      292.48964      778.28671      3840.7412      0.99696119
   2373000  -1339.1245      196.49853     -1535.6231      258.51445     -269.27545      3840.7412      0.99696119
   2374000  -1267.6691      229.8103      -1497.4794      302.33958      23.62084       3840.7412      0.99696119
   2375000  -1272.7291      234.26252     -1506.9916      308.19694      1225.935       3840.7412      0.99696119
   2376000  -1297.1342      232.23821     -1529.3724      305.53375      2323.5675      3840.7412      0.99696119
   2377000  -1311.0313      225.6294      -1536.6607      296.83917      357.36096      3840.7412      0.99696119
   2378000  -1261.5773      223.42199     -1484.9993      293.93509     -893.70329      3840.7412      0.99696119
   2379000  -1275.4551      224.06547     -1499.5206      294.78165     -1616.6112      3840.7412      0.99696119
   2380000  -1269.1555      224.73771     -1493.8933      295.66606     -741.33365      3840.7412      0.99696119
   2381000  -1281.6663      234.12435     -1515.7906      308.01517      423.48509      3840.7412      0.99696119
   2382000  -1325.0444      206.93396     -1531.9784      272.24336      128.99729      3840.7412      0.99696119
   2383000  -1287.5798      233.15361     -1520.7334      306.73806      1810.7158      3840.7412      0.99696119
   2384000  -1319.6566      231.94152     -1551.5981      305.14343     -1215.1261      3840.7412      0.99696119
   2385000  -1288.5736      264.31739     -1552.891       347.73728      1383.4883      3840.7412      0.99696119
   2386000  -1317.0411      218.19564     -1535.2367      287.05928     -754.43491      3840.7412      0.99696119
   2387000  -1320.8165      220.45353     -1541.2701      290.02977      330.69241      3840.7412      0.99696119
   2388000  -1346.5798      221.91981     -1568.4996      291.95881      1141.5538      3840.7412      0.99696119
   2389000  -1327.9511      219.11466     -1547.0658      288.26834      573.93173      3840.7412      0.99696119
   2390000  -1318.2964      231.49887     -1549.7952      304.56108     -1223.3022      3840.7412      0.99696119
   2391000  -1335.7595      223.35771     -1559.1172      293.85052     -1379.9837      3840.7412      0.99696119
   2392000  -1310.8992      218.1795      -1529.0787      287.03804     -260.31353      3840.7412      0.99696119
   2393000  -1321.9356      222.40686     -1544.3424      292.59957      491.1679       3840.7412      0.99696119
   2394000  -1313.3317      225.53391     -1538.8656      296.71354     -584.96018      3840.7412      0.99696119
   2395000  -1341.8709      224.956       -1566.8269      295.95324     -767.2339       3840.7412      0.99696119
   2396000  -1319.8851      222.92336     -1542.8084      293.27909     -322.62436      3840.7412      0.99696119
   2397000  -1285.7569      228.21927     -1513.9761      300.24641      89.451796      3840.7412      0.99696119
   2398000  -1286.3772      243.65349     -1530.0307      320.55176      889.8043       3840.7412      0.99696119
   2399000  -1313.3692      222.89743     -1536.2666      293.24497     -2863.6826      3840.7412      0.99696119
   2400000  -1293.295       207.70461     -1500.9996      273.25723     -2778.4531      3840.7412      0.99696119
   2401000  -1291.0939      215.41018     -1506.5041      283.39472      833.52076      3840.7412      0.99696119
   2402000  -1304.0552      226.72393     -1530.7792      298.27914     -2455.3088      3840.7412      0.99696119
   2403000  -1303.7634      229.85178     -1533.6152      302.39415     -1479.8863      3840.7412      0.99696119
   2404000  -1305.6299      215.89275     -1521.5227      284.02958      215.78264      3840.7412      0.99696119
   2405000  -1327.0456      218.80652     -1545.8522      287.86295     -228.72098      3840.7412      0.99696119
   2406000  -1315.6758      239.34555     -1555.0213      314.8842       617.73812      3840.7412      0.99696119
   2407000  -1307.2272      217.51336     -1524.7405      286.16166     -1466.8234      3840.7412      0.99696119
   2408000  -1289.1136      224.00682     -1513.1205      294.7045      -664.31004      3840.7412      0.99696119
   2409000  -1302.909       231.12321     -1534.0322      304.06686     -1232.8957      3840.7412      0.99696119
   2410000  -1312.4077      227.82677     -1540.2345      299.73004     -1113.5418      3840.7412      0.99696119
   2411000  -1318.256       240.22462     -1558.4806      316.04071     -370.88535      3840.7412      0.99696119
   2412000  -1335.2655      233.97895     -1569.2445      307.82388      1500.5158      3840.7412      0.99696119
   2413000  -1299.8578      243.92416     -1543.782       320.90785     -1147.1557      3840.7412      0.99696119
   2414000  -1324.0076      224.89488     -1548.9025      295.87283     -1223.2841      3840.7412      0.99696119
   2415000  -1292.5039      227.8389      -1520.3428      299.746        666.94505      3840.7412      0.99696119
   2416000  -1305.4326      229.26354     -1534.6961      301.62026     -1462.5243      3840.7412      0.99696119
   2417000  -1314.2177      225.76355     -1539.9812      297.01566     -474.59007      3840.7412      0.99696119
   2418000  -1307.6676      213.72444     -1521.392       281.17695      563.99653      3840.7412      0.99696119
   2419000  -1260.5476      242.75763     -1503.3052      319.37315     -1280.0583      3840.7412      0.99696119
   2420000  -1300.8118      230.64546     -1531.4573      303.43832      641.99192      3840.7412      0.99696119
   2421000  -1315.8193      220.03393     -1535.8532      289.47773      1282.3208      3840.7412      0.99696119
   2422000  -1290.7531      228.7877      -1519.5408      300.99424     -612.53938      3840.7412      0.99696119
   2423000  -1297.3806      231.0413      -1528.4219      303.95909      681.83576      3840.7412      0.99696119
   2424000  -1272.0729      242.56794     -1514.6409      319.12359      15.132713      3840.7412      0.99696119
   2425000  -1296.6548      226.16918     -1522.824       297.54931      1239.5234      3840.7412      0.99696119
   2426000  -1317.8219      220.67798     -1538.4998      290.32505      822.1535       3840.7412      0.99696119
   2427000  -1336.0136      205.60841     -1541.622       270.49945     -704.6572       3840.7412      0.99696119
   2428000  -1321.2049      214.29211     -1535.4971      281.92377      1132.2703      3840.7412      0.99696119
   2429000  -1336.1174      209.59575     -1545.7132      275.74522     -929.10425      3840.7412      0.99696119
   2430000  -1312.7944      203.73104     -1516.5254      268.02957      1255.0261      3840.7412      0.99696119
   2431000  -1299.551       230.78114     -1530.3321      303.61683     -1190.694       3840.7412      0.99696119
   2432000  -1300.1901      215.26156     -1515.4517      283.19918     -627.36026      3840.7412      0.99696119
   2433000  -1281.6386      240.39857     -1522.0371      316.26957      3857.1568      3840.7412      0.99696119
   2434000  -1282.1284      253.21534     -1535.3438      333.13136     -958.5253       3840.7412      0.99696119
   2435000  -1317.2918      211.60023     -1528.8921      278.38233     -1697.3723      3840.7412      0.99696119
   2436000  -1292.1905      230.69871     -1522.8892      303.50837     -1692.6969      3840.7412      0.99696119
   2437000  -1311.9029      217.4081      -1529.311       286.02319      1050.2745      3840.7412      0.99696119
   2438000  -1339.6129      213.82692     -1553.4398      281.31177     -2265.8958      3840.7412      0.99696119
   2439000  -1319.0023      226.62831     -1545.6306      298.15334      413.66634      3840.7412      0.99696119
   2440000  -1338.6175      230.45343     -1569.0709      303.18568      728.83587      3840.7412      0.99696119
   2441000  -1364.2565      206.8903      -1571.1468      272.18591     -547.8918       3840.7412      0.99696119
   2442000  -1335.879       223.79684     -1559.6758      294.42824     -1567.5817      3840.7412      0.99696119
   2443000  -1274.9589      219.56851     -1494.5274      288.86543     -412.42401      3840.7412      0.99696119
   2444000  -1303.8575      235.4676      -1539.3251      309.78236     -804.13049      3840.7412      0.99696119
   2445000  -1293.8083      230.27034     -1524.0786      302.94481     -929.44882      3840.7412      0.99696119
   2446000  -1311.3884      222.54348     -1533.9319      292.77932     -1229.8787      3840.7412      0.99696119
   2447000  -1288.7471      214.33693     -1503.084       281.98274      607.90572      3840.7412      0.99696119
   2448000  -1301.6526      235.8428      -1537.4954      310.27597     -523.4745       3840.7412      0.99696119
   2449000  -1292.329       228.17318     -1520.5022      300.18578     -1461.6978      3840.7412      0.99696119
   2450000  -1323.7533      211.37365     -1535.127       278.08423      44.61305       3840.7412      0.99696119
   2451000  -1298.6167      224.89677     -1523.5135      295.87532     -936.34175      3840.7412      0.99696119
   2452000  -1273.2023      232.02506     -1505.2274      305.25333     -1157.4992      3840.7412      0.99696119
   2453000  -1319.4008      208.48295     -1527.8838      274.28122      1488.3902      3840.7412      0.99696119
   2454000  -1316.5781      229.64742     -1546.2255      302.12529      357.30381      3840.7412      0.99696119
   2455000  -1307.5518      229.96327     -1537.5151      302.54083      39.868194      3840.7412      0.99696119
   2456000  -1279.4682      231.52932     -1510.9976      304.60113      632.5526       3840.7412      0.99696119
   2457000  -1321.5013      223.30382     -1544.8051      293.77962      705.10308      3840.7412      0.99696119
   2458000  -1293.0445      219.88958     -1512.9341      289.28784     -1027.5926      3840.7412      0.99696119
   2459000  -1283.6393      229.09926     -1512.7385      301.40413     -637.73974      3840.7412      0.99696119
   2460000  -1283.9128      244.86516     -1528.7779      322.14584     -1304.3187      3840.7412      0.99696119
   2461000  -1299.3271      246.14148     -1545.4686      323.82497     -2338.8047      3840.7412      0.99696119
   2462000  -1294.6182      231.50222     -1526.1205      304.56548      294.85857      3840.7412      0.99696119
   2463000  -1277.9906      241.15613     -1519.1467      317.26621     -1641.3506      3840.7412      0.99696119
   2464000  -1297.1059      235.20429     -1532.3102      309.43594     -1344.624       3840.7412      0.99696119
   2465000  -1332.2567      209.4076      -1541.6643      275.49769      87.31074       3840.7412      0.99696119
   2466000  -1311.8538      214.26643     -1526.1202      281.88999     -946.17695      3840.7412      0.99696119
   2467000  -1289.7774      226.44084     -1516.2182      297.9067      -510.4164       3840.7412      0.99696119
   2468000  -1282.1023      228.99635     -1511.0987      301.26875     -700.49197      3840.7412      0.99696119
   2469000  -1337.9419      220.21685     -1558.1587      289.71839     -1725.4147      3840.7412      0.99696119
   2470000  -1295.0949      236.51424     -1531.6092      311.15932     -134.53917      3840.7412      0.99696119
   2471000  -1303.231       239.47578     -1542.7068      315.05554     -247.57255      3840.7412      0.99696119
   2472000  -1297.0424      224.27402     -1521.3164      295.05602     -165.75172      3840.7412      0.99696119
   2473000  -1327.0803      215.39688     -1542.4772      283.37722      1424.4117      3840.7412      0.99696119
   2474000  -1318.4044      226.25654     -1544.6609      297.66423     -1156.3168      3840.7412      0.99696119
   2475000  -1330.4818      210.32579     -1540.8076      276.70566     -1263.8558      3840.7412      0.99696119
   2476000  -1321.8408      228.30658     -1550.1474      300.36129     -993.18488      3840.7412      0.99696119
   2477000  -1284.6908      235.22986     -1519.9207      309.46958     -198.2819       3840.7412      0.99696119
   2478000  -1320.801       217.57596     -1538.377       286.24402     -69.115113      3840.7412      0.99696119
   2479000  -1293.4533      227.07169     -1520.525       298.73665      1114.1282      3840.7412      0.99696119
   2480000  -1266.8889      235.65861     -1502.5475      310.03364     -1989.4393      3840.7412      0.99696119
   2481000  -1299.6064      224.67871     -1524.2852      295.58844     -2435.121       3840.7412      0.99696119
   2482000  -1286.1006      244.56497     -1530.6655      321.7509      -1172.6861      3840.7412      0.99696119
   2483000  -1343.8984      205.8997      -1549.7981      270.88268     -1336.0813      3840.7412      0.99696119
   2484000  -1325.0033      228.57701     -1553.5803      300.71706     -1336.0516      3840.7412      0.99696119
   2485000  -1273.8821      226.13055     -1500.0127      297.49848      586.70204      3840.7412      0.99696119
   2486000  -1322.07        240.20919     -1562.2792      316.02042      535.19489      3840.7412      0.99696119
   2487000  -1311.2198      229.55438     -1540.7742      302.00289      762.23099      3840.7412      0.99696119
   2488000  -1300.0269      233.89197     -1533.9189      307.70945      98.988995      3840.7412      0.99696119
   2489000  -1327.828       224.35253     -1552.1806      295.15932      311.62909      3840.7412      0.99696119
   2490000  -1301.7491      219.71621     -1521.4654      289.05975      235.13206      3840.7412      0.99696119
   2491000  -1294.6516      234.08809     -1528.7397      307.96747      185.92261      3840.7412      0.99696119
   2492000  -1291.2564      233.67323     -1524.9296      307.42167      355.99261      3840.7412      0.99696119
   2493000  -1331.1472      223.21312     -1554.3603      293.6603      -1327.3176      3840.7412      0.99696119
   2494000  -1326.1999      220.9774      -1547.1773      290.71897     -14.053629      3840.7412      0.99696119
   2495000  -1308.7458      217.6291      -1526.3749      286.31393      1487.8149      3840.7412      0.99696119
   2496000  -1260.0646      246.63825     -1506.7029      324.47851     -393.80495      3840.7412      0.99696119
   2497000  -1326.5401      218.97874     -1545.5189      288.08953     -2023.3788      3840.7412      0.99696119
   2498000  -1318.1446      218.94541     -1537.09        288.04568      944.69539      3840.7412      0.99696119
   2499000  -1313.6338      228.50503     -1542.1389      300.62236      2114.4975      3840.7412      0.99696119
   2500000  -1268.8534      249.82593     -1518.6794      328.67225     -2664.7521      3840.7412      0.99696119
   2501000  -1332.7043      228.59617     -1561.3005      300.74226      367.3156       3840.7412      0.99696119
   2502000  -1294.6817      206.49289     -1501.1746      271.66308      1245.0022      3840.7412      0.99696119
   2503000  -1301.7466      231.50101     -1533.2476      304.56388     -858.72973      3840.7412      0.99696119
   2504000  -1310.4891      225.5865      -1536.0756      296.78273      369.49077      3840.7412      0.99696119
   2505000  -1297.0562      219.52358     -1516.5798      288.80632     -970.35809      3840.7412      0.99696119
   2506000  -1262.1778      236.67288     -1498.8507      311.36802     -73.29762       3840.7412      0.99696119
   2507000  -1276.7824      212.13067     -1488.9131      279.08017      480.83634      3840.7412      0.99696119
   2508000  -1285.215       218.6072      -1503.8222      287.60073      821.36809      3840.7412      0.99696119
   2509000  -1305.8329      227.03659     -1532.8695      298.69047     -19.689214      3840.7412      0.99696119
   2510000  -1362.6813      211.38984     -1574.0711      278.10554     -229.40953      3840.7412      0.99696119
   2511000  -1315.5916      235.31569     -1550.9073      309.5825       559.85851      3840.7412      0.99696119
   2512000  -1320.9968      229.7603      -1550.7571      302.2738      -605.60307      3840.7412      0.99696119
   2513000  -1306.2193      232.76413     -1538.9834      306.22565     -491.17455      3840.7412      0.99696119
   2514000  -1324.5939      208.03209     -1532.626       273.68805      102.80689      3840.7412      0.99696119
   2515000  -1284.8164      211.57407     -1496.3905      278.3479       2632.4459      3840.7412      0.99696119
   2516000  -1319.5549      209.08754     -1528.6425      275.07662      126.68175      3840.7412      0.99696119
   2517000  -1314.2196      208.39473     -1522.6143      274.16515     -640.1932       3840.7412      0.99696119
   2518000  -1306.0451      235.18444     -1541.2295      309.40982      102.76926      3840.7412      0.99696119
   2519000  -1312.6891      218.61977     -1531.3088      287.61727     -2952.5117      3840.7412      0.99696119
   2520000  -1300.3735      228.78251     -1529.156       300.98741     -1500.636       3840.7412      0.99696119
   2521000  -1282.4807      230.0552      -1512.5359      302.66177     -559.98757      3840.7412      0.99696119
   2522000  -1289.49        229.55831     -1519.0484      302.00807     -1533.3615      3840.7412      0.99696119
   2523000  -1320.9322      218.92078     -1539.853       288.01327     -2188.1558      3840.7412      0.99696119
   2524000  -1307.7159      210.65346     -1518.3693      277.13675     -151.82994      3840.7412      0.99696119
   2525000  -1302.798       220.48818     -1523.2862      290.07535      714.49849      3840.7412      0.99696119
   2526000  -1302.1981      218.75299     -1520.951       287.79253      987.30442      3840.7412      0.99696119
   2527000  -1314.1115      241.69653     -1555.808       317.97716      836.60968      3840.7412      0.99696119
   2528000  -1327.0946      227.5198      -1554.6144      299.32618      83.098537      3840.7412      0.99696119
   2529000  -1279.2416      226.41318     -1505.6548      297.87032     -257.39072      3840.7412      0.99696119
   2530000  -1306.8476      244.515       -1551.3626      321.68516      129.19739      3840.7412      0.99696119
   2531000  -1307.0331      208.5076      -1515.5406      274.31364      897.26686      3840.7412      0.99696119
   2532000  -1286.797       224.09664     -1510.8936      294.82266     -198.64776      3840.7412      0.99696119
   2533000  -1270.3828      217.44094     -1487.8238      286.06639      788.96162      3840.7412      0.99696119
   2534000  -1258.738       233.9681      -1492.7061      307.80961      132.79834      3840.7412      0.99696119
   2535000  -1287.3279      225.69059     -1513.0185      296.91966      2420.4579      3840.7412      0.99696119
   2536000  -1315.6483      221.88258     -1537.5308      291.90983     -1316.4833      3840.7412      0.99696119
   2537000  -1260.0733      241.89687     -1501.9701      318.24073      775.04795      3840.7412      0.99696119
   2538000  -1289.2568      235.29259     -1524.5494      309.5521      -83.648439      3840.7412      0.99696119
   2539000  -1286.7549      220.30546     -1507.0604      289.83497     -39.115747      3840.7412      0.99696119
   2540000  -1337.4566      220.25259     -1557.7092      289.7654      -1388.6516      3840.7412      0.99696119
   2541000  -1323.9832      222.15067     -1546.1338      292.26253     -419.69149      3840.7412      0.99696119
   2542000  -1329.5754      224.87241     -1554.4478      295.84326      910.51455      3840.7412      0.99696119
   2543000  -1343.466       218.23642     -1561.7024      287.11293      1209.8076      3840.7412      0.99696119
   2544000  -1315.5743      219.18208     -1534.7564      288.35704     -484.82342      3840.7412      0.99696119
   2545000  -1347.075       225.53628     -1572.6113      296.71666      607.42762      3840.7412      0.99696119
   2546000  -1341.2992      217.12441     -1558.4236      285.64997      160.85071      3840.7412      0.99696119
   2547000  -1317.1099      238.82085     -1555.9308      314.19391      2144.325       3840.7412      0.99696119
   2548000  -1303.6321      226.32384     -1529.9559      297.75278     -592.66643      3840.7412      0.99696119
   2549000  -1294.3043      231.94223     -1526.2466      305.14436      1008.6062      3840.7412      0.99696119
   2550000  -1314.9433      224.9385      -1539.8818      295.93021      1370.7433      3840.7412      0.99696119
   2551000  -1296.2026      231.34352     -1527.5461      304.35669      307.16661      3840.7412      0.99696119
   2552000  -1299.1538      239.52799     -1538.6818      315.12423     -328.07054      3840.7412      0.99696119
   2553000  -1291.6254      223.38291     -1515.0083      293.88367     -626.55938      3840.7412      0.99696119
   2554000  -1321.6204      222.87842     -1544.4988      293.21997     -143.99728      3840.7412      0.99696119
   2555000  -1305.9548      251.69789     -1557.6527      331.13501     -830.23019      3840.7412      0.99696119
   2556000  -1313.673       220.17944     -1533.8525      289.66918      812.06861      3840.7412      0.99696119
   2557000  -1303.8044      241.40025     -1545.2046      317.58738     -1083.0489      3840.7412      0.99696119
   2558000  -1280.6954      223.94482     -1504.6402      294.62293      753.97657      3840.7412      0.99696119
   2559000  -1286.3379      231.6024      -1517.9403      304.69728     -708.53882      3840.7412      0.99696119
   2560000  -1325.6395      227.03562     -1552.6751      298.68919      798.59286      3840.7412      0.99696119
   2561000  -1314.1791      216.3554      -1530.5345      284.63824     -840.6747       3840.7412      0.99696119
   2562000  -1301.6354      223.9716      -1525.607       294.65815     -2382.0322      3840.7412      0.99696119
   2563000  -1315.4422      214.76125     -1530.2035      282.54098      1288.8764      3840.7412      0.99696119
   2564000  -1357.047       217.37293     -1574.4199      285.97691      1104.0201      3840.7412      0.99696119
   2565000  -1287.1423      228.61815     -1515.7604      300.77118     -569.93111      3840.7412      0.99696119
   2566000  -1327.1388      210.28269     -1537.4215      276.64896     -1290.5482      3840.7412      0.99696119
   2567000  -1347.9606      204.73278     -1552.6934      269.34747      379.10717      3840.7412      0.99696119
   2568000  -1300.4124      219.43302     -1519.8454      288.68718     -530.13061      3840.7412      0.99696119
   2569000  -1317.4398      203.28142     -1520.7212      267.43805     -1775.0544      3840.7412      0.99696119
   2570000  -1289.1776      219.33106     -1508.5086      288.55304     -2392.7279      3840.7412      0.99696119
   2571000  -1289.5727      237.42553     -1526.9982      312.35822      1562.1241      3840.7412      0.99696119
   2572000  -1302.9642      229.15694     -1532.1212      301.48002     -1378.6501      3840.7412      0.99696119
   2573000  -1316.1403      209.52703     -1525.6674      275.65481     -711.81039      3840.7412      0.99696119
   2574000  -1317.6345      232.00206     -1549.6366      305.22307      1701.7097      3840.7412      0.99696119
   2575000  -1289.0967      231.46437     -1520.5611      304.51568      243.59325      3840.7412      0.99696119
   2576000  -1313.1723      222.66085     -1535.8331      292.93372     -2626.9006      3840.7412      0.99696119
   2577000  -1279.9637      242.40731     -1522.371       318.91227     -559.49345      3840.7412      0.99696119
   2578000  -1288.1348      235.86516     -1523.9999      310.30538      386.75736      3840.7412      0.99696119
   2579000  -1275.6678      254.99867     -1530.6665      335.47752      1811.0944      3840.7412      0.99696119
   2580000  -1304.7413      221.83208     -1526.5734      291.8434       594.61707      3840.7412      0.99696119
   2581000  -1319.7709      227.37496     -1547.1458      299.13564     -866.59094      3840.7412      0.99696119
   2582000  -1307.3922      215.91309     -1523.3053      284.05634      134.98663      3840.7412      0.99696119
   2583000  -1286.2296      219.42604     -1505.6557      288.67799     -663.88971      3840.7412      0.99696119
   2584000  -1292.8153      252.2738      -1545.0891      331.89267     -839.75063      3840.7412      0.99696119
   2585000  -1323.4755      219.44963     -1542.9251      288.70903     -2367.5887      3840.7412      0.99696119
   2586000  -1301.3243      238.72191     -1540.0462      314.06374     -910.79143      3840.7412      0.99696119
   2587000  -1301.5104      215.11418     -1516.6246      283.00529      1086.7436      3840.7412      0.99696119
   2588000  -1297.5091      235.63643     -1533.1455      310.00447      380.93279      3840.7412      0.99696119
   2589000  -1340.88        227.78241     -1568.6625      299.67168     -1536.9785      3840.7412      0.99696119
   2590000  -1318.3285      210.84503     -1529.1736      277.38877     -341.0776       3840.7412      0.99696119
   2591000  -1299.6995      239.41721     -1539.1167      314.97849     -1123.0935      3840.7412      0.99696119
   2592000  -1287.9249      221.26843     -1509.1933      291.10185      771.44464      3840.7412      0.99696119
   2593000  -1325.1817      220.58257     -1545.7643      290.19954     -1291.8259      3840.7412      0.99696119
   2594000  -1298.4237      237.95777     -1536.3815      313.05844      37.286867      3840.7412      0.99696119
   2595000  -1338.1949      229.12511     -1567.32        301.43814     -111.05086      3840.7412      0.99696119
   2596000  -1321.8092      232.24759     -1554.0568      305.54609      150.60856      3840.7412      0.99696119
   2597000  -1293.7533      226.97002     -1520.7233      298.60289     -780.81076      3840.7412      0.99696119
   2598000  -1301.2137      220.92521     -1522.1389      290.65032      1109.0237      3840.7412      0.99696119
   2599000  -1304.9582      226.60891     -1531.5671      298.12781      244.37561      3840.7412      0.99696119
   2600000  -1294.8962      245.79932     -1540.6955      323.37482     -358.70101      3840.7412      0.99696119
   2601000  -1336.5337      217.76247     -1554.2962      286.4894      -1831.4436      3840.7412      0.99696119
   2602000  -1312.4182      234.95593     -1547.3742      309.1092      -1097.1262      3840.7412      0.99696119
   2603000  -1325.4872      210.38425     -1535.8715      276.78257     -2177.1949      3840.7412      0.99696119
   2604000  -1301.6668      219.69823     -1521.365       289.03609      871.43733      3840.7412      0.99696119
   2605000  -1300.2795      219.4902      -1519.7697      288.76241     -770.907        3840.7412      0.99696119
   2606000  -1272.4729      226.49929     -1498.9722      297.9836       17.629313      3840.7412      0.99696119
   2607000  -1294.1859      235.12377     -1529.3097      309.33001      110.6858       3840.7412      0.99696119
   2608000  -1352.087       193.86892     -1545.9559      255.05492      230.19048      3840.7412      0.99696119
   2609000  -1290.9966      231.22024     -1522.2169      304.1945       1222.8285      3840.7412      0.99696119
   2610000  -1317.0073      214.00752     -1531.0148      281.54937     -1135.5107      3840.7412      0.99696119
   2611000  -1296.4823      237.10693     -1533.5892      311.93907     -1731.3909      3840.7412      0.99696119
   2612000  -1294.3811      229.79741     -1524.1785      302.32262      1541.5927      3840.7412      0.99696119
   2613000  -1283.2839      254.42749     -1537.7114      334.72608      17.753146      3840.7412      0.99696119
   2614000  -1270.0063      237.69986     -1507.7061      312.71912     -808.96663      3840.7412      0.99696119
   2615000  -1302.5989      233.01072     -1535.6096      306.55008     -1354.2402      3840.7412      0.99696119
   2616000  -1297.5646      228.96889     -1526.5335      301.23262     -305.21217      3840.7412      0.99696119
   2617000  -1301.6298      205.97559     -1507.6054      270.98251      29.782511      3840.7412      0.99696119
   2618000  -1301.2506      231.68581     -1532.9364      304.80701     -440.28819      3840.7412      0.99696119
   2619000  -1323.0289      218.20652     -1541.2354      287.07359      554.59255      3840.7412      0.99696119
   2620000  -1296.6866      245.70919     -1542.3958      323.25625      1573.5902      3840.7412      0.99696119
   2621000  -1317.1267      230.95934     -1548.086       303.85127     -317.28391      3840.7412      0.99696119
   2622000  -1346.2137      217.31287     -1563.5266      285.8979      -1538.0208      3840.7412      0.99696119
   2623000  -1324.936       227.41438     -1552.3504      299.18749      799.23653      3840.7412      0.99696119
   2624000  -1289.8898      237.20017     -1527.09        312.06173     -238.47654      3840.7412      0.99696119
   2625000  -1319.2986      222.18397     -1541.4826      292.30635      300.82525      3840.7412      0.99696119
   2626000  -1274.4241      240.68525     -1515.1093      316.64672     -119.56973      3840.7412      0.99696119
   2627000  -1279.9982      230.84713     -1510.8453      303.70363     -2953.8121      3840.7412      0.99696119
   2628000  -1304.0237      214.09604     -1518.1197      281.66582      959.28626      3840.7412      0.99696119
   2629000  -1303.7646      216.17908     -1519.9437      284.40629     -1476.7802      3840.7412      0.99696119
   2630000  -1269.6696      229.01146     -1498.681       301.28863      1941.6706      3840.7412      0.99696119
   2631000  -1287.6062      233.76127     -1521.3674      307.5375      -858.65139      3840.7412      0.99696119
   2632000  -1318.4266      209.48452     -1527.9111      275.59889     -757.95423      3840.7412      0.99696119
   2633000  -1284.1733      251.68355     -1535.8569      331.11614      3050.1675      3840.7412      0.99696119
   2634000  -1334.3533      223.80839     -1558.1617      294.44344     -1306.0013      3840.7412      0.99696119
   2635000  -1316.3064      242.67705     -1558.9835      319.26715     -1845.2929      3840.7412      0.99696119
   2636000  -1285.8713      245.35764     -1531.2289      322.79374     -541.71645      3840.7412      0.99696119
   2637000  -1312.6243      225.5856      -1538.2099      296.78155      1198.5915      3840.7412      0.99696119
   2638000  -1285.4577      230.22184     -1515.6796      302.881        263.47466      3840.7412      0.99696119
   2639000  -1327.4284      208.91637     -1536.3448      274.85143     -1718.0354      3840.7412      0.99696119
   2640000  -1324.9957      216.37098     -1541.3667      284.65874      180.08379      3840.7412      0.99696119
   2641000  -1302.3531      238.22684     -1540.5799      313.41242     -1121.951       3840.7412      0.99696119
   2642000  -1293.4987      229.21756     -1522.7162      301.55977     -819.49582      3840.7412      0.99696119
   2643000  -1292.8318      230.30829     -1523.1401      302.99474      864.90599      3840.7412      0.99696119
   2644000  -1298.7194      229.82651     -1528.5459      302.36091      360.10104      3840.7412      0.99696119
   2645000  -1296.0524      248.51771     -1544.5701      326.95115      444.58206      3840.7412      0.99696119
   2646000  -1326.2886      236.26885     -1562.5575      310.83649      541.52728      3840.7412      0.99696119
   2647000  -1309.7623      238.19643     -1547.9587      313.37242      181.30214      3840.7412      0.99696119
   2648000  -1360.473       208.78982     -1569.2629      274.68493     -1023.3034      3840.7412      0.99696119
   2649000  -1310.4166      231.05858     -1541.4751      303.98182      213.03027      3840.7412      0.99696119
   2650000  -1332.7628      213.38874     -1546.1515      280.73529     -982.21405      3840.7412      0.99696119
   2651000  -1358.3874      210.65191     -1569.0393      277.13471     -589.54872      3840.7412      0.99696119
   2652000  -1310.6942      216.41032     -1527.1045      284.7105       834.83049      3840.7412      0.99696119
   2653000  -1308.8878      206.77522     -1515.663       272.03451      137.53267      3840.7412      0.99696119
   2654000  -1338.9812      219.64246     -1558.6236      288.96272     -867.22609      3840.7412      0.99696119
   2655000  -1273.4857      237.73981     -1511.2255      312.77168      89.616037      3840.7412      0.99696119
   2656000  -1301.4748      213.08487     -1514.5597      280.33552     -792.0068       3840.7412      0.99696119
   2657000  -1309.8708      226.33032     -1536.2012      297.76131     -483.65157      3840.7412      0.99696119
   2658000  -1318.8052      228.71291     -1547.5181      300.89585     -581.13256      3840.7412      0.99696119
   2659000  -1331.9438      208.85418     -1540.798       274.76961     -778.18592      3840.7412      0.99696119
   2660000  -1307.2624      217.43358     -1524.696       286.05671     -1978.6585      3840.7412      0.99696119
   2661000  -1280.8068      229.87114     -1510.6779      302.41963      267.14202      3840.7412      0.99696119
   2662000  -1322.2638      232.18807     -1554.4518      305.46779      314.87657      3840.7412      0.99696119
   2663000  -1319.7697      232.40302     -1552.1727      305.75057     -713.8611       3840.7412      0.99696119
   2664000  -1309.5555      227.29839     -1536.8539      299.0349      -1100.6781      3840.7412      0.99696119
   2665000  -1317.0323      225.52796     -1542.5603      296.70572     -272.32461      3840.7412      0.99696119
   2666000  -1312.6791      209.57508     -1522.2542      275.71803     -2148.7449      3840.7412      0.99696119
   2667000  -1295.1911      235.69957     -1530.8907      310.08753     -2127.7303      3840.7412      0.99696119
   2668000  -1295.8298      240.08117     -1535.911       315.85199     -181.05524      3840.7412      0.99696119
   2669000  -1299.4977      231.33807     -1530.8358      304.34953     -2544.5416      3840.7412      0.99696119
   2670000  -1303.2116      227.25674     -1530.4683      298.9801       169.60699      3840.7412      0.99696119
   2671000  -1367.6988      208.88657     -1576.5853      274.81221     -3376.7203      3840.7412      0.99696119
   2672000  -1280.3659      238.1616      -1518.5275      313.3266      -691.35123      3840.7412      0.99696119
   2673000  -1303.2341      237.74886     -1540.983       312.7836      -2474.6895      3840.7412      0.99696119
   2674000  -1292.8384      214.47203     -1507.3105      282.16048      1613.2619      3840.7412      0.99696119
   2675000  -1283.0425      232.36497     -1515.4075      305.70052      240.12236      3840.7412      0.99696119
   2676000  -1265.728       263.32687     -1529.0549      346.43415      398.05772      3840.7412      0.99696119
   2677000  -1247.6274      250.29585     -1497.9232      329.29048      2440.4972      3840.7412      0.99696119
   2678000  -1301.6243      215.37211     -1516.9964      283.34462     -947.83544      3840.7412      0.99696119
   2679000  -1300.6719      219.78134     -1520.4533      289.14544      407.16439      3840.7412      0.99696119
   2680000  -1330.3464      201.50727     -1531.8536      265.10398      192.15173      3840.7412      0.99696119
   2681000  -1289.2881      226.87439     -1516.1625      298.47709     -456.32783      3840.7412      0.99696119
   2682000  -1290.3573      215.78539     -1506.1427      283.88834     -184.70709      3840.7412      0.99696119
   2683000  -1285.5538      243.37081     -1528.9246      320.17986      949.62274      3840.7412      0.99696119
   2684000  -1315.3857      222.68625     -1538.072       292.96714      1000.1957      3840.7412      0.99696119
   2685000  -1304.6694      225.68283     -1530.3522      296.90946     -285.63991      3840.7412      0.99696119
   2686000  -1311.8965      218.95167     -1530.8481      288.05391      1040.8732      3840.7412      0.99696119
   2687000  -1330.7463      202.12947     -1532.8757      265.92254      1928.0517      3840.7412      0.99696119
   2688000  -1314.0874      216.7269      -1530.8143      285.127        1236.1621      3840.7412      0.99696119
   2689000  -1305.2764      222.82392     -1528.1003      293.14827      76.929471      3840.7412      0.99696119
   2690000  -1312.0297      229.01357     -1541.0433      301.2914      -285.66594      3840.7412      0.99696119
   2691000  -1324.3017      229.69765     -1553.9994      302.19138      24.145853      3840.7412      0.99696119
   2692000  -1307.0475      232.8772      -1539.9247      306.37441     -3724.115       3840.7412      0.99696119
   2693000  -1308.6797      225.091       -1533.7707      296.13085      91.58445       3840.7412      0.99696119
   2694000  -1317.3405      243.93549     -1561.276       320.92275      2952.1367      3840.7412      0.99696119
   2695000  -1331.125       219.4517      -1550.5767      288.71175     -2264.7894      3840.7412      0.99696119
   2696000  -1322.405       221.53737     -1543.9424      291.45568     -240.52648      3840.7412      0.99696119
   2697000  -1329.1853      223.76353     -1552.9489      294.38442     -1829.9065      3840.7412      0.99696119
   2698000  -1323.1833      225.48109     -1548.6644      296.64406      985.95702      3840.7412      0.99696119
   2699000  -1303.8991      247.04078     -1550.9398      325.00809     -935.74786      3840.7412      0.99696119
   2700000  -1326.9178      213.88754     -1540.8054      281.39152     -895.35024      3840.7412      0.99696119
   2701000  -1322.103       230.78415     -1552.8871      303.62079     -1004.7396      3840.7412      0.99696119
   2702000  -1324.6479      229.44768     -1554.0956      301.86251     -451.83626      3840.7412      0.99696119
   2703000  -1319.3357      215.68966     -1535.0253      283.76239     -26.896709      3840.7412      0.99696119
   2704000  -1283.832       253.30352     -1537.1355      333.24738     -3384.3944      3840.7412      0.99696119
   2705000  -1309.4618      238.87204     -1548.3338      314.26125     -1078.787       3840.7412      0.99696119
   2706000  -1289.8762      253.87665     -1543.7528      334.00139      1203.6304      3840.7412      0.99696119
   2707000  -1341.2571      213.44477     -1554.7018      280.80901     -1697.4986      3840.7412      0.99696119
   2708000  -1332.5952      218.45375     -1551.049       287.39884     -1534.0747      3840.7412      0.99696119
   2709000  -1284.6         236.26187     -1520.8619      310.8273       878.2359       3840.7412      0.99696119
   2710000  -1318.3856      222.38229     -1540.7679      292.56725      1211.3866      3840.7412      0.99696119
   2711000  -1309.5124      225.16273     -1534.6751      296.22521     -1171.9545      3840.7412      0.99696119
   2712000  -1276.3044      245.02106     -1521.3255      322.35093     -210.01986      3840.7412      0.99696119
   2713000  -1299.2181      233.52786     -1532.7459      307.23043     -2418.6922      3840.7412      0.99696119
   2714000  -1321.6079      207.20963     -1528.8175      272.60602     -1288.6892      3840.7412      0.99696119
   2715000  -1320.8933      233.01916     -1553.9125      306.56117      1900.3089      3840.7412      0.99696119
   2716000  -1294.2762      212.06338     -1506.3396      278.99164      103.63155      3840.7412      0.99696119
   2717000  -1285.4964      233.14263     -1518.639       306.72361     -1030.5925      3840.7412      0.99696119
   2718000  -1313.4386      228.18559     -1541.6242      300.2021      -10.304868      3840.7412      0.99696119
   2719000  -1319.2094      213.52397     -1532.7334      280.91321     -156.28333      3840.7412      0.99696119
   2720000  -1266.3975      245.73618     -1512.1337      323.29174     -314.5595       3840.7412      0.99696119
   2721000  -1299.0852      234.42549     -1533.5107      308.41135      975.44595      3840.7412      0.99696119
   2722000  -1309.045       224.55955     -1533.6045      295.43167      419.43063      3840.7412      0.99696119
   2723000  -1269.0171      245.95008     -1514.9672      323.57316     -163.19963      3840.7412      0.99696119
   2724000  -1294.5634      225.03704     -1519.6005      296.05986      1146.1966      3840.7412      0.99696119
   2725000  -1305.0023      228.4551      -1533.4574      300.55668      448.78032      3840.7412      0.99696119
   2726000  -1335.3247      217.36602     -1552.6907      285.96782      680.46051      3840.7412      0.99696119
   2727000  -1295.0633      235.06386     -1530.1272      309.25119      281.47225      3840.7412      0.99696119
   2728000  -1295.0092      220.71809     -1515.7273      290.37782      1217.3337      3840.7412      0.99696119
   2729000  -1251.0173      231.01803     -1482.0353      303.92847      2935.2439      3840.7412      0.99696119
   2730000  -1312.0901      224.40563     -1536.4957      295.22917     -12.536726      3840.7412      0.99696119
   2731000  -1308.3065      197.53886     -1505.8453      259.88311     -2076.9335      3840.7412      0.99696119
   2732000  -1280.2478      226.89345     -1507.1412      298.50216      1062.7433      3840.7412      0.99696119
   2733000  -1280.9605      245.16103     -1526.1215      322.53508      687.88868      3840.7412      0.99696119
   2734000  -1304.5873      237.14233     -1541.7297      311.98563      276.24558      3840.7412      0.99696119
   2735000  -1285.3027      218.19383     -1503.4965      287.05689      2599.0046      3840.7412      0.99696119
   2736000  -1337.7649      219.62605     -1557.391       288.94113     -1252.6864      3840.7412      0.99696119
   2737000  -1302.3741      217.60556     -1519.9797      286.28297      1999.9129      3840.7412      0.99696119
   2738000  -1290.2379      210.26582     -1500.5037      276.62676     -117.80862      3840.7412      0.99696119
   2739000  -1274.3979      220.85102     -1495.2489      290.55271     -879.03873      3840.7412      0.99696119
   2740000  -1303.3383      222.92193     -1526.2602      293.27721     -1636.4771      3840.7412      0.99696119
   2741000  -1316.3791      217.96832     -1534.3475      286.76021     -1085.149       3840.7412      0.99696119
   2742000  -1329.961       227.57957     -1557.5406      299.40483     -190.60124      3840.7412      0.99696119
   2743000  -1304.5846      212.25268     -1516.8372      279.24068      1646.2573      3840.7412      0.99696119
   2744000  -1343.0805      217.72945     -1560.8099      286.44595      441.88547      3840.7412      0.99696119
   2745000  -1332.1443      218.81506     -1550.9593      287.87419     -1225.2575      3840.7412      0.99696119
   2746000  -1297.6172      225.21806     -1522.8353      296.29801      118.56679      3840.7412      0.99696119
   2747000  -1282.2047      254.82633     -1537.031       335.2508      -1401.9047      3840.7412      0.99696119
   2748000  -1326.417       227.10515     -1553.5221      298.78067     -260.6539       3840.7412      0.99696119
   2749000  -1310.6105      224.14433     -1534.7549      294.88541      1127.8458      3840.7412      0.99696119
   2750000  -1323.4694      201.065       -1524.5344      264.52213     -312.80855      3840.7412      0.99696119
   2751000  -1310.3568      217.96449     -1528.3212      286.75517     -753.06591      3840.7412      0.99696119
   2752000  -1291.9237      225.98696     -1517.9107      297.30958     -1808.0837      3840.7412      0.99696119
   2753000  -1299.6022      217.25349     -1516.8557      285.81977      2825.9119      3840.7412      0.99696119
   2754000  -1326.1094      217.28256     -1543.3919      285.85803     -342.59562      3840.7412      0.99696119
   2755000  -1293.1262      234.2845      -1527.4107      308.22586     -521.67765      3840.7412      0.99696119
   2756000  -1327.9048      226.09584     -1554.0007      297.45281      1002.0784      3840.7412      0.99696119
   2757000  -1303.71        222.72514     -1526.4352      293.01831      1958.2277      3840.7412      0.99696119
   2758000  -1266.3997      236.14298     -1502.5427      310.67089      483.92814      3840.7412      0.99696119
   2759000  -1289.0228      226.9634      -1515.9862      298.59418      1315.3118      3840.7412      0.99696119
   2760000  -1334.638       215.09014     -1549.7282      282.97366     -161.96173      3840.7412      0.99696119
   2761000  -1292.6998      215.98128     -1508.6811      284.14606      531.02201      3840.7412      0.99696119
   2762000  -1314.9576      222.15368     -1537.1112      292.2665      -1647.3683      3840.7412      0.99696119
   2763000  -1305.5198      238.52493     -1544.0447      313.80459      192.76135      3840.7412      0.99696119
   2764000  -1311.9588      229.82428     -1541.7831      302.35797      1737.497       3840.7412      0.99696119
   2765000  -1306.4285      227.17596     -1533.6044      298.87383     -1259.8219      3840.7412      0.99696119
   2766000  -1305.4331      213.61278     -1519.0459      281.03005     -278.49739      3840.7412      0.99696119
   2767000  -1275.939       250.22991     -1526.1689      329.20372     -160.43247      3840.7412      0.99696119
   2768000  -1318.4348      218.42357     -1536.8583      287.35915     -1398.3089      3840.7412      0.99696119
   2769000  -1303.1012      207.41393     -1510.5151      272.8748      -773.3584       3840.7412      0.99696119
   2770000  -1287.2985      230.6572      -1517.9557      303.45376     -71.793067      3840.7412      0.99696119
   2771000  -1312.5036      223.93716     -1536.4408      294.61285     -455.2642       3840.7412      0.99696119
   2772000  -1319.9244      217.44528     -1537.3697      286.0721       277.22986      3840.7412      0.99696119
   2773000  -1363.5737      208.59384     -1572.1676      274.4271      -240.83415      3840.7412      0.99696119
   2774000  -1323.9897      209.89094     -1533.8807      276.13357      35.345675      3840.7412      0.99696119
   2775000  -1311.3009      224.36027     -1535.6612      295.16949     -593.14778      3840.7412      0.99696119
   2776000  -1296.1464      216.58711     -1512.7335      284.94308     -183.04383      3840.7412      0.99696119
   2777000  -1341.2666      211.87317     -1553.1398      278.7414      -322.52991      3840.7412      0.99696119
   2778000  -1330.4057      221.12025     -1551.526       290.90691     -367.97265      3840.7412      0.99696119
   2779000  -1293.932       216.4581      -1510.3901      284.77336      578.20598      3840.7412      0.99696119
   2780000  -1313.2529      222.13089     -1535.3838      292.23651      653.7532       3840.7412      0.99696119
   2781000  -1300.6136      230.004       -1530.6176      302.59441     -1931.1474      3840.7412      0.99696119
   2782000  -1299.212       240.92124     -1540.1332      316.95718     -146.13268      3840.7412      0.99696119
   2783000  -1308.3997      228.25449     -1536.6542      300.29275     -71.343742      3840.7412      0.99696119
   2784000  -1325.1884      217.37788     -1542.5663      285.98343     -758.22489      3840.7412      0.99696119
   2785000  -1299.3509      238.61509     -1537.9659      313.92321     -2207.8833      3840.7412      0.99696119
   2786000  -1331.0515      237.93865     -1568.9901      313.03329      2326.6429      3840.7412      0.99696119
   2787000  -1288.7209      230.96977     -1519.6907      303.86499     -473.57075      3840.7412      0.99696119
   2788000  -1334.2084      213.10158     -1547.31        280.35751     -547.603        3840.7412      0.99696119
   2789000  -1293.8921      238.54129     -1532.4334      313.82612     -1179.8509      3840.7412      0.99696119
   2790000  -1325.3195      224.29058     -1549.6101      295.07782     -1424.0917      3840.7412      0.99696119
   2791000  -1285.0957      210.96938     -1496.0651      277.55238      104.30592      3840.7412      0.99696119
   2792000  -1308.3587      214.37325     -1522.732       282.03052      973.48116      3840.7412      0.99696119
   2793000  -1335.4696      238.33399     -1573.8036      313.55339      83.324379      3840.7412      0.99696119
   2794000  -1302.8716      220.66156     -1523.5331      290.30346     -840.7905       3840.7412      0.99696119
   2795000  -1285.7037      231.42426     -1517.128       304.46291     -131.28776      3840.7412      0.99696119
   2796000  -1278.2502      225.58871     -1503.8389      296.78564      103.6529       3840.7412      0.99696119
   2797000  -1301.5618      211.06838     -1512.6302      277.68262     -347.58049      3840.7412      0.99696119
   2798000  -1308.6939      232.07725     -1540.7712      305.322       -941.82614      3840.7412      0.99696119
   2799000  -1330.9623      202.40947     -1533.3718      266.29091     -640.22804      3840.7412      0.99696119
   2800000  -1250.6152      250.27034     -1500.8855      329.25692     -2270.6944      3840.7412      0.99696119
   2801000  -1308.7706      228.18341     -1536.954       300.19923      151.37046      3840.7412      0.99696119
   2802000  -1311.2921      237.10938     -1548.4014      311.94229     -367.64433      3840.7412      0.99696119
   2803000  -1278.2488      243.53471     -1521.7835      320.39549      320.58441      3840.7412      0.99696119
   2804000  -1290.1407      225.16286     -1515.3035      296.22539     -1525.3205      3840.7412      0.99696119
   2805000  -1283.1839      257.56953     -1540.7534      338.85976     -1634.6845      3840.7412      0.99696119
   2806000  -1314.9183      237.8804      -1552.7987      312.95664     -1870.758       3840.7412      0.99696119
   2807000  -1304.0929      237.51335     -1541.6062      312.47375     -1495.2827      3840.7412      0.99696119
   2808000  -1292.5585      235.38141     -1527.9399      309.66896     -1519.6666      3840.7412      0.99696119
   2809000  -1268.0509      250.0203      -1518.0712      328.92796     -339.73384      3840.7412      0.99696119
   2810000  -1301.7974      222.53361     -1524.331       292.76634      56.304518      3840.7412      0.99696119
   2811000  -1309.1556      235.36413     -1544.5197      309.64623      2674.7708      3840.7412      0.99696119
   2812000  -1344.1015      226.32936     -1570.4308      297.76004      973.41471      3840.7412      0.99696119
   2813000  -1306.8064      228.68654     -1535.493       300.86115     -2251.8017      3840.7412      0.99696119
   2814000  -1332.0376      223.31432     -1555.3519      293.79344     -1395.101       3840.7412      0.99696119
   2815000  -1305.4259      238.0545      -1543.4804      313.18569     -373.50624      3840.7412      0.99696119
   2816000  -1304.476       216.27909     -1520.7551      284.53785     -64.358913      3840.7412      0.99696119
   2817000  -1328.7131      217.25097     -1545.9641      285.81647     -25.245086      3840.7412      0.99696119
   2818000  -1293.7255      224.39592     -1518.1215      295.21639      64.996463      3840.7412      0.99696119
   2819000  -1288.9018      231.52255     -1520.4244      304.59222     -1009.0489      3840.7412      0.99696119
   2820000  -1327.4389      217.4476      -1544.8865      286.07515     -1764.9662      3840.7412      0.99696119
   2821000  -1319.0507      227.70576     -1546.7565      299.57083     -1360.6128      3840.7412      0.99696119
   2822000  -1313.9071      232.51895     -1546.426       305.90309     -758.25896      3840.7412      0.99696119
   2823000  -1338.772       233.12686     -1571.8989      306.70286     -575.00158      3840.7412      0.99696119
   2824000  -1264.4441      251.47589     -1515.92        330.84293     -1180.3576      3840.7412      0.99696119
   2825000  -1310.5087      227.10426     -1537.613       298.7795       659.42869      3840.7412      0.99696119
   2826000  -1321.5393      213.83039     -1535.3697      281.31633     -872.7697       3840.7412      0.99696119
   2827000  -1280.9297      224.03286     -1504.9625      294.73876     -1072.9202      3840.7412      0.99696119
   2828000  -1312.951       217.88516     -1530.8362      286.65081     -510.3985       3840.7412      0.99696119
   2829000  -1307.5773      227.22302     -1534.8003      298.93574     -2176.9809      3840.7412      0.99696119
   2830000  -1293.3876      228.22373     -1521.6114      300.25228      1895.596       3840.7412      0.99696119
   2831000  -1327.6132      227.78007     -1555.3932      299.6686       209.99029      3840.7412      0.99696119
   2832000  -1326.2059      242.72536     -1568.9313      319.3307      -495.2329       3840.7412      0.99696119
   2833000  -1300.4314      230.90938     -1531.3408      303.78553      604.73022      3840.7412      0.99696119
   2834000  -1284.7511      248.77616     -1533.5273      327.29117      1082.2595      3840.7412      0.99696119
   2835000  -1299.7853      224.78287     -1524.5681      295.72547     -3270.1719      3840.7412      0.99696119
   2836000  -1278.4834      224.22425     -1502.7076      294.99055     -356.3444       3840.7412      0.99696119
   2837000  -1293.599       236.3849      -1529.9839      310.98915      694.00187      3840.7412      0.99696119
   2838000  -1300.8637      206.53476     -1507.3984      271.71817     -260.35381      3840.7412      0.99696119
   2839000  -1263.0083      246.14899     -1509.1573      323.83484     -2014.4297      3840.7412      0.99696119
   2840000  -1296.2118      243.95377     -1540.1656      320.9468      -47.051055      3840.7412      0.99696119
   2841000  -1274.9679      223.59674     -1498.5647      294.16499     -1448.4364      3840.7412      0.99696119
   2842000  -1259.414       230.9736      -1490.3876      303.87002      391.8863       3840.7412      0.99696119
   2843000  -1300.7231      232.88677     -1533.6099      306.387        37.364548      3840.7412      0.99696119
   2844000  -1282.6853      241.90937     -1524.5947      318.25717     -383.46479      3840.7412      0.99696119
   2845000  -1296.5207      224.27228     -1520.793       295.05374      982.87789      3840.7412      0.99696119
   2846000  -1264.8272      225.71332     -1490.5405      296.94958      889.98564      3840.7412      0.99696119
   2847000  -1315.6826      209.58357     -1525.2662      275.72919      505.90434      3840.7412      0.99696119
   2848000  -1300.399       246.91407     -1547.3131      324.84139     -614.54313      3840.7412      0.99696119
   2849000  -1330.9237      222.69563     -1553.6193      292.97948      316.98304      3840.7412      0.99696119
   2850000  -1320.798       208.8597      -1529.6577      274.77686     -232.09297      3840.7412      0.99696119
   2851000  -1284.1699      243.37265     -1527.5425      320.18228     -1045.1277      3840.7412      0.99696119
   2852000  -1330.3665      220.37549     -1550.7419      289.9271       1074.484       3840.7412      0.99696119
   2853000  -1287.7601      226.27092     -1514.031       297.68315      19.238094      3840.7412      0.99696119
   2854000  -1304.1866      245.11653     -1549.3031      322.47654     -303.13566      3840.7412      0.99696119
   2855000  -1315.1158      218.62238     -1533.7382      287.62069     -474.24975      3840.7412      0.99696119
   2856000  -1294.3477      251.80312     -1546.1508      331.27344     -416.47408      3840.7412      0.99696119
   2857000  -1338.195       200.0334      -1538.2284      263.16495     -479.09572      3840.7412      0.99696119
   2858000  -1334.2139      229.68329     -1563.8972      302.17248     -1487.7456      3840.7412      0.99696119
   2859000  -1319.3417      215.37153     -1534.7132      283.34387     -2004.8246      3840.7412      0.99696119
   2860000  -1267.1521      231.76649     -1498.9186      304.91315      2318.4266      3840.7412      0.99696119
   2861000  -1336.5755      220.63005     -1557.2056      290.26199     -2463.1163      3840.7412      0.99696119
   2862000  -1286.3727      221.69767     -1508.0703      291.66656      439.93267      3840.7412      0.99696119
   2863000  -1298.3709      217.86841     -1516.2393      286.62878      1678.8199      3840.7412      0.99696119
   2864000  -1300.8287      217.36337     -1518.192       285.96433     -861.69409      3840.7412      0.99696119
   2865000  -1299.058       231.29342     -1530.3515      304.29078     -1152.9325      3840.7412      0.99696119
   2866000  -1325.9778      213.89718     -1539.8749      281.4042      -1472.5859      3840.7412      0.99696119
   2867000  -1306.8578      228.85926     -1535.7171      301.08839      1491.5941      3840.7412      0.99696119
   2868000  -1293.2374      231.99441     -1525.2318      305.21301     -819.6421       3840.7412      0.99696119
   2869000  -1310.3448      215.03468     -1525.3795      282.9007       507.54023      3840.7412      0.99696119
   2870000  -1318.7278      218.89863     -1537.6265      287.98414     -575.27809      3840.7412      0.99696119
   2871000  -1296.5023      243.1798      -1539.6821      319.92856     -1070.0232      3840.7412      0.99696119
   2872000  -1290.0321      231.98736     -1522.0195      305.20373     -773.26353      3840.7412      0.99696119
   2873000  -1297.5136      245.45285     -1542.9664      322.919       -87.207564      3840.7412      0.99696119
   2874000  -1305.2551      225.47828     -1530.7334      296.64036     -1497.3991      3840.7412      0.99696119
   2875000  -1316.9613      219.05709     -1536.0184      288.1926       110.7875       3840.7412      0.99696119
   2876000  -1334.3625      216.848       -1551.2105      285.28631      103.51477      3840.7412      0.99696119
   2877000  -1352.4703      212.34677     -1564.8171      279.36448     -1835.3371      3840.7412      0.99696119
   2878000  -1281.2317      243.44703     -1524.6787      320.28013      881.40986      3840.7412      0.99696119
   2879000  -1332.0496      219.33219     -1551.3818      288.55452     -595.33931      3840.7412      0.99696119
   2880000  -1337.6212      225.69347     -1563.3147      296.92346     -289.12034      3840.7412      0.99696119
   2881000  -1314.8423      227.28992     -1542.1322      299.02376     -1726.6707      3840.7412      0.99696119
   2882000  -1323.048       213.04173     -1536.0897      280.27876      1874.2139      3840.7412      0.99696119
   2883000  -1315.4751      214.34436     -1529.8194      281.99251     -1046.5845      3840.7412      0.99696119
   2884000  -1297.0474      234.84913     -1531.8965      308.96869     -2035.4065      3840.7412      0.99696119
   2885000  -1311.5291      222.79855     -1534.3276      293.11489     -615.38872      3840.7412      0.99696119
   2886000  -1322.2759      214.39949     -1536.6754      282.06505     -2943.2192      3840.7412      0.99696119
   2887000  -1296.5405      224.6416      -1521.1821      295.53961      649.52824      3840.7412      0.99696119
   2888000  -1292.8177      240.86838     -1533.6861      316.88765      522.45496      3840.7412      0.99696119
   2889000  -1328.857       201.39601     -1530.253       264.9576      -334.53644      3840.7412      0.99696119
   2890000  -1306           242.72815     -1548.7281      319.33437      81.675208      3840.7412      0.99696119
   2891000  -1291.2769      229.93971     -1521.2166      302.50983      2223.4797      3840.7412      0.99696119
   2892000  -1298.0116      234.23026     -1532.2419      308.15451     -230.15748      3840.7412      0.99696119
   2893000  -1305.9537      219.87086     -1525.8246      289.2632      -2397.8785      3840.7412      0.99696119
   2894000  -1321.7697      234.13385     -1555.9036      308.02767     -3242.7359      3840.7412      0.99696119
   2895000  -1278.0079      226.25204     -1504.26        297.65832      472.89507      3840.7412      0.99696119
   2896000  -1298.524       235.39756     -1533.9216      309.69021      190.6772       3840.7412      0.99696119
   2897000  -1311.9712      215.71702     -1527.6882      283.79839     -2412.9582      3840.7412      0.99696119
   2898000  -1277.4036      237.05087     -1514.4544      311.86531      872.48076      3840.7412      0.99696119
   2899000  -1316.5768      213.8474      -1530.4242      281.33871     -461.16574      3840.7412      0.99696119
   2900000  -1285.7877      220.17962     -1505.9673      289.66942      917.20402      3840.7412      0.99696119
   2901000  -1302.0005      216.33902     -1518.3395      284.6167       1942.9449      3840.7412      0.99696119
   2902000  -1306.6611      207.94773     -1514.6088      273.57707     -789.47916      3840.7412      0.99696119
   2903000  -1296.0077      223.38986     -1519.3975      293.89281     -1287.1392      3840.7412      0.99696119
   2904000  -1327.509       215.34629     -1542.8553      283.31066     -497.04286      3840.7412      0.99696119
   2905000  -1280.2567      231.43653     -1511.6933      304.47905      69.882285      3840.7412      0.99696119
   2906000  -1299.889       233.39943     -1533.2884      307.06146      707.3649       3840.7412      0.99696119
   2907000  -1283.7575      230.7116      -1514.4691      303.52534      1443.7497      3840.7412      0.99696119
   2908000  -1282.0923      239.67499     -1521.7673      315.31762     -857.99319      3840.7412      0.99696119
   2909000  -1326.6305      223.59015     -1550.2206      294.15632      777.78306      3840.7412      0.99696119
   2910000  -1291.2307      218.17337     -1509.404       287.02997     -1812.473       3840.7412      0.99696119
   2911000  -1318.8036      226.54811     -1545.3517      298.04783     -1128.4962      3840.7412      0.99696119
   2912000  -1287.6433      225.50111     -1513.1444      296.67039      565.81016      3840.7412      0.99696119
   2913000  -1337.0602      231.10008     -1568.1603      304.03642     -135.82591      3840.7412      0.99696119
   2914000  -1305.2873      219.4762      -1524.7635      288.74398     -1699.934       3840.7412      0.99696119
   2915000  -1326.2543      225.05315     -1551.3074      296.08105      300.92725      3840.7412      0.99696119
   2916000  -1320.3951      223.17073     -1543.5658      293.60454      1196.0769      3840.7412      0.99696119
   2917000  -1274.822       221.63035     -1496.4523      291.578       -1430.935       3840.7412      0.99696119
   2918000  -1301.991       232.4306      -1534.4216      305.78686     -1651.6201      3840.7412      0.99696119
   2919000  -1291.5025      233.74602     -1525.2485      307.51743     -372.45695      3840.7412      0.99696119
   2920000  -1306.6902      208.52384     -1515.214       274.335       -1976.2202      3840.7412      0.99696119
   2921000  -1289.1181      243.28883     -1532.4069      320.07201      1049.6527      3840.7412      0.99696119
   2922000  -1324.3437      220.9882      -1545.3319      290.73318      2260.5775      3840.7412      0.99696119
   2923000  -1317.1185      231.83392     -1548.9524      305.00187     -1940.9937      3840.7412      0.99696119
   2924000  -1290.5003      232.56996     -1523.0703      305.9702       730.94078      3840.7412      0.99696119
   2925000  -1317.2964      206.02503     -1523.3214      271.04756     -1541.7328      3840.7412      0.99696119
   2926000  -1334.7086      210.74443     -1545.453       277.25642     -2119.2072      3840.7412      0.99696119
   2927000  -1313.6892      227.16305     -1540.8523      298.85684      879.52465      3840.7412      0.99696119
   2928000  -1220.295       255.40122     -1475.6962      336.00712     -316.18028      3840.7412      0.99696119
   2929000  -1281.9764      245.19918     -1527.1756      322.58527     -1064.1557      3840.7412      0.99696119
   2930000  -1307.358       224.81193     -1532.1699      295.7637       644.78264      3840.7412      0.99696119
   2931000  -1302.84        225.83392     -1528.6739      297.10823     -1533.5612      3840.7412      0.99696119
   2932000  -1301.3348      242.11207     -1543.4469      318.52385     -391.43478      3840.7412      0.99696119
   2933000  -1291.9127      220.5331      -1512.4458      290.13446      57.361464      3840.7412      0.99696119
   2934000  -1291.8036      219.03301     -1510.8366      288.16093      433.83851      3840.7412      0.99696119
   2935000  -1306.3105      212.03696     -1518.3474      278.95689      497.36128      3840.7412      0.99696119
   2936000  -1335.0251      199.2747      -1534.2998      262.16679     -866.29051      3840.7412      0.99696119
   2937000  -1317.8867      235.72844     -1553.6151      310.12552      218.33159      3840.7412      0.99696119
   2938000  -1332.2472      213.89963     -1546.1468      281.40742      1284.3363      3840.7412      0.99696119
   2939000  -1311.4659      234.09509     -1545.561       307.97667      1096.699       3840.7412      0.99696119
   2940000  -1280.9963      227.2794      -1508.2757      299.00992     -1753.6664      3840.7412      0.99696119
   2941000  -1292.5182      212.64138     -1505.1595      279.75207      351.12856      3840.7412      0.99696119
   2942000  -1284.3576      222.78186     -1507.1395      293.09293      1280.3508      3840.7412      0.99696119
   2943000  -1290.5273      230.52693     -1521.0542      303.28239      207.2121       3840.7412      0.99696119
   2944000  -1303.2058      225.14562     -1528.3514      296.20271     -863.28457      3840.7412      0.99696119
   2945000  -1255.6738      229.74053     -1485.4143      302.24779     -1033.266       3840.7412      0.99696119
   2946000  -1292.5212      232.3476      -1524.8688      305.67766     -343.52375      3840.7412      0.99696119
   2947000  -1305.5844      209.59563     -1515.18        275.74506     -598.29524      3840.7412      0.99696119
   2948000  -1307.035       218.52967     -1525.5647      287.49872     -483.24112      3840.7412      0.99696119
   2949000  -1333.5485      212.14178     -1545.6903      279.09479     -2091.3565      3840.7412      0.99696119
   2950000  -1291.6973      237.05013     -1528.7474      311.86434      105.29931      3840.7412      0.99696119
   2951000  -1318.6759      216.97879     -1535.6547      285.45839     -2007.9578      3840.7412      0.99696119
   2952000  -1281.7893      228.11356     -1509.9028      300.10734     -1260.8273      3840.7412      0.99696119
   2953000  -1316.6601      232.01584     -1548.6759      305.24119      1641.8667      3840.7412      0.99696119
   2954000  -1331.9017      222.73812     -1554.6398      293.03539     -801.78458      3840.7412      0.99696119
   2955000  -1332.3394      208.7314      -1541.0708      274.60808     -1200.2873      3840.7412      0.99696119
   2956000  -1286.5264      223.4227      -1509.9491      293.93602     -1533.8904      3840.7412      0.99696119
   2957000  -1330.6669      212.5809      -1543.2478      279.6725      -1161.1451      3840.7412      0.99696119
   2958000  -1307.4458      226.4259      -1533.8717      297.88705      252.47514      3840.7412      0.99696119
   2959000  -1305.2122      232.49221     -1537.7044      305.86791     -270.02473      3840.7412      0.99696119
   2960000  -1263.2754      250.5414      -1513.8168      329.61352      577.53741      3840.7412      0.99696119
   2961000  -1288.4451      244.13643     -1532.5816      321.1871      -1756.3988      3840.7412      0.99696119
   2962000  -1282.2262      230.24323     -1512.4694      302.90914      864.21033      3840.7412      0.99696119
   2963000  -1305.1949      222.1498      -1527.3447      292.26139      75.632462      3840.7412      0.99696119
   2964000  -1273.0808      230.58765     -1503.6684      303.36227     -1932.9747      3840.7412      0.99696119
   2965000  -1339.5029      220.04433     -1559.5472      289.49143      967.49445      3840.7412      0.99696119
   2966000  -1333.3798      219.71815     -1553.098       289.0623       145.01035      3840.7412      0.99696119
   2967000  -1326.0126      212.23117     -1538.2438      279.2124      -1722.5439      3840.7412      0.99696119
   2968000  -1263.9795      228.55844     -1492.538       300.69263     -2379.6958      3840.7412      0.99696119
   2969000  -1272.9851      237.061       -1510.0461      311.87864      1399.0247      3840.7412      0.99696119
   2970000  -1303.4297      215.6209      -1519.0506      283.67194     -686.0545       3840.7412      0.99696119
   2971000  -1289.3579      255.851       -1545.2089      336.59886     -228.85266      3840.7412      0.99696119
   2972000  -1308.3297      229.61905     -1537.9487      302.08797     -647.78281      3840.7412      0.99696119
   2973000  -1319.4789      222.77499     -1542.2539      293.08389      679.88939      3840.7412      0.99696119
   2974000  -1270.6805      252.00425     -1522.6848      331.53806      1234.8465      3840.7412      0.99696119
   2975000  -1298.6063      243.13125     -1541.7376      319.8647       925.14537      3840.7412      0.99696119
   2976000  -1276.7632      239.01246     -1515.7757      314.44599     -1113.9316      3840.7412      0.99696119
   2977000  -1301.6977      223.15547     -1524.8532      293.58446      105.85921      3840.7412      0.99696119
   2978000  -1305.8619      229.64723     -1535.5091      302.12505      342.05037      3840.7412      0.99696119
   2979000  -1329.3844      213.2879      -1542.6723      280.60263     -769.01853      3840.7412      0.99696119
   2980000  -1295.8299      218.75402     -1514.5839      287.79388      1398.3477      3840.7412      0.99696119
   2981000  -1323.1321      208.06977     -1531.2018      273.73763     -1477.3107      3840.7412      0.99696119
   2982000  -1280.3649      224.70956     -1505.0744      295.62903     -95.461781      3840.7412      0.99696119
   2983000  -1297.076       226.04976     -1523.1258      297.39219      729.50937      3840.7412      0.99696119
   2984000  -1280.5212      224.41635     -1504.9376      295.24328     -241.30359      3840.7412      0.99696119
   2985000  -1306.7502      224.34916     -1531.0993      295.15488     -657.94785      3840.7412      0.99696119
   2986000  -1283.5362      240.27513     -1523.8113      316.10717     -922.57181      3840.7412      0.99696119
   2987000  -1306.865       208.40976     -1515.2748      274.18493      1087.3041      3840.7412      0.99696119
   2988000  -1276.2387      229.16258     -1505.4013      301.48744     -887.86831      3840.7412      0.99696119
   2989000  -1262.8451      234.12082     -1496.9659      308.01052     -583.15198      3840.7412      0.99696119
   2990000  -1300.5322      244.96173     -1545.4939      322.27287     -837.97393      3840.7412      0.99696119
   2991000  -1285.2473      242.09134     -1527.3387      318.49658     -944.04819      3840.7412      0.99696119
   2992000  -1309.9323      217.14767     -1527.08        285.68057     -145.49038      3840.7412      0.99696119
   2993000  -1277.6474      238.49308     -1516.1405      313.76269     -169.5868       3840.7412      0.99696119
   2994000  -1325.0221      207.63321     -1532.6553      273.16329      760.58539      3840.7412      0.99696119
   2995000  -1296.9986      233.75049     -1530.7491      307.52332     -760.89322      3840.7412      0.99696119
   2996000  -1301.7433      224.45615     -1526.1994      295.29563     -2128.0102      3840.7412      0.99696119
   2997000  -1276.3201      229.74196     -1506.062       302.24967      1233.7423      3840.7412      0.99696119
   2998000  -1299.0976      233.90929     -1533.0069      307.73223     -753.0883       3840.7412      0.99696119
   2999000  -1285.1458      244.58758     -1529.7334      321.78064     -1097.3356      3840.7412      0.99696119
   3000000  -1316.93        229.85        -1546.78        302.39181      1463.5554      3840.7412      0.99696119
Loop time of 2734.3 on 2 procs for 2000000 steps with 384 atoms

Performance: 63.197 ns/day, 0.380 hours/ns, 731.449 timesteps/s
99.6% CPU use with 2 MPI tasks x 1 OpenMP threads

MPI task timing breakdown:
Section |  min time  |  avg time  |  max time  |%varavg| %total
---------------------------------------------------------------
Pair    | 1536.4     | 1743.5     | 1950.6     | 496.0 | 63.76
Bond    | 0.16365    | 0.17044    | 0.17723    |   1.6 |  0.01
Kspace  | 408.07     | 613.53     | 818.98     | 829.5 | 22.44
Neigh   | 107.04     | 107.05     | 107.05     |   0.0 |  3.91
Comm    | 155.73     | 157.13     | 158.53     |  11.2 |  5.75
Output  | 0.54549    | 0.55141    | 0.55733    |   0.8 |  0.02
Modify  | 106.24     | 106.32     | 106.4      |   0.8 |  3.89
Other   |            | 6.056      |            |       |  0.22

Nlocal:            192 ave         195 max         189 min
Histogram: 1 0 0 0 0 0 0 0 0 1
Nghost:         4854.5 ave        4865 max        4844 min
Histogram: 1 0 0 0 0 0 0 0 0 1
Neighs:          69382 ave       69768 max       68996 min
Histogram: 1 0 0 0 0 0 0 0 0 1

Total # of neighbors = 138764
Ave neighs/atom = 361.36458
Ave special neighs/atom = 2
Neighbor list builds = 66598
Dangerous builds = 0

# write data file
write_data data.after_prod.lmp
System init for write_data ...
PPPM initialization ...
  using 12-bit tables for long-range coulomb (src/kspace.cpp:342)
  G vector (1/distance) = 0.31203871
  grid = 15 15 15
  stencil order = 5
  estimated absolute RMS force accuracy = 0.0022228175
  estimated relative force accuracy = 6.6939488e-06
  using double precision FFTW3
  3d grid and FFT values/proc = 6776 1800
Generated 1 of 1 mixed pair_coeff terms from geometric mixing rule

# clean up
undump dPROD
unfix fTHERMO
unfix fMOM
unfix fSHAKE
Total wall time: 1:08:17
