LAMMPS (23 Jun 2022 - Update 4)
  using 1 OpenMP thread(s) per MPI task
# created by fftool

# System settings
units real
boundary p p p  # Periodic boundary conditions

# definition of atoms, bonds, angles
atom_style full
bond_style harmonic
angle_style harmonic

# definition of pair potentials
special_bonds lj/coul 0.0 0.0 0.5
pair_style lj/cut/coul/long 10.0 10.0
pair_modify mix geometric tail yes
kspace_style pppm 1.0e-5

# read data file
read_data data.lmp
Reading data file ...
  orthogonal box = (0 0 0) to (9.865483 9.865483 9.865483)
  1 by 1 by 1 MPI processor grid
  reading atoms ...
  96 atoms
  scanning bonds ...
  1 = max bonds/atom
  scanning angles ...
  1 = max angles/atom
  reading bonds ...
  64 bonds
  reading angles ...
  32 angles
Finding 1-2 1-3 1-4 neighbors ...
  special bond factors lj:    0        0        0.5
  special bond factors coul:  0        0        0.5
     2 = max # of 1-2 neighbors
     1 = max # of 1-3 neighbors
     1 = max # of 1-4 neighbors
     2 = max # of special neighbors
  special bonds CPU = 0.000 seconds
  read_data CPU = 0.004 seconds

# definition of LJ parameters
pair_coeff    1    1     0.000000     0.000000  # Hw Hw
pair_coeff    2    2     0.163049     3.182090  # Ow-Ow

############################################

# remove energy hotspots
minimize 1.0e-4 1.0e-6 100 1000
WARNING: Using 'neigh_modify every 1 delay 0 check yes' setting during minimization (src/min.cpp:187)
PPPM initialization ...
  using 12-bit tables for long-range coulomb (src/kspace.cpp:342)
  G vector (1/distance) = 0.30847861
  grid = 9 9 9
  stencil order = 5
  estimated absolute RMS force accuracy = 0.0027675926
  estimated relative force accuracy = 8.334523e-06
  using double precision FFTW3
  3d grid and FFT values/proc = 4096 729
Generated 1 of 1 mixed pair_coeff terms from geometric mixing rule
Neighbor list info ...
  update every 1 steps, delay 0 steps, check yes
  max neighbors/atom: 2000, page size: 100000
  master list distance cutoff = 12
  ghost atom cutoff = 12
  binsize = 6, bins = 2 2 2
  1 neighbor lists, perpetual/occasional/extra = 1 0 0
  (1) pair lj/cut/coul/long, perpetual
      attributes: half, newton on
      pair build: half/bin/newton
      stencil: half/bin/3d
      bin: standard
Per MPI rank memory allocation (min/avg/max) = 8.317 | 8.317 | 8.317 Mbytes
   Step          Temp          E_pair         E_mol          TotEng         Press
         0   0              638136.64      7.9980495e-09  638136.64      1.8238983e+08
       100   0             -479.29934      35.639196     -443.66014     -3000.3883
Loop time of 0.109115 on 1 procs for 100 steps with 96 atoms

99.6% CPU use with 1 MPI tasks x 1 OpenMP threads

Minimization stats:
  Stopping criterion = max iterations
  Energy initial, next-to-last, final =
      638136.642939087  -443.512347434076  -443.660140992368
  Force two-norm initial, final = 10616948 11.855124
  Force max component initial, final = 6779089.5 2.9831936
  Final line search alpha, max atom move = 0.0086091074 0.025682634
  Iterations, force evaluations = 100 179

MPI task timing breakdown:
Section |  min time  |  avg time  |  max time  |%varavg| %total
---------------------------------------------------------------
Pair    | 0.092408   | 0.092408   | 0.092408   |   0.0 | 84.69
Bond    | 0.00035202 | 0.00035202 | 0.00035202 |   0.0 |  0.32
Kspace  | 0.010929   | 0.010929   | 0.010929   |   0.0 | 10.02
Neigh   | 0.0027949  | 0.0027949  | 0.0027949  |   0.0 |  2.56
Comm    | 0.0020449  | 0.0020449  | 0.0020449  |   0.0 |  1.87
Output  | 1.0605e-05 | 1.0605e-05 | 1.0605e-05 |   0.0 |  0.01
Modify  | 0          | 0          | 0          |   0.0 |  0.00
Other   |            | 0.0005751  |            |       |  0.53

Nlocal:             96 ave          96 max          96 min
Histogram: 1 0 0 0 0 0 0 0 0 0
Nghost:           3664 ave        3664 max        3664 min
Histogram: 1 0 0 0 0 0 0 0 0 0
Neighs:          34674 ave       34674 max       34674 min
Histogram: 1 0 0 0 0 0 0 0 0 0

Total # of neighbors = 34674
Ave neighs/atom = 361.1875
Ave special neighs/atom = 2
Neighbor list builds = 4
Dangerous builds = 0
reset_timestep 0

# constrain water bonds and angles
fix fSHAKE all shake 0.0001 20 0 b 1 a 1
       0 = # of size 2 clusters
       0 = # of size 3 clusters
       0 = # of size 4 clusters
      32 = # of frozen angles
  find clusters CPU = 0.000 seconds

# remove Center of Mass movement every 100 steps
fix fMOM all momentum 100 linear 1 1 1

# define the neighbor list
neighbor 2.0 bin

# IMPORTANT: timestep and temperature and pressure
timestep 1.0
variable vTK equal 298.15
variable vPBAR equal 1.0

# randomize velocities
velocity all create ${vTK} 28810
velocity all create 298.15 28810

# thermostat (solving the ODE)
fix fTHERMO all nvt temp ${vTK} ${vTK} 100
fix fTHERMO all nvt temp 298.15 ${vTK} 100
fix fTHERMO all nvt temp 298.15 298.15 100

# print settings
thermo 1000
thermo_style custom step etotal ke pe temp press vol density
# trajectory output
dump dEQUI all custom 1000 equi.lammpstrj id element xu yu zu
dump_modify dEQUI element H O sort id

# equilibration
# 1 ns
run 1000000
PPPM initialization ...
  using 12-bit tables for long-range coulomb (src/kspace.cpp:342)
  G vector (1/distance) = 0.30847861
  grid = 9 9 9
  stencil order = 5
  estimated absolute RMS force accuracy = 0.0027675926
  estimated relative force accuracy = 8.334523e-06
  using double precision FFTW3
  3d grid and FFT values/proc = 4096 729
Generated 1 of 1 mixed pair_coeff terms from geometric mixing rule
Per MPI rank memory allocation (min/avg/max) = 9.325 | 9.325 | 9.325 Mbytes
   Step         TotEng         KinEng         PotEng          Temp          Press          Volume        Density
         0  -423.30944      55.989897     -479.29934      298.15        -931.68508      960.18531      0.99696118
      1000  -311.86474      52.678152     -364.54289      280.51474      2240.2535      960.18531      0.99696118
      2000  -324.34731      58.29795      -382.64526      310.44054      419.44363      960.18531      0.99696118
      3000  -310.40422      59.795806     -370.20002      318.41673     -4355.4167      960.18531      0.99696118
      4000  -309.87624      55.675244     -365.55148      296.47446     -1516.1066      960.18531      0.99696118
      5000  -313.34278      56.835306     -370.17809      302.65186      106.81784      960.18531      0.99696118
      6000  -311.47023      56.867635     -368.33786      302.82402     -609.77916      960.18531      0.99696118
      7000  -311.22351      62.337555     -373.56107      331.95171     -280.90141      960.18531      0.99696118
      8000  -299.65586      64.456094     -364.11195      343.23307      684.78519      960.18531      0.99696118
      9000  -312.11514      59.61549      -371.73063      317.45653      339.42463      960.18531      0.99696118
     10000  -320.28213      53.887419     -374.16954      286.95416     -2535.9984      960.18531      0.99696118
     11000  -319.32666      56.127065     -375.45373      298.88043     -1841.08        960.18531      0.99696118
     12000  -315.60785      52.998248     -368.6061       282.21927     -249.39835      960.18531      0.99696118
     13000  -303.41081      60.437719     -363.84853      321.83496      242.97648      960.18531      0.99696118
     14000  -326.44327      45.91699      -372.36026      244.51109      999.39094      960.18531      0.99696118
     15000  -317.60616      52.821332     -370.4275       281.27718     -1378.8396      960.18531      0.99696118
     16000  -325.35961      45.364485     -370.7241       241.56896     -73.258728      960.18531      0.99696118
     17000  -319.89125      50.358391     -370.24965      268.16185     -2405.611       960.18531      0.99696118
     18000  -309.56223      54.686899     -364.24913      291.21145     -468.86079      960.18531      0.99696118
     19000  -309.87419      52.097487     -361.97167      277.42265     -2418.732       960.18531      0.99696118
     20000  -291.40383      56.296848     -347.70068      299.78454      438.20386      960.18531      0.99696118
     21000  -327.3085       54.109895     -381.41839      288.13886      1778.0422      960.18531      0.99696118
     22000  -323.86485      50.869804     -374.73466      270.88516     -220.19426      960.18531      0.99696118
     23000  -327.82422      54.070557     -381.89478      287.92939      262.53068      960.18531      0.99696118
     24000  -319.99874      51.624198     -371.62293      274.90236      3089.2168      960.18531      0.99696118
     25000  -345.1644       48.051692     -393.2161       255.87852      1947.7354      960.18531      0.99696118
     26000  -319.99083      55.733456     -375.72428      296.78444     -3679.9743      960.18531      0.99696118
     27000  -305.89748      56.460191     -362.35767      300.65435     -665.38339      960.18531      0.99696118
     28000  -299.94746      62.766151     -362.71361      334.23401     -1103.7191      960.18531      0.99696118
     29000  -310.91868      57.339273     -368.25796      305.33552      4212.5679      960.18531      0.99696118
     30000  -309.51616      60.599714     -370.11587      322.69759      1426.5687      960.18531      0.99696118
     31000  -308.05147      70.878509     -378.92998      377.43287      2925.6595      960.18531      0.99696118
     32000  -323.01945      64.180154     -387.1996       341.76368     -2558.6696      960.18531      0.99696118
     33000  -325.47173      53.947672     -379.4194       287.27501      930.20833      960.18531      0.99696118
     34000  -314.92775      51.555681     -366.48343      274.5375       2461.958       960.18531      0.99696118
     35000  -318.32487      52.82115      -371.14602      281.27621      1177.245       960.18531      0.99696118
     36000  -329.33043      50.657944     -379.98837      269.75699      379.4431       960.18531      0.99696118
     37000  -317.49535      62.695301     -380.19065      333.85673     -449.77575      960.18531      0.99696118
     38000  -303.70574      59.253457     -362.9592       315.52868     -290.94867      960.18531      0.99696118
     39000  -308.10154      54.385447     -362.48699      289.6062      -45.169167      960.18531      0.99696118
     40000  -308.97813      50.421439     -359.39957      268.49758     -1524.1759      960.18531      0.99696118
     41000  -317.381        58.001234     -375.38224      308.86051      458.95798      960.18531      0.99696118
     42000  -321.79263      49.585386     -371.37801      264.04554     -1232.2614      960.18531      0.99696118
     43000  -312.23248      53.567762     -365.80024      285.25197     -1406.8997      960.18531      0.99696118
     44000  -327.6227       47.341927     -374.96463      252.09897     -1887.0923      960.18531      0.99696118
     45000  -311.0323       60.822977     -371.85528      323.88648     -2278.4962      960.18531      0.99696118
     46000  -311.80165      53.066037     -364.86768      282.58025     -1562.0851      960.18531      0.99696118
     47000  -330.76603      50.143377     -380.90941      267.01689     -499.05454      960.18531      0.99696118
     48000  -319.45552      46.797588     -366.25311      249.20033      1790.0753      960.18531      0.99696118
     49000  -317.05481      55.096117     -372.15093      293.39056      812.6006       960.18531      0.99696118
     50000  -320.75518      49.432495     -370.18767      263.23139     -1645.0052      960.18531      0.99696118
     51000  -314.24623      55.276868     -369.5231       294.35307     -939.29025      960.18531      0.99696118
     52000  -305.70992      55.959739     -361.66966      297.98941     -1387.7979      960.18531      0.99696118
     53000  -282.02187      80.435068     -362.45694      428.3222       625.6322       960.18531      0.99696118
     54000  -313.77458      53.212614     -366.9872       283.36078     -3461.3613      960.18531      0.99696118
     55000  -304.8186       67.402576     -372.22118      358.92329     -1671.0904      960.18531      0.99696118
     56000  -332.5135       54.613781     -387.12728      290.82209     -237.60013      960.18531      0.99696118
     57000  -325.04147      51.930349     -376.97182      276.53263     -3321.1444      960.18531      0.99696118
     58000  -309.35675      55.680051     -365.0368       296.50005      658.06733      960.18531      0.99696118
     59000  -290.50353      62.505853     -353.00938      332.84791     -1735.5413      960.18531      0.99696118
     60000  -313.73992      50.492379     -364.2323       268.87535      1921.4963      960.18531      0.99696118
     61000  -339.66806      44.90258      -384.57064      239.10929     -2253.1932      960.18531      0.99696118
     62000  -310.60016      54.789626     -365.38978      291.75848      1185.6437      960.18531      0.99696118
     63000  -305.04644      68.060853     -373.10729      362.42866      95.919114      960.18531      0.99696118
     64000  -329.48253      44.97296      -374.45549      239.48407     -1918.5068      960.18531      0.99696118
     65000  -305.98797      57.241846     -363.22982      304.81672     -902.83087      960.18531      0.99696118
     66000  -306.71166      51.591733     -358.30339      274.72948      225.18125      960.18531      0.99696118
     67000  -309.94909      71.44637      -381.39546      380.45677     -980.36781      960.18531      0.99696118
     68000  -301.4167       62.084137     -363.50084      330.60224     -772.47561      960.18531      0.99696118
     69000  -328.40751      51.102698     -379.5102       272.12534      4299.571       960.18531      0.99696118
     70000  -327.16085      50.623157     -377.78401      269.57175      3677.1233      960.18531      0.99696118
     71000  -308.17487      61.067075     -369.24195      325.18632      1194.7062      960.18531      0.99696118
     72000  -321.19884      57.52742      -378.72626      306.33742      2022.6778      960.18531      0.99696118
     73000  -329.48824      51.713109     -381.20135      275.37582      942.56847      960.18531      0.99696118
     74000  -307.84786      58.817499     -366.66536      313.20717     -3444.6422      960.18531      0.99696118
     75000  -312.19272      54.76528      -366.958        291.62883     -1549.3262      960.18531      0.99696118
     76000  -323.31779      65.806027     -389.12381      350.42156     -910.06412      960.18531      0.99696118
     77000  -328.80771      53.203727     -382.01144      283.31346      143.29607      960.18531      0.99696118
     78000  -318.68915      52.231178     -370.92033      278.13457      767.01933      960.18531      0.99696118
     79000  -307.83142      59.098274     -366.92969      314.70232      3783.2722      960.18531      0.99696118
     80000  -319.20235      57.83192      -377.03427      307.9589      -610.34691      960.18531      0.99696118
     81000  -299.11325      59.787626     -358.90088      318.37317      1613.4813      960.18531      0.99696118
     82000  -315.54006      58.220493     -373.76056      310.02808     -2080.4731      960.18531      0.99696118
     83000  -312.23671      57.250505     -369.48721      304.86283      1027.2139      960.18531      0.99696118
     84000  -326.93807      49.627493     -376.56557      264.26977      1955.2017      960.18531      0.99696118
     85000  -311.71583      59.757321     -371.47315      318.21179     -2527.2873      960.18531      0.99696118
     86000  -304.59675      59.691282     -364.28803      317.86013      2049.5192      960.18531      0.99696118
     87000  -309.20509      54.03694      -363.24203      287.75038      3805.3938      960.18531      0.99696118
     88000  -319.02728      54.572672     -373.59995      290.60318     -337.73405      960.18531      0.99696118
     89000  -308.90471      60.543533     -369.44824      322.39843      583.42439      960.18531      0.99696118
     90000  -318.07271      57.415629     -375.48834      305.74212     -1974.8451      960.18531      0.99696118
     91000  -327.75648      51.596489     -379.35297      274.75481      3242.7496      960.18531      0.99696118
     92000  -327.82994      59.135266     -386.96521      314.89931     -671.8765       960.18531      0.99696118
     93000  -312.64997      55.645333     -368.29531      296.31517     -1209.4976      960.18531      0.99696118
     94000  -319.36096      54.886594     -374.24756      292.27484     -1503.9885      960.18531      0.99696118
     95000  -319.33541      61.968828     -381.30424      329.98821      1197.4997      960.18531      0.99696118
     96000  -314.44643      47.868371     -362.31481      254.90233      2239.865       960.18531      0.99696118
     97000  -304.58992      66.399455     -370.98937      353.5816       3683.0542      960.18531      0.99696118
     98000  -322.38918      51.695405     -374.08458      275.28154     -4085.4587      960.18531      0.99696118
     99000  -286.3835       59.902827     -346.28633      318.98662      485.73995      960.18531      0.99696118
    100000  -319.74775      61.070797     -380.81855      325.20614     -783.00815      960.18531      0.99696118
    101000  -297.41034      55.698311     -353.10865      296.59729      1947.2775      960.18531      0.99696118
    102000  -321.12841      50.281262     -371.40967      267.75113     -1666.4149      960.18531      0.99696118
    103000  -312.40516      53.785512     -366.19067      286.4115      -2142.3709      960.18531      0.99696118
    104000  -312.00056      59.641488     -371.64204      317.59497     -409.61491      960.18531      0.99696118
    105000  -332.44568      51.740019     -384.1857       275.51912     -515.74362      960.18531      0.99696118
    106000  -333.22102      45.769215     -378.99024      243.72418      1595.604       960.18531      0.99696118
    107000  -323.13196      58.975058     -382.10701      314.04619      2890.7489      960.18531      0.99696118
    108000  -343.62683      46.933035     -390.55986      249.9216      -94.175235      960.18531      0.99696118
    109000  -326.43902      44.89942      -371.33844      239.09246      1060.6813      960.18531      0.99696118
    110000  -309.44786      50.972299     -360.42016      271.43095     -1875.8238      960.18531      0.99696118
    111000  -326.63823      47.295616     -373.93385      251.85236      2092.7978      960.18531      0.99696118
    112000  -304.69001      63.771569     -368.46158      339.58793      327.0879       960.18531      0.99696118
    113000  -310.03804      61.900971     -371.93901      329.62687      2490.675       960.18531      0.99696118
    114000  -319.25146      54.658648     -373.91011      291.06101      6119.2161      960.18531      0.99696118
    115000  -325.63548      52.638598     -378.27407      280.30411     -4325.8892      960.18531      0.99696118
    116000  -315.07027      51.674361     -366.74463      275.16948      1431.9326      960.18531      0.99696118
    117000  -318.4719       51.521176     -369.99307      274.35376      3783.25        960.18531      0.99696118
    118000  -309.5938       58.547706     -368.1415       311.77051      479.8885       960.18531      0.99696118
    119000  -317.77103      57.002475     -374.7735       303.54205      2253.9883      960.18531      0.99696118
    120000  -323.31578      47.839534     -371.15532      254.74877      2540.8384      960.18531      0.99696118
    121000  -310.8508       51.436326     -362.28712      273.90193     -2769.2584      960.18531      0.99696118
    122000  -307.92652      61.71959      -369.64611      328.66101     -4266.9328      960.18531      0.99696118
    123000  -312.21871      55.059365     -367.27808      293.19486     -5.3811348      960.18531      0.99696118
    124000  -323.412        58.516567     -381.92857      311.60469     -588.98126      960.18531      0.99696118
    125000  -300.7035       61.803944     -362.50744      329.1102      -2439.3369      960.18531      0.99696118
    126000  -321.63951      45.818225     -367.45774      243.98516     -1545.8322      960.18531      0.99696118
    127000  -291.13846      61.493262     -352.63172      327.4558      -1578.7131      960.18531      0.99696118
    128000  -308.75172      54.992736     -363.74446      292.84005     -2163.0993      960.18531      0.99696118
    129000  -303.01816      52.172836     -355.191        277.8239       1037.0818      960.18531      0.99696118
    130000  -314.98061      54.107272     -369.08788      288.1249       735.82478      960.18531      0.99696118
    131000  -307.37082      56.451288     -363.82211      300.60694     -1210.0159      960.18531      0.99696118
    132000  -315.88182      51.248525     -367.13035      272.90187      2391.067       960.18531      0.99696118
    133000  -308.73436      64.384813     -373.11917      342.8535      -983.3733       960.18531      0.99696118
    134000  -327.92133      47.845843     -375.76717      254.78236     -585.46402      960.18531      0.99696118
    135000  -304.40975      55.712748     -360.1225       296.67417      870.60859      960.18531      0.99696118
    136000  -312.05733      55.562175     -367.6195       295.87236     -382.86633      960.18531      0.99696118
    137000  -303.34632      59.47107      -362.81739      316.68748      594.29552      960.18531      0.99696118
    138000  -316.21698      55.106802     -371.32378      293.44746      456.63409      960.18531      0.99696118
    139000  -287.41918      68.577612     -355.99679      365.18044      1260.4283      960.18531      0.99696118
    140000  -316.6643       62.286565     -378.95087      331.68019      3783.2955      960.18531      0.99696118
    141000  -324.34905      53.238462     -377.58751      283.49843      3254.7733      960.18531      0.99696118
    142000  -313.47006      59.611467     -373.08152      317.43511      2140.3025      960.18531      0.99696118
    143000  -337.14762      50.699795     -387.84741      269.97985     -3258.7464      960.18531      0.99696118
    144000  -317.64252      59.958399     -377.60092      319.28254     -671.59193      960.18531      0.99696118
    145000  -321.37344      60.095848     -381.46929      320.01447      1643.4947      960.18531      0.99696118
    146000  -327.23692      56.182253     -383.41917      299.17431     -599.78562      960.18531      0.99696118
    147000  -311.12419      53.755307     -364.87949      286.25066     -781.96325      960.18531      0.99696118
    148000  -331.15203      55.186121     -386.33816      293.86984      1244.242       960.18531      0.99696118
    149000  -312.14236      54.074868     -366.21723      287.95235      101.85686      960.18531      0.99696118
    150000  -301.50213      58.89759      -360.39972      313.63367     -509.79875      960.18531      0.99696118
    151000  -319.23488      53.731783     -372.96666      286.12539     -792.09635      960.18531      0.99696118
    152000  -313.5305       57.661507     -371.192        307.05144     -1772.365       960.18531      0.99696118
    153000  -303.32525      66.259365     -369.58462      352.83562      528.10477      960.18531      0.99696118
    154000  -301.90341      55.962467     -357.86588      298.00394     -1313.7265      960.18531      0.99696118
    155000  -328.63358      48.457397     -377.09097      258.03893      293.70643      960.18531      0.99696118
    156000  -306.73696      53.235597     -359.97255      283.48317      167.62159      960.18531      0.99696118
    157000  -322.19132      58.256091     -380.44741      310.21764      3261.3315      960.18531      0.99696118
    158000  -309.79315      66.343288     -376.13644      353.28251     -1740.2301      960.18531      0.99696118
    159000  -312.81919      50.079067     -362.89825      266.67443      2492.5304      960.18531      0.99696118
    160000  -317.56497      45.428993     -362.99397      241.91247      16.332909      960.18531      0.99696118
    161000  -314.0568       55.663871     -369.72067      296.41389     -210.855        960.18531      0.99696118
    162000  -343.07861      51.697179     -394.77579      275.29099      287.18149      960.18531      0.99696118
    163000  -324.38815      46.385142     -370.77329      247.00403      64.601144      960.18531      0.99696118
    164000  -323.91255      49.820955     -373.73351      265.29997      912.41913      960.18531      0.99696118
    165000  -306.06762      62.949056     -369.01668      335.208        2689.9356      960.18531      0.99696118
    166000  -315.37293      49.985862     -365.35879      266.17811      3412.5816      960.18531      0.99696118
    167000  -319.18534      51.184744     -370.37008      272.56224      3832.6288      960.18531      0.99696118
    168000  -321.6549       54.017938     -375.67283      287.64919     -1173.1657      960.18531      0.99696118
    169000  -315.28883      62.837059     -378.12589      334.6116      -2162.9755      960.18531      0.99696118
    170000  -313.00963      61.341907     -374.35154      326.64982     -1115.7242      960.18531      0.99696118
    171000  -324.8755       44.682887     -369.55839      237.9394       268.10741      960.18531      0.99696118
    172000  -304.99481      62.519977     -367.51478      332.92312      314.05407      960.18531      0.99696118
    173000  -326.21942      54.014989     -380.2344       287.63348     -558.2672       960.18531      0.99696118
    174000  -295.93685      62.257472     -358.19432      331.52526     -678.25626      960.18531      0.99696118
    175000  -315.24694      53.421592     -368.66853      284.4736       1781.0763      960.18531      0.99696118
    176000  -329.65207      52.527227     -382.1793       279.71105     -2648.6336      960.18531      0.99696118
    177000  -312.03642      58.763233     -370.79965      312.9182      -5831.7701      960.18531      0.99696118
    178000  -311.08382      55.486435     -366.57026      295.46903      2135.6693      960.18531      0.99696118
    179000  -331.01051      55.689533     -386.70004      296.55054      129.34753      960.18531      0.99696118
    180000  -313.23581      56.809149     -370.04496      302.51258      3086.9795      960.18531      0.99696118
    181000  -299.21491      52.034566     -351.24948      277.0876      -3929.4593      960.18531      0.99696118
    182000  -323.33817      55.704315     -379.04249      296.62926      4672.0254      960.18531      0.99696118
    183000  -326.62024      55.576639     -382.19688      295.94938      167.34755      960.18531      0.99696118
    184000  -317.9444       54.05431      -371.99871      287.84287     -190.724        960.18531      0.99696118
    185000  -320.50363      57.703648     -378.20728      307.27584     -536.01751      960.18531      0.99696118
    186000  -309.07485      50.450198     -359.52505      268.65073      135.3056       960.18531      0.99696118
    187000  -316.92333      62.339046     -379.26237      331.95965      802.94711      960.18531      0.99696118
    188000  -304.33971      49.534523     -353.87424      263.7747       2474.9947      960.18531      0.99696118
    189000  -336.74981      59.222455     -395.97227      315.36359      326.0841       960.18531      0.99696118
    190000  -309.84307      57.156287     -366.99936      304.36111      1547.1095      960.18531      0.99696118
    191000  -322.14034      57.251822     -379.39216      304.86984     -1369.5832      960.18531      0.99696118
    192000  -323.26176      52.81975      -376.08151      281.26876     -442.29777      960.18531      0.99696118
    193000  -304.25831      58.025393     -362.28371      308.98916     -665.27402      960.18531      0.99696118
    194000  -324.51017      63.55775      -388.06792      338.44933      1021.1309      960.18531      0.99696118
    195000  -303.43758      60.646098     -364.08367      322.94459      1112.3578      960.18531      0.99696118
    196000  -320.27864      57.265939     -377.54457      304.94501      3172.1704      960.18531      0.99696118
    197000  -329.19145      59.265471     -388.45692      315.59266     -4113.6308      960.18531      0.99696118
    198000  -307.25597      61.054981     -368.31095      325.12192     -1393.6432      960.18531      0.99696118
    199000  -305.38725      54.694831     -360.08208      291.25369      1285.9266      960.18531      0.99696118
    200000  -325.03025      57.009363     -382.03961      303.57873     -1422.1254      960.18531      0.99696118
    201000  -327.18038      52.534912     -379.71529      279.75197     -2106.8315      960.18531      0.99696118
    202000  -312.76436      48.78007      -361.54443      259.75718      1984.6513      960.18531      0.99696118
    203000  -317.43881      55.501046     -372.93986      295.54684     -1081.2308      960.18531      0.99696118
    204000  -302.41709      60.035229     -362.45232      319.69167      2946.9525      960.18531      0.99696118
    205000  -320.23752      60.590588     -380.82811      322.64899      2174.4789      960.18531      0.99696118
    206000  -320.91547      49.396316     -370.31179      263.03873      2973.6379      960.18531      0.99696118
    207000  -300.5619       66.448235     -367.01013      353.84136      524.25744      960.18531      0.99696118
    208000  -309.07024      56.696882     -365.76712      301.91475     -2429.2964      960.18531      0.99696118
    209000  -302.5592       58.580546     -361.13975      311.94538      2738.4231      960.18531      0.99696118
    210000  -296.94382      64.465391     -361.40922      343.28258     -1024.0735      960.18531      0.99696118
    211000  -323.60892      55.058065     -378.66698      293.18794      1033.8985      960.18531      0.99696118
    212000  -310.9132       61.319908     -372.23311      326.53268      1327.9085      960.18531      0.99696118
    213000  -327.5167       52.511397     -380.0281       279.62675      667.46682      960.18531      0.99696118
    214000  -314.1474       50.199488     -364.34689      267.31568      361.13642      960.18531      0.99696118
    215000  -311.05126      57.638887     -368.69015      306.93099     -1031.8942      960.18531      0.99696118
    216000  -334.74954      49.84709      -384.59663      265.43914     -3788.1297      960.18531      0.99696118
    217000  -315.92639      63.892074     -379.81847      340.22963      1714.4847      960.18531      0.99696118
    218000  -327.80714      52.491444     -380.29858      279.52051      469.3786       960.18531      0.99696118
    219000  -321.31703      56.266198     -377.58323      299.62132     -839.32719      960.18531      0.99696118
    220000  -316.59054      57.710945     -374.30148      307.3147       242.82547      960.18531      0.99696118
    221000  -321.07818      62.436766     -383.51495      332.48002     -565.59102      960.18531      0.99696118
    222000  -316.52483      58.673733     -375.19856      312.44161      2399.3727      960.18531      0.99696118
    223000  -296.87164      73.721967     -370.59361      392.57448      1096.1305      960.18531      0.99696118
    224000  -306.61398      54.808171     -361.42215      291.85723     -520.86722      960.18531      0.99696118
    225000  -295.99066      64.828185     -360.81884      345.21449     -2426.3516      960.18531      0.99696118
    226000  -285.29863      59.261608     -344.56023      315.57209     -1421.6142      960.18531      0.99696118
    227000  -328.99327      54.018279     -383.01154      287.651       -995.90465      960.18531      0.99696118
    228000  -305.23334      61.656109     -366.88945      328.32296      991.97839      960.18531      0.99696118
    229000  -319.30927      52.215402     -371.52467      278.05056     -1628.2851      960.18531      0.99696118
    230000  -302.19449      57.678427     -359.87292      307.14154     -3076.5274      960.18531      0.99696118
    231000  -306.01809      62.235845     -368.25393      331.4101      -85.49579       960.18531      0.99696118
    232000  -309.17418      50.125045     -359.29923      266.91927      1090.3708      960.18531      0.99696118
    233000  -313.20946      52.870816     -366.08028      281.54068     -675.832        960.18531      0.99696118
    234000  -330.64078      51.321733     -381.96252      273.29171      1536.2049      960.18531      0.99696118
    235000  -309.19384      52.932482     -362.12632      281.86906     -377.63366      960.18531      0.99696118
    236000  -305.45135      51.713458     -357.1648       275.37768      999.12355      960.18531      0.99696118
    237000  -304.15722      56.387977     -360.5452       300.2698      -1157.7528      960.18531      0.99696118
    238000  -320.10525      56.553381     -376.65863      301.15059      2062.4363      960.18531      0.99696118
    239000  -290.23284      67.64959      -357.88243      360.23866      1923.1693      960.18531      0.99696118
    240000  -323.9064       53.035387     -376.94178      282.41704     -253.91472      960.18531      0.99696118
    241000  -311.10311      56.861416     -367.96453      302.7909       2246.1391      960.18531      0.99696118
    242000  -302.94069      63.555974     -366.49666      338.43987      2849.4053      960.18531      0.99696118
    243000  -299.35046      53.392708     -352.74316      284.31979      2147.8667      960.18531      0.99696118
    244000  -320.43824      56.233041     -376.67128      299.44476      280.27537      960.18531      0.99696118
    245000  -310.67647      69.513195     -380.18967      370.16248      1607.962       960.18531      0.99696118
    246000  -318.76977      55.773553     -374.54332      296.99795      6015.8515      960.18531      0.99696118
    247000  -320.29604      49.210028     -369.50607      262.04674     -512.9012       960.18531      0.99696118
    248000  -302.50946      55.049846     -357.5593       293.14417      1782.8383      960.18531      0.99696118
    249000  -304.69009      60.225147     -364.91524      320.703        5835.6954      960.18531      0.99696118
    250000  -314.07797      52.355164     -366.43313      278.7948       55.026762      960.18531      0.99696118
    251000  -299.65125      57.393878     -357.04513      305.6263      -2419.2892      960.18531      0.99696118
    252000  -321.98184      54.446792     -376.42863      289.93286     -137.16277      960.18531      0.99696118
    253000  -318.23312      53.109208     -371.34232      282.81014     -2904.6265      960.18531      0.99696118
    254000  -329.79753      56.766606     -386.56413      302.28603      562.02218      960.18531      0.99696118
    255000  -319.57643      56.230256     -375.80668      299.42993     -4179.6114      960.18531      0.99696118
    256000  -315.97832      56.939139     -372.91746      303.20478     -307.02605      960.18531      0.99696118
    257000  -308.15325      52.446697     -360.59995      279.28222      3156.5479      960.18531      0.99696118
    258000  -319.37833      57.64514      -377.02347      306.96429      4668.277       960.18531      0.99696118
    259000  -314.64319      59.644998     -374.28819      317.61366     -4226.3517      960.18531      0.99696118
    260000  -312.96948      54.63863      -367.60811      290.95441     -3004.051       960.18531      0.99696118
    261000  -294.81946      58.998326     -353.81778      314.17009     -3112.3562      960.18531      0.99696118
    262000  -309.05175      60.806672     -369.85842      323.79965     -1464.6734      960.18531      0.99696118
    263000  -312.70641      62.589903     -375.29631      333.29548     -502.9428       960.18531      0.99696118
    264000  -341.82445      43.593077     -385.41753      232.13609     -1300.1989      960.18531      0.99696118
    265000  -319.26529      66.079035     -385.34432      351.87535     -2259.2124      960.18531      0.99696118
    266000  -314.32276      60.114693     -374.43745      320.11482      178.45131      960.18531      0.99696118
    267000  -337.41237      55.886504     -393.29887      297.59943      360.47295      960.18531      0.99696118
    268000  -327.53927      59.347614     -386.88689      316.03008      1555.1115      960.18531      0.99696118
    269000  -325.84107      50.750995     -376.59206      270.25249      13.744439      960.18531      0.99696118
    270000  -323.74127      57.897933     -381.6392       308.31043     -1372.5735      960.18531      0.99696118
    271000  -335.96374      49.331119     -385.29485      262.69156     -1630.1792      960.18531      0.99696118
    272000  -292.30549      69.18653      -361.49202      368.42297      3132.627       960.18531      0.99696118
    273000  -323.44024      49.573033     -373.01328      263.97976     -1529.9937      960.18531      0.99696118
    274000  -309.61155      59.058563     -368.67011      314.49086      684.06096      960.18531      0.99696118
    275000  -323.50022      53.691158     -377.19138      285.90906     -120.50214      960.18531      0.99696118
    276000  -299.99447      58.650999     -358.64547      312.32055     -750.64322      960.18531      0.99696118
    277000  -305.61423      54.812339     -360.42656      291.87943     -986.67838      960.18531      0.99696118
    278000  -307.00335      63.040853     -370.0442       335.69682      387.384        960.18531      0.99696118
    279000  -288.24553      66.669419     -354.91495      355.01918      2856.8245      960.18531      0.99696118
    280000  -319.73459      52.716768     -372.45136      280.72037     -1068.5386      960.18531      0.99696118
    281000  -327.55767      56.665655     -384.22332      301.74846      4162.778       960.18531      0.99696118
    282000  -317.49222      45.263224     -362.75545      241.02974     -2108.2315      960.18531      0.99696118
    283000  -317.48035      61.663091     -379.14344      328.36014      2584.2097      960.18531      0.99696118
    284000  -298.23265      67.501767     -365.73442      359.45149     -1255.6896      960.18531      0.99696118
    285000  -311.71023      52.928908     -364.63914      281.85003     -2838.5181      960.18531      0.99696118
    286000  -315.73019      62.052196     -377.78238      330.43215     -1461.7591      960.18531      0.99696118
    287000  -339.4354       47.5655       -387.0009       253.28951      3059.6192      960.18531      0.99696118
    288000  -295.63026      57.128054     -352.75832      304.21077      3654.2174      960.18531      0.99696118
    289000  -327.99471      46.342742     -374.33745      246.77825     -1800.4905      960.18531      0.99696118
    290000  -316.99164      51.900224     -368.89186      276.37222      876.63708      960.18531      0.99696118
    291000  -306.26762      54.642195     -360.90982      290.9734      -2443.6013      960.18531      0.99696118
    292000  -327.19423      52.227241     -379.42147      278.1136      -817.38072      960.18531      0.99696118
    293000  -307.71013      61.926873     -369.637        329.7648       5309.9119      960.18531      0.99696118
    294000  -314.8438       60.593446     -375.43725      322.66421     -1149.2203      960.18531      0.99696118
    295000  -314.52103      60.386413     -374.90744      321.56175     -1681.9001      960.18531      0.99696118
    296000  -308.45564      61.628639     -370.08428      328.17669      3729.5852      960.18531      0.99696118
    297000  -308.4721       59.959464     -368.43156      319.28821     -3451.1731      960.18531      0.99696118
    298000  -314.93494      49.878507     -364.81345      265.60643     -5443.9803      960.18531      0.99696118
    299000  -304.52251      56.579431     -361.10194      301.28931     -2609.1093      960.18531      0.99696118
    300000  -305.10845      56.834819     -361.94326      302.64927     -1473.1134      960.18531      0.99696118
    301000  -321.01242      55.508161     -376.52058      295.58473     -2240.1979      960.18531      0.99696118
    302000  -309.24994      56.556104     -365.80605      301.1651      -2075.1319      960.18531      0.99696118
    303000  -317.38998      57.870652     -375.26063      308.16515      1182.8567      960.18531      0.99696118
    304000  -316.51779      56.788723     -373.30651      302.4038      -2897.6318      960.18531      0.99696118
    305000  -329.75412      51.18734      -380.94146      272.57606      2843.6575      960.18531      0.99696118
    306000  -301.88575      66.993733     -368.87948      356.74618      75.544495      960.18531      0.99696118
    307000  -308.60194      56.345009     -364.94695      300.041       -219.50368      960.18531      0.99696118
    308000  -329.88074      50.228717     -380.10945      267.47133     -3201.944       960.18531      0.99696118
    309000  -309.23756      59.97411      -369.21167      319.36621     -1159.9181      960.18531      0.99696118
    310000  -318.18904      50.19963      -368.38867      267.31644     -2214.7233      960.18531      0.99696118
    311000  -326.89157      58.274433     -385.166        310.31531     -2928.8635      960.18531      0.99696118
    312000  -329.58863      47.534259     -377.12289      253.12315      1650.0757      960.18531      0.99696118
    313000  -327.97955      45.808803     -373.78835      243.93498      670.47644      960.18531      0.99696118
    314000  -314.46283      54.744701     -369.20753      291.51925      4857.3565      960.18531      0.99696118
    315000  -325.78516      52.811538     -378.5967       281.22503      855.08889      960.18531      0.99696118
    316000  -300.3683       66.372055     -366.74035      353.4357       2655.9289      960.18531      0.99696118
    317000  -320.11588      53.30601      -373.42189      283.85812     -3057.8645      960.18531      0.99696118
    318000  -308.44212      66.825546     -375.26767      355.85057     -1483.2157      960.18531      0.99696118
    319000  -321.32821      52.048771     -373.37699      277.16324      555.41355      960.18531      0.99696118
    320000  -313.16598      60.228253     -373.39423      320.71953      460.38354      960.18531      0.99696118
    321000  -316.77674      48.111505     -364.88824      256.19703      113.60359      960.18531      0.99696118
    322000  -326.57354      54.288165     -380.8617       289.08816      1899.2061      960.18531      0.99696118
    323000  -301.97443      61.356243     -363.33068      326.72616     -2095.9016      960.18531      0.99696118
    324000  -322.4044       51.830573     -374.23498      276.00132      2047.8185      960.18531      0.99696118
    325000  -305.56465      56.806804     -362.37146      302.50009     -3854.9398      960.18531      0.99696118
    326000  -316.55143      50.709059     -367.26049      270.02918     -132.50933      960.18531      0.99696118
    327000  -306.03129      57.593523     -363.62481      306.68942      1769.3796      960.18531      0.99696118
    328000  -322.78583      54.579642     -377.36547      290.6403      -383.38677      960.18531      0.99696118
    329000  -298.94009      55.648781     -354.58887      296.33354      1570.2638      960.18531      0.99696118
    330000  -325.85827      59.337908     -385.19618      315.97839      1602.5704      960.18531      0.99696118
    331000  -307.41216      60.008514     -367.42068      319.54941     -3104.5334      960.18531      0.99696118
    332000  -308.09821      68.64245      -376.74066      365.5257       3407.714       960.18531      0.99696118
    333000  -307.03612      58.475154     -365.51127      311.38416      5561.2353      960.18531      0.99696118
    334000  -291.33084      75.55753      -366.88837      402.34898     -93.134527      960.18531      0.99696118
    335000  -310.4294       50.884787     -361.31418      270.96495     -2506.804       960.18531      0.99696118
    336000  -322.46247      55.184267     -377.64674      293.85997      5167.4224      960.18531      0.99696118
    337000  -312.08748      48.661116     -360.74859      259.12375     -1354.349       960.18531      0.99696118
    338000  -318.2566       55.267822     -373.52442      294.3049      -299.67014      960.18531      0.99696118
    339000  -315.16426      50.94506      -366.10932      271.2859      -484.70818      960.18531      0.99696118
    340000  -307.41656      56.084357     -363.50092      298.65301     -984.51684      960.18531      0.99696118
    341000  -318.64223      53.596849     -372.23908      285.40686     -3828.2832      960.18531      0.99696118
    342000  -320.85133      57.505328     -378.35665      306.21978     -2137.0693      960.18531      0.99696118
    343000  -305.02884      59.993095     -365.02193      319.4673       3496.6158      960.18531      0.99696118
    344000  -303.35186      64.040891     -367.39275      341.02209     -723.31418      960.18531      0.99696118
    345000  -325.8484       52.51591      -378.36431      279.65079     -1049.3269      960.18531      0.99696118
    346000  -312.31962      46.133157     -358.45278      245.66219     -1664.203       960.18531      0.99696118
    347000  -321.65291      49.502587     -371.1555       263.60463      1496.1171      960.18531      0.99696118
    348000  -322.51133      46.733146     -369.24447      248.85717      996.79161      960.18531      0.99696118
    349000  -309.80608      58.094506     -367.90058      309.35719     -1593.7036      960.18531      0.99696118
    350000  -304.15216      52.236565     -356.38872      278.16326      381.6242       960.18531      0.99696118
    351000  -310.56613      59.877054     -370.44318      318.84938     -468.81558      960.18531      0.99696118
    352000  -324.16012      54.07485      -378.23497      287.95225     -634.06407      960.18531      0.99696118
    353000  -321.63751      50.354725     -371.99223      268.14233     -1733.7251      960.18531      0.99696118
    354000  -300.95843      48.894072     -349.8525       260.36425     -2778.2688      960.18531      0.99696118
    355000  -329.81256      49.297977     -379.11054      262.51507      1213.5548      960.18531      0.99696118
    356000  -316.4898       62.920284     -379.41008      335.05478      4201.9948      960.18531      0.99696118
    357000  -331.61152      51.830238     -383.44176      275.99954     -810.30405      960.18531      0.99696118
    358000  -299.80895      59.712895     -359.52184      317.97522      2548.5351      960.18531      0.99696118
    359000  -323.7223       47.409457     -371.13175      252.45858      4077.1295      960.18531      0.99696118
    360000  -313.6087       53.650377     -367.25908      285.6919      -22.3319        960.18531      0.99696118
    361000  -322.9235       54.783475     -377.70697      291.72572     -578.8969       960.18531      0.99696118
    362000  -327.48307      46.866512     -374.34958      249.56736     -2735.0911      960.18531      0.99696118
    363000  -297.2362       66.778839     -364.01504      355.60185     -908.13019      960.18531      0.99696118
    364000  -310.32016      52.496713     -362.81687      279.54856     -3726.0877      960.18531      0.99696118
    365000  -319.86871      51.638153     -371.50686      274.97667     -1529.2816      960.18531      0.99696118
    366000  -314.52475      56.397395     -370.92214      300.31996     -577.46094      960.18531      0.99696118
    367000  -306.84296      50.941661     -357.78462      271.2678      -25.429609      960.18531      0.99696118
    368000  -291.95375      66.208339     -358.16209      352.5639       409.92342      960.18531      0.99696118
    369000  -322.13942      50.846391     -372.98581      270.76049      1892.2777      960.18531      0.99696118
    370000  -303.55918      54.874011     -358.43319      292.20783     -3106.7976      960.18531      0.99696118
    371000  -299.8792       59.059908     -358.93911      314.49802     -1200.7342      960.18531      0.99696118
    372000  -306.23058      61.897473     -368.12805      329.60825     -2435.9515      960.18531      0.99696118
    373000  -298.8381       62.781464     -361.61956      334.31556     -945.42761      960.18531      0.99696118
    374000  -317.5022       60.076702     -377.5789       319.91252     -1430.6439      960.18531      0.99696118
    375000  -319.49024      47.843991     -367.33423      254.7725      -2251.2563      960.18531      0.99696118
    376000  -316.68831      52.706613     -369.39493      280.66629     -1941.4201      960.18531      0.99696118
    377000  -329.547        44.355313     -373.90231      236.19505      858.26823      960.18531      0.99696118
    378000  -319.11563      55.409394     -374.52503      295.05878     -2927.5186      960.18531      0.99696118
    379000  -320.08014      49.511146     -369.59129      263.65021      871.83882      960.18531      0.99696118
    380000  -330.18963      42.54957      -372.7392       226.57935      625.64681      960.18531      0.99696118
    381000  -321.44299      44.407369     -365.85036      236.47225      2563.8377      960.18531      0.99696118
    382000  -321.75911      49.607702     -371.36681      264.16438     -1634.8168      960.18531      0.99696118
    383000  -328.1798       49.206987     -377.38679      262.03055     -2014.5058      960.18531      0.99696118
    384000  -319.78029      55.622375     -375.40266      296.19292      1570.3998      960.18531      0.99696118
    385000  -303.79027      57.288719     -361.07899      305.06632      4564.9794      960.18531      0.99696118
    386000  -321.37833      57.018577     -378.39691      303.62779      499.90528      960.18531      0.99696118
    387000  -300.7063       66.853719     -367.56001      356.00059     -1515.362       960.18531      0.99696118
    388000  -303.17231      58.983833     -362.15614      314.09292      3874.322       960.18531      0.99696118
    389000  -315.30502      55.481417     -370.78643      295.44231     -1563.6205      960.18531      0.99696118
    390000  -312.10015      52.440196     -364.54035      279.2476       1367.8812      960.18531      0.99696118
    391000  -306.54199      62.004553     -368.54654      330.17845     -1843.5749      960.18531      0.99696118
    392000  -325.36473      55.262076     -380.6268       294.27431      222.36464      960.18531      0.99696118
    393000  -313.03155      56.455478     -369.48703      300.62925     -2230.0261      960.18531      0.99696118
    394000  -295.9121       65.29779      -361.20989      347.71517     -563.45264      960.18531      0.99696118
    395000  -303.7356       59.934827     -363.67043      319.15702      710.31574      960.18531      0.99696118
    396000  -325.68353      52.392368     -378.0759       278.99292      4281.3125      960.18531      0.99696118
    397000  -325.98642      54.40237      -380.38879      289.69631      685.00673      960.18531      0.99696118
    398000  -319.47842      53.182754     -372.66117      283.20177     -2909.5873      960.18531      0.99696118
    399000  -315.64908      55.957965     -371.60705      297.97996     -275.29901      960.18531      0.99696118
    400000  -312.23698      54.594228     -366.8312       290.71797      2084.009       960.18531      0.99696118
    401000  -319.72261      57.883889     -377.6065       308.23564     -1758.9427      960.18531      0.99696118
    402000  -299.88955      62.425476     -362.31502      332.4199       1602.2914      960.18531      0.99696118
    403000  -312.58565      51.307298     -363.89295      273.21484     -4725.8539      960.18531      0.99696118
    404000  -302.13287      65.805292     -367.93816      350.41765      2324.9624      960.18531      0.99696118
    405000  -303.16867      51.999223     -355.1679       276.89939      1712.6286      960.18531      0.99696118
    406000  -320.79902      44.139224     -364.93824      235.04436      333.09384      960.18531      0.99696118
    407000  -305.94691      62.16176      -368.10866      331.01559      922.95844      960.18531      0.99696118
    408000  -326.74621      54.110526     -380.85674      288.14223      1719.8055      960.18531      0.99696118
    409000  -324.86222      51.578537     -376.44075      274.65921      1099.9941      960.18531      0.99696118
    410000  -325.54359      51.99404      -377.53763      276.87179      2026.1996      960.18531      0.99696118
    411000  -309.16268      59.483363     -368.64604      316.75294     -543.80152      960.18531      0.99696118
    412000  -308.67997      54.519001     -363.19897      290.31738      960.38092      960.18531      0.99696118
    413000  -320.34615      45.717338     -366.06349      243.44793     -3056.3943      960.18531      0.99696118
    414000  -320.51961      66.726975     -387.24659      355.32567     -2009.9799      960.18531      0.99696118
    415000  -331.74193      63.956133     -395.69806      340.57075     -1776.6096      960.18531      0.99696118
    416000  -306.95174      56.096084     -363.04782      298.71546     -980.15416      960.18531      0.99696118
    417000  -311.79764      68.32942      -380.12706      363.8588       484.45747      960.18531      0.99696118
    418000  -314.74464      45.276582     -360.02122      241.10087     -2308.3269      960.18531      0.99696118
    419000  -318.02168      47.604531     -365.62621      253.49736     -1911.9689      960.18531      0.99696118
    420000  -326.13816      44.532592     -370.67075      237.13908     -1974.7992      960.18531      0.99696118
    421000  -305.56366      68.303041     -373.8667       363.71833     -2684.6025      960.18531      0.99696118
    422000  -311.64043      57.067629     -368.70806      303.889        25.017391      960.18531      0.99696118
    423000  -302.5822       56.941128     -359.52333      303.21537      1606.0389      960.18531      0.99696118
    424000  -328.1224       39.750962     -367.87336      211.67657      796.88675      960.18531      0.99696118
    425000  -320.57195      55.180681     -375.75263      293.84087     -960.90828      960.18531      0.99696118
    426000  -325.04713      50.901127     -375.94826      271.05195     -511.04176      960.18531      0.99696118
    427000  -315.64935      50.131049     -365.7804       266.95124     -3403.1752      960.18531      0.99696118
    428000  -308.34651      59.380351     -367.72686      316.2044      -1508.8018      960.18531      0.99696118
    429000  -301.41891      58.343771     -359.76268      310.68454      838.09594      960.18531      0.99696118
    430000  -313.70714      52.121274     -365.82841      277.54932      3000.3338      960.18531      0.99696118
    431000  -308.2941       55.937196     -364.2313       297.86937     -3750.6796      960.18531      0.99696118
    432000  -303.18714      59.487229     -362.67436      316.77353      5003.6051      960.18531      0.99696118
    433000  -293.0687       59.596279     -352.66498      317.35423     -1541.0307      960.18531      0.99696118
    434000  -296.9109       60.325613     -357.23651      321.23798     -4306.822       960.18531      0.99696118
    435000  -313.15626      52.956869     -366.11312      281.99892     -4257.5114      960.18531      0.99696118
    436000  -298.7572       55.743595     -354.5008       296.83843     -2703.5749      960.18531      0.99696118
    437000  -298.4188       58.315919     -356.73472      310.53623     -560.80935      960.18531      0.99696118
    438000  -313.90792      57.341947     -371.24987      305.34976     -1111.9685      960.18531      0.99696118
    439000  -318.89916      63.40441      -382.30357      337.63279      1866.4404      960.18531      0.99696118
    440000  -318.55231      56.574459     -375.12677      301.26284      802.32072      960.18531      0.99696118
    441000  -323.36738      55.717623     -379.08501      296.70013     -2141.3235      960.18531      0.99696118
    442000  -306.39907      56.956642     -363.35571      303.29799     -1504.9829      960.18531      0.99696118
    443000  -318.53806      53.686909     -372.22496      285.88643      2763.3581      960.18531      0.99696118
    444000  -322.69581      45.333312     -368.02912      241.40296     -1240.8052      960.18531      0.99696118
    445000  -314.45414      54.158437     -368.61258      288.39735      238.03782      960.18531      0.99696118
    446000  -321.96423      49.445053     -371.40928      263.29826     -3111.0644      960.18531      0.99696118
    447000  -325.7939       57.821912     -383.61581      307.9056       2141.9792      960.18531      0.99696118
    448000  -304.97323      59.734069     -364.7073       318.08797      2808.6504      960.18531      0.99696118
    449000  -309.79132      68.054307     -377.84563      362.39381     -3825.1612      960.18531      0.99696118
    450000  -321.56495      52.597009     -374.16196      280.08264      53.592858      960.18531      0.99696118
    451000  -320.94689      59.793059     -380.73995      318.4021       3055.1692      960.18531      0.99696118
    452000  -298.30671      56.176755     -354.48347      299.14503      1327.2569      960.18531      0.99696118
    453000  -309.97021      55.562448     -365.53266      295.87381      315.32085      960.18531      0.99696118
    454000  -323.29157      40.166683     -363.45825      213.89031     -5522.2385      960.18531      0.99696118
    455000  -323.12762      45.100127     -368.22775      240.16124     -1106.2466      960.18531      0.99696118
    456000  -303.05637      61.045756     -364.10213      325.07279      327.60942      960.18531      0.99696118
    457000  -322.29581      50.370088     -372.6659       268.22414      4518.4575      960.18531      0.99696118
    458000  -313.55469      49.066849     -362.62154      261.2843       442.56765      960.18531      0.99696118
    459000  -321.3989       56.139983     -377.53888      298.94922     -1241.7775      960.18531      0.99696118
    460000  -340.58758      46.316105     -386.90368      246.6364      -1855.9409      960.18531      0.99696118
    461000  -315.87639      50.014279     -365.89067      266.32943      2143.9232      960.18531      0.99696118
    462000  -325.02525      57.236895     -382.26214      304.79035     -4415.7369      960.18531      0.99696118
    463000  -312.07888      59.45422      -371.5331       316.59776     -778.7926       960.18531      0.99696118
    464000  -297.12324      59.097055     -356.2203       314.69583     -286.37675      960.18531      0.99696118
    465000  -321.67643      53.632764     -375.30919      285.59811     -2959.9508      960.18531      0.99696118
    466000  -331.60402      50.543052     -382.14708      269.14518     -2179.6131      960.18531      0.99696118
    467000  -326.28001      56.094208     -382.37422      298.70546     -3170.8806      960.18531      0.99696118
    468000  -323.66463      46.043295     -369.70793      245.18367      3183.1953      960.18531      0.99696118
    469000  -309.60313      47.834456     -357.43759      254.72172     -589.43703      960.18531      0.99696118
    470000  -317.3055       50.198346     -367.50385      267.3096       439.99265      960.18531      0.99696118
    471000  -304.45855      54.079833     -358.53838      287.97878      1235.8985      960.18531      0.99696118
    472000  -308.32794      60.174789     -368.50273      320.43484      2414.196       960.18531      0.99696118
    473000  -304.05932      62.580049     -366.63937      333.24301      430.24638      960.18531      0.99696118
    474000  -307.0072       56.311858     -363.31905      299.86447      1160.8795      960.18531      0.99696118
    475000  -312.20233      56.461735     -368.66407      300.66257     -2154.4753      960.18531      0.99696118
    476000  -319.15361      55.1842       -374.33781      293.85961     -2446.4759      960.18531      0.99696118
    477000  -307.92404      50.229097     -358.15314      267.47335      6083.7883      960.18531      0.99696118
    478000  -298.78881      57.173068     -355.96188      304.45047      815.55275      960.18531      0.99696118
    479000  -318.90472      56.385243     -375.28997      300.25525      1221.5042      960.18531      0.99696118
    480000  -294.01366      52.499057     -346.51272      279.56104      1575.9918      960.18531      0.99696118
    481000  -324.84224      40.943895     -365.78613      218.02902      4804.6775      960.18531      0.99696118
    482000  -311.42112      49.152442     -360.57356      261.74009     -1887.2274      960.18531      0.99696118
    483000  -293.42538      59.205239     -352.63062      315.27192     -1957.0017      960.18531      0.99696118
    484000  -312.49792      59.1696       -371.66752      315.08214     -1133.2507      960.18531      0.99696118
    485000  -318.79547      54.774927     -373.5704       291.6802      -2019.1483      960.18531      0.99696118
    486000  -300.18053      59.368548     -359.54907      316.14155     -1018.9343      960.18531      0.99696118
    487000  -308.46308      62.464093     -370.92718      332.62553      2192.6909      960.18531      0.99696118
    488000  -309.72597      62.816558     -372.54252      334.50244      2208.6457      960.18531      0.99696118
    489000  -316.58171      56.909609     -373.49132      303.04753      2290.6813      960.18531      0.99696118
    490000  -324.34293      45.890836     -370.23377      244.37182      92.433222      960.18531      0.99696118
    491000  -320.06675      57.745203     -377.81195      307.49713     -97.404187      960.18531      0.99696118
    492000  -314.82373      58.247723     -373.07145      310.17308      920.42718      960.18531      0.99696118
    493000  -309.61466      57.67792      -367.29258      307.13884     -661.9471       960.18531      0.99696118
    494000  -310.00173      60.296038     -370.29777      321.0805      -954.67503      960.18531      0.99696118
    495000  -317.51298      55.264775     -372.77775      294.28868     -1986.3089      960.18531      0.99696118
    496000  -320.32288      58.166293     -378.48918      309.73946      3504.2242      960.18531      0.99696118
    497000  -323.38142      55.182437     -378.56386      293.85022     -1640.6518      960.18531      0.99696118
    498000  -307.77585      67.30429      -375.08014      358.39991     -446.85493      960.18531      0.99696118
    499000  -304.1059       52.72768      -356.83358      280.77848     -1670.8705      960.18531      0.99696118
    500000  -320.76642      52.479159     -373.24558      279.45508     -2508.4082      960.18531      0.99696118
    501000  -322.998        51.606416     -374.60441      274.80767      162.66985      960.18531      0.99696118
    502000  -319.93419      56.329105     -376.26329      299.95631      4886.2798      960.18531      0.99696118
    503000  -298.29629      56.288706     -354.585        299.74118      2144.3774      960.18531      0.99696118
    504000  -311.57908      47.238617     -358.8177       251.54884      2288.1036      960.18531      0.99696118
    505000  -316.41158      55.335561     -371.74714      294.66562     -414.05863      960.18531      0.99696118
    506000  -310.86582      53.364667     -364.23049      284.17047     -374.08817      960.18531      0.99696118
    507000  -317.75676      52.290056     -370.04682      278.4481      -2538.2936      960.18531      0.99696118
    508000  -313.12553      58.242997     -371.36853      310.14791     -1216.5808      960.18531      0.99696118
    509000  -329.45592      56.024938     -385.48085      298.3366       695.76225      960.18531      0.99696118
    510000  -321.6858       57.809654     -379.49546      307.84033      434.87168      960.18531      0.99696118
    511000  -319.44841      53.703579     -373.15199      285.9752      -4440.8745      960.18531      0.99696118
    512000  -300.84908      62.15795      -363.00703      330.9953      -2210.1328      960.18531      0.99696118
    513000  -309.1652       60.25772      -369.42292      320.87645      2974.9296      960.18531      0.99696118
    514000  -322.3448       54.184295     -376.5291       288.53505     -2863.6907      960.18531      0.99696118
    515000  -311.26855      50.979916     -362.24847      271.47151     -2137.6803      960.18531      0.99696118
    516000  -285.76395      62.473115     -348.23706      332.67358      3689.0897      960.18531      0.99696118
    517000  -316.72187      48.491058     -365.21293      258.21817     -202.99507      960.18531      0.99696118
    518000  -306.11451      59.568245     -365.68275      317.20495     -1191.841       960.18531      0.99696118
    519000  -299.35672      60.340213     -359.69693      321.31573      486.39267      960.18531      0.99696118
    520000  -302.52242      58.438092     -360.96051      311.18681      1658.9081      960.18531      0.99696118
    521000  -322.38582      46.894201     -369.28002      249.7148       658.02339      960.18531      0.99696118
    522000  -305.96731      64.789224     -370.75653      345.00701      1425.2152      960.18531      0.99696118
    523000  -320.17205      57.181348     -377.35339      304.49456     -4001.1074      960.18531      0.99696118
    524000  -317.57374      59.461538     -377.03528      316.63672     -2211.5046      960.18531      0.99696118
    525000  -327.10522      52.838191     -379.94341      281.36696     -3038.2853      960.18531      0.99696118
    526000  -313.6833       53.229738     -366.91303      283.45197      1485.0601      960.18531      0.99696118
    527000  -325.99108      47.871481     -373.86256      254.91889     -667.12574      960.18531      0.99696118
    528000  -299.7058       56.575653     -356.28146      301.2692       2534.255       960.18531      0.99696118
    529000  -313.84111      59.278357     -373.11947      315.66127      1337.3743      960.18531      0.99696118
    530000  -327.55981      57.912446     -385.47226      308.3877      -3169.9921      960.18531      0.99696118
    531000  -312.98704      60.796244     -373.78329      323.74413     -2652.5683      960.18531      0.99696118
    532000  -318.91011      54.684169     -373.59427      291.19691     -1624.585       960.18531      0.99696118
    533000  -298.81089      63.870121     -362.68102      340.11273     -596.76327      960.18531      0.99696118
    534000  -312.06284      55.279237     -367.34208      294.36569     -9.4578207      960.18531      0.99696118
    535000  -290.26343      61.968414     -352.23185      329.98601     -160.99194      960.18531      0.99696118
    536000  -322.79063      51.49302      -374.28365      274.20383      371.30875      960.18531      0.99696118
    537000  -319.75182      53.784411     -373.53623      286.40564     -3062.166       960.18531      0.99696118
    538000  -294.47761      61.103915     -355.58152      325.38249     -192.01594      960.18531      0.99696118
    539000  -284.73043      47.276064     -332.00649      251.74825      3337.0105      960.18531      0.99696118
    540000  -301.20362      58.408585     -359.61221      311.02968      1200.2556      960.18531      0.99696118
    541000  -321.1129       50.80495      -371.91785      270.53981     -3109.358       960.18531      0.99696118
    542000  -314.41936      54.76825      -369.18761      291.64465     -298.73309      960.18531      0.99696118
    543000  -316.03936      60.446614     -376.48597      321.88232      1082.1577      960.18531      0.99696118
    544000  -321.15866      49.131367     -370.29003      261.62786     -2516.8274      960.18531      0.99696118
    545000  -296.36088      56.855588     -353.21647      302.75987      1912.7768      960.18531      0.99696118
    546000  -320.41877      52.551029     -372.9698       279.83779     -764.17068      960.18531      0.99696118
    547000  -324.56865      56.235305     -380.80395      299.45682      1088.0451      960.18531      0.99696118
    548000  -311.19645      61.234372     -372.43082      326.07719     -563.86248      960.18531      0.99696118
    549000  -307.88846      55.804502     -363.69296      297.16276     -1565.6173      960.18531      0.99696118
    550000  -317.80321      57.52714      -375.33035      306.33593     -1191.2141      960.18531      0.99696118
    551000  -316.9357       53.121599     -370.0573       282.87612      819.16368      960.18531      0.99696118
    552000  -329.80426      52.875696     -382.67995      281.56667     -82.721893      960.18531      0.99696118
    553000  -311.63252      61.437774     -373.0703       327.16032      770.7805       960.18531      0.99696118
    554000  -319.41077      49.300819     -368.71159      262.53021     -1027.1569      960.18531      0.99696118
    555000  -323.70333      53.019357     -376.72269      282.33168      2031.4017      960.18531      0.99696118
    556000  -309.31531      52.165401     -361.48071      277.7843       980.2288       960.18531      0.99696118
    557000  -323.07261      55.646374     -378.71898      296.32072     -2767.1709      960.18531      0.99696118
    558000  -307.21672      66.361266     -373.57799      353.37825     -890.46651      960.18531      0.99696118
    559000  -317.96892      54.437617     -372.40654      289.884        4096.0865      960.18531      0.99696118
    560000  -305.87583      60.171444     -366.04727      320.41702      2340.7529      960.18531      0.99696118
    561000  -319.47762      50.189261     -369.66689      267.26122     -17.084101      960.18531      0.99696118
    562000  -307.26176      63.351773     -370.61353      337.35249     -2359.2585      960.18531      0.99696118
    563000  -282.4531       71.386716     -353.83982      380.13911     -1552.5556      960.18531      0.99696118
    564000  -310.53629      51.272393     -361.80868      273.02897     -1710.6692      960.18531      0.99696118
    565000  -324.45552      54.664645     -379.12017      291.09294     -1610.4301      960.18531      0.99696118
    566000  -325.24331      50.910889     -376.1542       271.10394      506.45242      960.18531      0.99696118
    567000  -319.95152      47.101546     -367.05306      250.81893      2297.2545      960.18531      0.99696118
    568000  -297.47081      50.957044     -348.42785      271.34972      1786.5162      960.18531      0.99696118
    569000  -291.76708      62.018323     -353.7854       330.25178      4634.8583      960.18531      0.99696118
    570000  -308.13626      60.801385     -368.93764      323.7715       2095.6162      960.18531      0.99696118
    571000  -309.81087      53.965127     -363.776        287.36796      1656.0043      960.18531      0.99696118
    572000  -323.80878      53.729937     -377.53871      286.11556     -1880.9885      960.18531      0.99696118
    573000  -311.57358      59.153031     -370.72662      314.9939       3287.3017      960.18531      0.99696118
    574000  -319.5023       60.119205     -379.62151      320.13885      1398.3173      960.18531      0.99696118
    575000  -318.38989      45.216131     -363.60602      240.77896     -4802.7852      960.18531      0.99696118
    576000  -294.29948      61.768535     -356.06801      328.92164      4179.0274      960.18531      0.99696118
    577000  -307.24271      56.952491     -364.1952       303.27588     -1903           960.18531      0.99696118
    578000  -304.91039      55.777293     -360.68768      297.01787     -1289.9882      960.18531      0.99696118
    579000  -308.47436      59.151761     -367.62612      314.98714      1590.1087      960.18531      0.99696118
    580000  -306.65574      54.929994     -361.58573      292.50595     -728.66731      960.18531      0.99696118
    581000  -323.70645      45.697314     -369.40376      243.3413       684.17373      960.18531      0.99696118
    582000  -306.98766      55.804577     -362.79223      297.16316      1986.7877      960.18531      0.99696118
    583000  -307.87046      54.989628     -362.86009      292.8235      -151.05775      960.18531      0.99696118
    584000  -328.92383      46.767181     -375.69101      249.03842     -1350.1757      960.18531      0.99696118
    585000  -302.38343      55.05618      -357.43961      293.1779      -1765.0131      960.18531      0.99696118
    586000  -323.72861      55.411574     -379.14019      295.07039      2024.0293      960.18531      0.99696118
    587000  -329.15731      61.622863     -390.78017      328.14593      1130.806       960.18531      0.99696118
    588000  -299.54899      50.854124     -350.40311      270.80166     -29.835884      960.18531      0.99696118
    589000  -312.7094       53.826548     -366.53595      286.63002      498.06839      960.18531      0.99696118
    590000  -311.53911      62.611475     -374.15059      333.41035     -2326.0457      960.18531      0.99696118
    591000  -303.78846      63.982917     -367.77137      340.71338      2703.8846      960.18531      0.99696118
    592000  -303.58558      58.798053     -362.38364      313.10362      76.35399       960.18531      0.99696118
    593000  -310.70606      56.597375     -367.30344      301.38486      2486.9686      960.18531      0.99696118
    594000  -323.78859      57.207022     -380.99561      304.63128     -829.75697      960.18531      0.99696118
    595000  -320.83938      57.660689     -378.50007      307.04708      1461.5663      960.18531      0.99696118
    596000  -315.24667      53.636572     -368.88324      285.61839      2184.0556      960.18531      0.99696118
    597000  -327.20392      47.359958     -374.56388      252.19499     -2892.0097      960.18531      0.99696118
    598000  -328.44242      58.644053     -387.08647      312.28356     -1407.7418      960.18531      0.99696118
    599000  -340.99031      44.869552     -385.85987      238.93341     -5318.3621      960.18531      0.99696118
    600000  -318.46083      53.645496     -372.10632      285.66591     -1922.2331      960.18531      0.99696118
    601000  -294.5527       64.506528     -359.05923      343.50164     -193.21809      960.18531      0.99696118
    602000  -311.25951      52.884494     -364.14401      281.61352      554.63291      960.18531      0.99696118
    603000  -322.86492      50.072879     -372.93779      266.64148      685.13122      960.18531      0.99696118
    604000  -319.17266      54.40783      -373.58049      289.72539     -726.51258      960.18531      0.99696118
    605000  -302.44565      58.460764     -360.90641      311.30754     -697.69433      960.18531      0.99696118
    606000  -322.97796      57.319159     -380.29711      305.22841     -1258.958       960.18531      0.99696118
    607000  -311.35076      54.101715     -365.45247      288.0953      -162.53651      960.18531      0.99696118
    608000  -306.50438      50.872205     -357.37659      270.89794     -1102.5872      960.18531      0.99696118
    609000  -325.98432      47.152039     -373.13636      251.08781     -865.56417      960.18531      0.99696118
    610000  -311.31718      58.002964     -369.32014      308.86972     -2008.3657      960.18531      0.99696118
    611000  -322.43968      58.688819     -381.12849      312.52195     -2283.4488      960.18531      0.99696118
    612000  -311.91056      63.985643     -375.8962       340.72789     -1590.6106      960.18531      0.99696118
    613000  -316.90192      58.177441     -375.07936      309.79882     -2907.7843      960.18531      0.99696118
    614000  -310.92914      60.631155     -371.5603       322.86501     -2996.8027      960.18531      0.99696118
    615000  -294.88124      62.32018      -357.20142      331.85919      1403.5067      960.18531      0.99696118
    616000  -313.95954      61.331375     -375.29092      326.59373      1894.7955      960.18531      0.99696118
    617000  -314.86369      54.78346      -369.64715      291.72565     -1397.765       960.18531      0.99696118
    618000  -303.27955      65.807796     -369.08735      350.43098     -740.82819      960.18531      0.99696118
    619000  -326.68751      61.503661     -388.19117      327.51117      3375.674       960.18531      0.99696118
    620000  -325.13623      52.403065     -377.53929      279.04988      882.21856      960.18531      0.99696118
    621000  -317.29433      55.214233     -372.50856      294.01954     -83.868156      960.18531      0.99696118
    622000  -306.87233      62.221922     -369.09426      331.33596      25.016199      960.18531      0.99696118
    623000  -298.1041       57.241689     -355.34579      304.81588     -2452.7776      960.18531      0.99696118
    624000  -325.61841      57.697528     -383.31593      307.24325     -2126.0314      960.18531      0.99696118
    625000  -316.04252      51.517919     -367.56044      274.33642     -1394.8755      960.18531      0.99696118
    626000  -314.41787      61.362819     -375.78069      326.76118     -3398.812       960.18531      0.99696118
    627000  -325.18158      56.703784     -381.88537      301.9515       4593.5283      960.18531      0.99696118
    628000  -302.93151      65.849732     -368.78125      350.65429      390.70173      960.18531      0.99696118
    629000  -329.44429      50.72698      -380.17127      270.12461      243.24696      960.18531      0.99696118
    630000  -327.4052       55.213987     -382.61919      294.01823      1989.6994      960.18531      0.99696118
    631000  -323.1005       48.251228     -371.35173      256.94106      493.74512      960.18531      0.99696118
    632000  -316.91916      55.582702     -372.50186      295.98166     -290.44339      960.18531      0.99696118
    633000  -327.45269      60.045218     -387.4979       319.74486     -3605.7415      960.18531      0.99696118
    634000  -319.06447      63.441215     -382.50568      337.82878     -3119.5386      960.18531      0.99696118
    635000  -319.17679      54.149492     -373.32628      288.34972      3429.6581      960.18531      0.99696118
    636000  -313.69854      50.412509     -364.11105      268.45003      1126.3492      960.18531      0.99696118
    637000  -321.06934      55.919478     -376.98882      297.77502     -290.26352      960.18531      0.99696118
    638000  -311.31332      56.090887     -367.4042       298.68778      105.2834       960.18531      0.99696118
    639000  -322.31251      52.039484     -374.352        277.11378     -791.18957      960.18531      0.99696118
    640000  -321.05254      57.318821     -378.37137      305.22661      1810.0923      960.18531      0.99696118
    641000  -316.51013      54.383606     -370.89374      289.59639      2749.9746      960.18531      0.99696118
    642000  -301.10072      54.806108     -355.90682      291.84625      1364.7328      960.18531      0.99696118
    643000  -314.21159      53.610546     -367.82213      285.4798      -1616.9942      960.18531      0.99696118
    644000  -329.91737      53.878855     -383.79623      286.90856      400.23032      960.18531      0.99696118
    645000  -319.20477      54.763052     -373.96782      291.61697     -2787.382       960.18531      0.99696118
    646000  -314.22331      62.268636     -376.49194      331.58471     -1103.3329      960.18531      0.99696118
    647000  -319.66489      60.359385     -380.02427      321.41782      1900.1276      960.18531      0.99696118
    648000  -322.12137      57.049698     -379.17107      303.79352     -1970.4853      960.18531      0.99696118
    649000  -318.67691      59.72919      -378.4061       318.06199     -904.54469      960.18531      0.99696118
    650000  -321.32087      53.420839     -374.74171      284.4696      -1585.3785      960.18531      0.99696118
    651000  -306.33089      59.485218     -365.81611      316.76283      875.20648      960.18531      0.99696118
    652000  -309.65797      52.519669     -362.17764      279.6708       1352.6428      960.18531      0.99696118
    653000  -319.21532      60.524418     -379.73974      322.29663     -2833.4648      960.18531      0.99696118
    654000  -324.906        49.06912      -373.97511      261.29639      1947.6171      960.18531      0.99696118
    655000  -323.0088       53.098821     -376.10762      282.75483      6120.6189      960.18531      0.99696118
    656000  -303.13581      64.498133     -367.63395      343.45694     -3749.7413      960.18531      0.99696118
    657000  -305.42832      61.714382     -367.1427       328.63327     -369.47972      960.18531      0.99696118
    658000  -303.30507      65.340595     -368.64567      347.9431       3164.8096      960.18531      0.99696118
    659000  -312.6921       56.142927     -368.83503      298.9649       1809.9061      960.18531      0.99696118
    660000  -320.65908      54.183386     -374.84246      288.53021     -796.72744      960.18531      0.99696118
    661000  -319.15977      57.800328     -376.9601       307.79067      155.65621      960.18531      0.99696118
    662000  -310.33545      55.305648     -365.6411       294.50633     -1888.7075      960.18531      0.99696118
    663000  -318.98145      50.413061     -369.39452      268.45297      1224.3127      960.18531      0.99696118
    664000  -308.42993      57.9188       -366.34873      308.42154      966.53044      960.18531      0.99696118
    665000  -319.18858      52.977578     -372.16615      282.1092      -187.19982      960.18531      0.99696118
    666000  -302.19614      58.761647     -360.95779      312.90976      5830.1495      960.18531      0.99696118
    667000  -314.22015      55.604109     -369.82425      296.09566     -2154.4027      960.18531      0.99696118
    668000  -306.19297      60.477137     -366.6701       322.04486     -549.05294      960.18531      0.99696118
    669000  -322.27076      45.851237     -368.122        244.16095     -203.48078      960.18531      0.99696118
    670000  -317.82428      45.363205     -363.18749      241.56215      3011.8977      960.18531      0.99696118
    671000  -305.03226      62.764765     -367.79703      334.22664      625.44161      960.18531      0.99696118
    672000  -322.94496      58.47417      -381.41913      311.37893      522.04851      960.18531      0.99696118
    673000  -321.3469       55.932899     -377.2798       297.84648      382.15578      960.18531      0.99696118
    674000  -317.35044      56.177383     -373.52782      299.14838      69.277794      960.18531      0.99696118
    675000  -305.61468      61.617804     -367.23248      328.11899      2897.9812      960.18531      0.99696118
    676000  -319.41997      54.313908     -373.73387      289.22525     -5126.7205      960.18531      0.99696118
    677000  -311.57063      56.667263     -368.2379       301.75702     -1484.9362      960.18531      0.99696118
    678000  -307.69421      66.100263     -373.79447      351.98839     -2733.3222      960.18531      0.99696118
    679000  -330.20635      61.981571     -392.18793      330.05608     -1323.9416      960.18531      0.99696118
    680000  -331.16931      51.441647     -382.61096      273.93026     -323.91587      960.18531      0.99696118
    681000  -318.73979      56.104247     -374.84403      298.75892     -4130.5698      960.18531      0.99696118
    682000  -314.02739      54.04407      -368.07145      287.78834     -2416.1277      960.18531      0.99696118
    683000  -315.43256      55.23832      -370.67088      294.1478       1924.0215      960.18531      0.99696118
    684000  -330.39132      47.398743     -377.79007      252.40153      1043.245       960.18531      0.99696118
    685000  -320.71302      57.077805     -377.79083      303.94319     -832.99605      960.18531      0.99696118
    686000  -317.49325      57.856268     -375.34952      308.08855     -2826.4954      960.18531      0.99696118
    687000  -327.47801      50.25228      -377.73029      267.5968      -101.0512       960.18531      0.99696118
    688000  -305.40733      58.63877      -364.0461       312.25543      1661.6335      960.18531      0.99696118
    689000  -314.313        55.059879     -369.37288      293.1976      -2919.5181      960.18531      0.99696118
    690000  -323.74581      53.310223     -377.05603      283.88056     -3736.8421      960.18531      0.99696118
    691000  -306.87296      59.540919     -366.41387      317.05943      1795.589       960.18531      0.99696118
    692000  -330.07039      55.302967     -385.37335      294.49206     -2678.6556      960.18531      0.99696118
    693000  -317.02512      62.06603      -379.09115      330.50583      500.83447      960.18531      0.99696118
    694000  -322.66151      47.784075     -370.44559      254.45344     -422.91651      960.18531      0.99696118
    695000  -299.91107      65.33658      -365.24765      347.92172      2811.6093      960.18531      0.99696118
    696000  -310.51986      53.475607     -363.99546      284.76124      364.28368      960.18531      0.99696118
    697000  -307.4833       49.202891     -356.68619      262.00873     -110.39935      960.18531      0.99696118
    698000  -319.49447      51.376151     -370.87063      273.58149     -720.12606      960.18531      0.99696118
    699000  -307.30316      62.172195     -369.47535      331.07116      691.35681      960.18531      0.99696118
    700000  -320.23782      52.695186     -372.93301      280.60544      1135.8096      960.18531      0.99696118
    701000  -308.95719      54.968393     -363.92558      292.71043     -105.68469      960.18531      0.99696118
    702000  -306.75012      52.835827     -359.58594      281.35436     -4687.9282      960.18531      0.99696118
    703000  -329.33226      47.744602     -377.07686      254.24325     -3074.4829      960.18531      0.99696118
    704000  -307.5968       53.890485     -361.48728      286.97049      659.75751      960.18531      0.99696118
    705000  -307.63565      62.120896     -369.75655      330.79799     -3324.6175      960.18531      0.99696118
    706000  -322.06936      49.821308     -371.89067      265.30185      1869.7505      960.18531      0.99696118
    707000  -329.63674      50.356184     -379.99293      268.1501       1120.5395      960.18531      0.99696118
    708000  -318.30403      62.458086     -380.76211      332.59355     -2029.4419      960.18531      0.99696118
    709000  -329.05443      42.877755     -371.93219      228.32696      5353.3757      960.18531      0.99696118
    710000  -322.26023      50.626941     -372.88717      269.5919      -305.46739      960.18531      0.99696118
    711000  -303.35634      58.877346     -362.23369      313.52586     -1080.9447      960.18531      0.99696118
    712000  -323.22939      57.134649     -380.36404      304.24588     -1058.0948      960.18531      0.99696118
    713000  -295.83004      55.640555     -351.4706       296.28973      3932.3364      960.18531      0.99696118
    714000  -316.87156      63.697303     -380.56887      339.19246     -2104.5233      960.18531      0.99696118
    715000  -333.08382      49.906926     -382.99074      265.75777      503.95303      960.18531      0.99696118
    716000  -319.8055       57.013444     -376.81895      303.60046     -650.90474      960.18531      0.99696118
    717000  -339.47646      50.681593     -390.15805      269.88292     -3602.254       960.18531      0.99696118
    718000  -323.16547      56.454338     -379.61981      300.62318      343.17383      960.18531      0.99696118
    719000  -328.43935      50.802865     -379.24221      270.5287      -3608.4664      960.18531      0.99696118
    720000  -297.75177      63.207153     -360.95892      336.58238     -2705.4567      960.18531      0.99696118
    721000  -317.6361       55.490796     -373.12689      295.49226      1277.5702      960.18531      0.99696118
    722000  -328.25669      48.852211     -377.1089       260.14134     -254.20917      960.18531      0.99696118
    723000  -304.26908      65.974707     -370.24379      351.31979     -4409.2608      960.18531      0.99696118
    724000  -315.33731      59.549966     -374.88728      317.10761      2158.8035      960.18531      0.99696118
    725000  -310.89146      55.546807     -366.43826      295.79052     -1045.3994      960.18531      0.99696118
    726000  -300.86092      62.322333     -363.18325      331.87065      5775.3172      960.18531      0.99696118
    727000  -296.26725      68.106047     -364.3733       362.66932     -1061.1468      960.18531      0.99696118
    728000  -298.08704      62.465552     -360.55259      332.6333      -1751.0502      960.18531      0.99696118
    729000  -316.81674      60.172629     -376.98936      320.42333      1821.0972      960.18531      0.99696118
    730000  -313.57383      53.637567     -367.21139      285.62369      3516.3288      960.18531      0.99696118
    731000  -326.06415      55.412633     -381.47679      295.07603      1651.7554      960.18531      0.99696118
    732000  -318.78614      53.543467     -372.32961      285.12259     -3636.0271      960.18531      0.99696118
    733000  -311.14679      50.856538     -362.00333      270.81452      2525.2465      960.18531      0.99696118
    734000  -319.16662      52.674211     -371.84083      280.49375     -1353.5177      960.18531      0.99696118
    735000  -305.55271      49.759228     -355.31193      264.97127      3721.0187      960.18531      0.99696118
    736000  -300.22807      63.367715     -363.59579      337.43738     -3353.282       960.18531      0.99696118
    737000  -321.88197      54.516962     -376.39893      290.30653     -4881.6022      960.18531      0.99696118
    738000  -326.79376      48.555669     -375.34943      258.56223     -3643.1979      960.18531      0.99696118
    739000  -307.67235      56.35659      -364.02894      300.10267      299.17595      960.18531      0.99696118
    740000  -310.5977       60.934062     -371.53176      324.47802      3690.035       960.18531      0.99696118
    741000  -330.61502      56.508207     -387.12323      300.91004      37.627194      960.18531      0.99696118
    742000  -323.45516      56.399952     -379.85511      300.33357     -1844.7842      960.18531      0.99696118
    743000  -313.0642       52.321328     -365.38553      278.61462      5297.7306      960.18531      0.99696118
    744000  -325.37492      59.125911     -384.50083      314.84949      999.62435      960.18531      0.99696118
    745000  -322.59929      60.918453     -383.51774      324.3949      -588.53572      960.18531      0.99696118
    746000  -345.55922      46.852315     -392.41154      249.49176      238.76771      960.18531      0.99696118
    747000  -329.03619      48.002131     -377.03832      255.61461      2351.8872      960.18531      0.99696118
    748000  -332.32319      55.723132     -388.04632      296.72946      183.0139       960.18531      0.99696118
    749000  -314.81119      58.982701     -373.79389      314.08689     -805.68474      960.18531      0.99696118
    750000  -301.42634      53.32356      -354.7499       283.95158     -3225.4007      960.18531      0.99696118
    751000  -313.90815      65.36549      -379.27364      348.07567      310.40009      960.18531      0.99696118
    752000  -327.25279      50.170698     -377.42349      267.16237     -2248.9963      960.18531      0.99696118
    753000  -313.52493      58.507422     -372.03235      311.556       -1665.7559      960.18531      0.99696118
    754000  -288.94538      62.263489     -351.20887      331.5573       3222.6612      960.18531      0.99696118
    755000  -309.01665      49.633673     -358.65032      264.30268     -746.02213      960.18531      0.99696118
    756000  -321.89069      51.498375     -373.38907      274.23234     -2620.1115      960.18531      0.99696118
    757000  -332.26297      53.609928     -385.87289      285.47651      1659.8378      960.18531      0.99696118
    758000  -318.58143      47.897803     -366.47924      255.05905      233.16738      960.18531      0.99696118
    759000  -298.67995      65.273506     -363.95345      347.58585      1345.5629      960.18531      0.99696118
    760000  -312.52277      53.456961     -365.97973      284.66195     -958.79459      960.18531      0.99696118
    761000  -309.09989      52.819364     -361.91925      281.2667      -21.053116      960.18531      0.99696118
    762000  -309.80474      51.212242     -361.01698      272.70867      4431.4122      960.18531      0.99696118
    763000  -285.71145      53.612697     -339.32415      285.49125      601.41111      960.18531      0.99696118
    764000  -309.99609      55.505818     -365.50191      295.57225     -889.03237      960.18531      0.99696118
    765000  -294.38032      60.503294     -354.88362      322.18415      858.62159      960.18531      0.99696118
    766000  -313.88544      56.751291     -370.63673      302.20448      3159.6305      960.18531      0.99696118
    767000  -299.18958      61.844123     -361.0337       329.32415     -772.63889      960.18531      0.99696118
    768000  -301.96212      54.91715      -356.87927      292.43755      1981.8549      960.18531      0.99696118
    769000  -313.3735       52.97211      -366.34561      282.08008      2152.4126      960.18531      0.99696118
    770000  -298.63016      56.617058     -355.24722      301.48968      5971.6223      960.18531      0.99696118
    771000  -310.43495      53.858553     -364.2935       286.80045     -2101.5997      960.18531      0.99696118
    772000  -302.21493      54.990036     -357.20496      292.82567      2134.0874      960.18531      0.99696118
    773000  -313.48269      57.085652     -370.56834      303.98497     -2136.392       960.18531      0.99696118
    774000  -310.51872      49.218631     -359.73736      262.09255     -1367.913       960.18531      0.99696118
    775000  -324.13578      55.162701     -379.29849      293.74513     -4372.0005      960.18531      0.99696118
    776000  -320.71925      52.762955     -373.48221      280.96632     -816.79168      960.18531      0.99696118
    777000  -309.21609      57.045552     -366.26164      303.77143     -1357.9664      960.18531      0.99696118
    778000  -325.5758       56.559472     -382.13527      301.18303      526.91592      960.18531      0.99696118
    779000  -315.67919      57.195512     -372.8747       304.56999     -2015.0969      960.18531      0.99696118
    780000  -311.97237      59.120006     -371.09237      314.81804      2512.9816      960.18531      0.99696118
    781000  -303.99031      59.813604     -363.80391      318.5115      -2230.1158      960.18531      0.99696118
    782000  -311.68315      54.825596     -366.50875      291.95002     -3262.9058      960.18531      0.99696118
    783000  -328.49507      52.023694     -380.51876      277.0297       3812.1669      960.18531      0.99696118
    784000  -317.23436      57.613841     -374.8482       306.79762      4222.1435      960.18531      0.99696118
    785000  -313.25233      54.946746     -368.19907      292.59515     -1517.7048      960.18531      0.99696118
    786000  -323.3249       54.4519       -377.7768       289.96006      2893.4428      960.18531      0.99696118
    787000  -314.6139       57.807589     -372.42149      307.82933     -2819.9225      960.18531      0.99696118
    788000  -323.21734      47.0981       -370.31544      250.80058      1877.2881      960.18531      0.99696118
    789000  -329.89071      48.242764     -378.13347      256.89599      2489.4867      960.18531      0.99696118
    790000  -313.52235      47.40621      -360.92856      252.44129      1329.7452      960.18531      0.99696118
    791000  -318.60328      56.593859     -375.19714      301.36614      326.41261      960.18531      0.99696118
    792000  -306.34784      59.034338     -365.38217      314.36186     -2227.7205      960.18531      0.99696118
    793000  -306.64898      64.570963     -371.21994      343.84476     -3459.9955      960.18531      0.99696118
    794000  -319.82907      62.59971      -382.42878      333.34771      235.42897      960.18531      0.99696118
    795000  -316.85473      61.351424     -378.20616      326.7005       1876.347       960.18531      0.99696118
    796000  -340.69422      46.898052     -387.59227      249.73531     -2830.5259      960.18531      0.99696118
    797000  -320.57976      55.368104     -375.94787      294.83891      164.06367      960.18531      0.99696118
    798000  -318.0064       47.967592     -365.97399      255.43068      288.03454      960.18531      0.99696118
    799000  -306.39336      71.983916     -378.37728      383.31924      469.19004      960.18531      0.99696118
    800000  -344.33932      41.806849     -386.14617      222.62431     -648.4757       960.18531      0.99696118
    801000  -331.34087      46.163766     -377.50464      245.82519      961.65777      960.18531      0.99696118
    802000  -324.47368      53.42803      -377.90171      284.50789     -2699.4536      960.18531      0.99696118
    803000  -317.07932      54.442565     -371.52189      289.91036     -352.89626      960.18531      0.99696118
    804000  -307.30309      52.749161     -360.05225      280.89286     -2193.4326      960.18531      0.99696118
    805000  -310.36288      49.836205     -360.19909      265.38118      1220.6063      960.18531      0.99696118
    806000  -325.26029      59.172641     -384.43293      315.09833     -1001.0285      960.18531      0.99696118
    807000  -299.15965      61.763        -360.92265      328.89217     -958.93715      960.18531      0.99696118
    808000  -309.99621      61.625755     -371.62197      328.16133     -1173.0582      960.18531      0.99696118
    809000  -308.83866      61.260444     -370.09911      326.21602     -99.670956      960.18531      0.99696118
    810000  -322.97326      54.859999     -377.83326      292.13322     -6278.11        960.18531      0.99696118
    811000  -313.71791      54.223729     -367.94164      288.74504      5689.9161      960.18531      0.99696118
    812000  -305.20718      63.107188     -368.31437      336.05006     -2094.0655      960.18531      0.99696118
    813000  -309.63924      61.586282     -371.22552      327.95114      219.62902      960.18531      0.99696118
    814000  -299.49112      60.976808     -360.46793      324.70564     -1024.7076      960.18531      0.99696118
    815000  -304.45145      59.428773     -363.88023      316.46225      1881.3569      960.18531      0.99696118
    816000  -321.671        53.89214      -375.56314      286.9793      -313.4595       960.18531      0.99696118
    817000  -297.61213      68.128962     -365.7411       362.79135     -3688.3709      960.18531      0.99696118
    818000  -323.65699      57.632134     -381.28913      306.89503      1939.4418      960.18531      0.99696118
    819000  -328.12271      51.310252     -379.43296      273.23058      313.85542      960.18531      0.99696118
    820000  -309.36293      58.504268     -367.8672       311.5392      -90.148396      960.18531      0.99696118
    821000  -312.38539      50.775526     -363.16092      270.38312     -1213.4917      960.18531      0.99696118
    822000  -309.42342      54.94496      -364.36838      292.58564      1700.6204      960.18531      0.99696118
    823000  -316.61133      61.122193     -377.73352      325.47982     -580.6809       960.18531      0.99696118
    824000  -298.34708      46.338215     -344.6853       246.75414      779.73135      960.18531      0.99696118
    825000  -323.80119      61.327881     -385.12908      326.57513     -1037.2983      960.18531      0.99696118
    826000  -300.99534      59.126295     -360.12163      314.85153      1836.1519      960.18531      0.99696118
    827000  -321.52551      59.782496     -381.308        318.34585     -1409.507       960.18531      0.99696118
    828000  -312.12578      59.660655     -371.78644      317.69704     -4034.4501      960.18531      0.99696118
    829000  -313.56294      51.887844     -365.45078      276.30629      6014.3812      960.18531      0.99696118
    830000  -341.07706      50.360342     -391.4374       268.17224      3806.9484      960.18531      0.99696118
    831000  -310.88184      67.920862     -378.8027       361.6832      -4978.97        960.18531      0.99696118
    832000  -297.15948      61.375597     -358.53508      326.82922      1102.8738      960.18531      0.99696118
    833000  -319.69938      70.330659     -390.03003      374.51554     -1994.848       960.18531      0.99696118
    834000  -333.52514      57.858966     -391.38411      308.10292     -87.798259      960.18531      0.99696118
    835000  -322.83703      48.415613     -371.25264      257.81643      2133.0014      960.18531      0.99696118
    836000  -321.41154      56.333965     -377.7455       299.98219      4670.633       960.18531      0.99696118
    837000  -329.68529      46.844887     -376.53017      249.4522      -1402.6328      960.18531      0.99696118
    838000  -317.60952      44.436746     -362.04626      236.62869      121.6931       960.18531      0.99696118
    839000  -325.86495      48.127989     -373.99294      256.28481     -3716.1321      960.18531      0.99696118
    840000  -309.84519      51.865901     -361.71109      276.18944     -2175.4259      960.18531      0.99696118
    841000  -312.63349      57.796978     -370.43047      307.77283     -3480.7043      960.18531      0.99696118
    842000  -331.51606      52.207408     -383.72347      278.00799     -384.50516      960.18531      0.99696118
    843000  -316.89791      58.002662     -374.90057      308.86811      3843.7429      960.18531      0.99696118
    844000  -312.1127       59.90808      -372.02078      319.01459     -676.7141       960.18531      0.99696118
    845000  -300.23194      57.8976       -358.12954      308.30865     -2046.1413      960.18531      0.99696118
    846000  -326.94174      55.455582     -382.39732      295.30474     -2368.5877      960.18531      0.99696118
    847000  -322.82909      51.40066      -374.22975      273.71201     -2490.5623      960.18531      0.99696118
    848000  -312.48361      61.531593     -374.01521      327.65991      470.79672      960.18531      0.99696118
    849000  -339.2402       37.880355     -377.12056      201.71546     -906.72629      960.18531      0.99696118
    850000  -304.87066      68.12544      -372.9961       362.7726       3697.4027      960.18531      0.99696118
    851000  -316.46561      55.046322     -371.51193      293.1254      -267.065        960.18531      0.99696118
    852000  -323.68886      53.442024     -377.13089      284.58241     -602.83635      960.18531      0.99696118
    853000  -310.48165      60.787529     -371.26918      323.69772     -1602.5018      960.18531      0.99696118
    854000  -318.06261      43.860359     -361.92297      233.55939     -3725.7095      960.18531      0.99696118
    855000  -289.79926      73.758591     -363.55786      392.7695       1484.4879      960.18531      0.99696118
    856000  -314.00355      56.976905     -370.98046      303.40589      1133.5287      960.18531      0.99696118
    857000  -308.46893      59.878595     -368.34752      318.85758      3835.829       960.18531      0.99696118
    858000  -313.68795      56.032856     -369.72081      298.37876      3438.1254      960.18531      0.99696118
    859000  -320.3895       59.792765     -380.18226      318.40053     -1358.3753      960.18531      0.99696118
    860000  -317.63756      60.9664       -378.60396      324.65022     -3528.465       960.18531      0.99696118
    861000  -306.69074      55.880101     -362.57084      297.56533     -505.91708      960.18531      0.99696118
    862000  -314.22029      49.76938      -363.98967      265.02533     -630.82462      960.18531      0.99696118
    863000  -320.55847      54.574867     -375.13334      290.61487      340.72149      960.18531      0.99696118
    864000  -306.28831      58.346676     -364.63498      310.70001     -393.28868      960.18531      0.99696118
    865000  -303.33965      57.466462     -360.80611      306.01281     -843.50909      960.18531      0.99696118
    866000  -316.39164      58.629563     -375.0212       312.2064      -918.47594      960.18531      0.99696118
    867000  -287.71308      60.577407     -348.29048      322.5788      -1385.1987      960.18531      0.99696118
    868000  -306.66268      56.100354     -362.76304      298.73819      4127.2056      960.18531      0.99696118
    869000  -307.04166      59.685531     -366.72719      317.82951     -1469.5259      960.18531      0.99696118
    870000  -315.29016      49.265034     -364.55519      262.33965     -938.74992      960.18531      0.99696118
    871000  -326.77225      51.58361      -378.35586      274.68623      78.552209      960.18531      0.99696118
    872000  -316.09536      50.671178     -366.76654      269.82747     -620.65374      960.18531      0.99696118
    873000  -316.20998      58.573993     -374.78397      311.91049      6669.0845      960.18531      0.99696118
    874000  -326.44293      60.177385     -386.62031      320.44866      2780.9191      960.18531      0.99696118
    875000  -315.47088      51.730568     -367.20145      275.46879     -280.36976      960.18531      0.99696118
    876000  -314.58053      49.93968      -364.52021      265.93219      102.57284      960.18531      0.99696118
    877000  -329.8669       55.311323     -385.17823      294.53655      382.87089      960.18531      0.99696118
    878000  -309.1858       62.885573     -372.07138      334.86995      1059.6331      960.18531      0.99696118
    879000  -296.85206      66.310739     -363.1628       353.10919     -361.19907      960.18531      0.99696118
    880000  -306.68323      49.8634       -356.54663      265.52599      2152.0531      960.18531      0.99696118
    881000  -291.6143       54.615984     -346.23029      290.83382     -735.37097      960.18531      0.99696118
    882000  -308.75698      54.717541     -363.47453      291.37462      998.52747      960.18531      0.99696118
    883000  -307.91404      48.952448     -356.86648      260.67511      3181.5335      960.18531      0.99696118
    884000  -302.31027      58.055093     -360.36537      309.14731      1225.5337      960.18531      0.99696118
    885000  -294.15248      60.160506     -354.31298      320.35878      5015.1695      960.18531      0.99696118
    886000  -308.25011      56.593524     -364.84363      301.36436      2838.9703      960.18531      0.99696118
    887000  -295.66458      63.196063     -358.86065      336.52333     -514.17407      960.18531      0.99696118
    888000  -322.24314      49.427628     -371.67077      263.20547      927.84845      960.18531      0.99696118
    889000  -313.06513      52.096039     -365.16117      277.41495     -1193.2347      960.18531      0.99696118
    890000  -307.47458      52.797044     -360.27162      281.14784     -2574.3232      960.18531      0.99696118
    891000  -319.35619      51.56942      -370.92561      274.61066      1372.5259      960.18531      0.99696118
    892000  -322.29614      51.365487     -373.66163      273.52471      2231.3928      960.18531      0.99696118
    893000  -312.6751       58.802631     -371.47773      313.128        1053.8592      960.18531      0.99696118
    894000  -310.095        49.071287     -359.16629      261.30793      3353.4726      960.18531      0.99696118
    895000  -306.76264      64.76769      -371.53033      344.89234     -2138.8308      960.18531      0.99696118
    896000  -318.83962      51.295896     -370.13552      273.15413      5048.1839      960.18531      0.99696118
    897000  -306.63074      54.587056     -361.21779      290.67978     -1731.721       960.18531      0.99696118
    898000  -306.14796      56.861243     -363.0092       302.78998     -1423.4361      960.18531      0.99696118
    899000  -295.68814      61.354292     -357.04243      326.71577      1719.3092      960.18531      0.99696118
    900000  -299.41282      64.312777     -363.7256       342.46991     -2340.0672      960.18531      0.99696118
    901000  -306.34943      56.935918     -363.28534      303.18763      4.8999088      960.18531      0.99696118
    902000  -295.28261      68.210781     -363.49339      363.22704     -2688.2969      960.18531      0.99696118
    903000  -321.88478      55.046955     -376.93173      293.12877     -1383.8995      960.18531      0.99696118
    904000  -305.32876      67.430177     -372.75894      359.07027      1399.3757      960.18531      0.99696118
    905000  -309.00208      66.970342     -375.97242      356.62162      583.91927      960.18531      0.99696118
    906000  -310.21994      54.897202     -365.11714      292.33133      4040.5077      960.18531      0.99696118
    907000  -307.34897      60.994176     -368.34315      324.79813     -1899.7052      960.18531      0.99696118
    908000  -321.85683      55.487782     -377.34462      295.4762      -153.94578      960.18531      0.99696118
    909000  -296.30721      52.858587     -349.16579      281.47556      5400.6039      960.18531      0.99696118
    910000  -315.51378      59.625275     -375.13905      317.50864     -793.89756      960.18531      0.99696118
    911000  -300.70384      72.46769      -373.17153      385.89537     -746.3233       960.18531      0.99696118
    912000  -311.26954      60.095507     -371.36505      320.01265     -570.6959       960.18531      0.99696118
    913000  -312.6993       63.730624     -376.42992      339.3699       1407.1433      960.18531      0.99696118
    914000  -320.86918      48.744129     -369.61331      259.5658      -2321.417       960.18531      0.99696118
    915000  -309.90693      56.915132     -366.82206      303.07694      2171.426       960.18531      0.99696118
    916000  -303.07982      63.160067     -366.23989      336.33164      2443.9878      960.18531      0.99696118
    917000  -305.68357      61.181417     -366.86499      325.7952       4114.9185      960.18531      0.99696118
    918000  -308.20495      53.988077     -362.19303      287.49018     -575.43907      960.18531      0.99696118
    919000  -308.62845      56.597242     -365.22569      301.38416      2546.7624      960.18531      0.99696118
    920000  -298.54427      61.798671     -360.34294      329.08212     -3600.463       960.18531      0.99696118
    921000  -303.34847      62.33005      -365.67852      331.91175     -1303.4739      960.18531      0.99696118
    922000  -312.91383      43.067107     -355.98094      229.33527      4133.1057      960.18531      0.99696118
    923000  -295.41692      68.497327     -363.91425      364.75291     -1053.4175      960.18531      0.99696118
    924000  -304.435        49.218111     -353.65311      262.08978      2109.2502      960.18531      0.99696118
    925000  -307.57292      58.064641     -365.63757      309.19815      1388.3149      960.18531      0.99696118
    926000  -308.56078      62.192419     -370.7532       331.17885      145.44713      960.18531      0.99696118
    927000  -307.37943      64.006359     -371.38579      340.83821     -1173.5673      960.18531      0.99696118
    928000  -324.87863      48.624024     -373.50265      258.92623      2022.3571      960.18531      0.99696118
    929000  -326.19113      52.747351     -378.93848      280.88322      488.68376      960.18531      0.99696118
    930000  -317.47221      53.391652     -370.86386      284.31417     -1416.5217      960.18531      0.99696118
    931000  -314.75429      53.298491     -368.05279      283.81809      2022.2998      960.18531      0.99696118
    932000  -296.13077      66.675695     -362.80646      355.0526       710.93429      960.18531      0.99696118
    933000  -327.14424      53.101058     -380.24529      282.76674     -961.35459      960.18531      0.99696118
    934000  -315.76641      51.696783     -367.46319      275.28888      2561.1929      960.18531      0.99696118
    935000  -299.87984      55.742579     -355.62242      296.83302      1093.8231      960.18531      0.99696118
    936000  -308.47488      61.812001     -370.28688      329.1531      -2585.4269      960.18531      0.99696118
    937000  -305.87997      51.856119     -357.73609      276.13735     -598.90004      960.18531      0.99696118
    938000  -294.08281      55.439219     -349.52203      295.21761     -2625.3392      960.18531      0.99696118
    939000  -311.06314      63.067976     -374.13111      335.84126      4556.6496      960.18531      0.99696118
    940000  -297.60086      64.09174      -361.6926       341.29287     -1498.0443      960.18531      0.99696118
    941000  -338.09181      50.512061     -388.60387      268.98015     -3903.9694      960.18531      0.99696118
    942000  -316.62083      59.747847     -376.36868      318.16134      1244.9035      960.18531      0.99696118
    943000  -339.48041      48.625681     -388.10609      258.93505      3364.2885      960.18531      0.99696118
    944000  -302.3215       64.006793     -366.3283       340.84052      2945.1847      960.18531      0.99696118
    945000  -332.65514      52.664609     -385.31975      280.44262     -1171.0112      960.18531      0.99696118
    946000  -317.04296      52.305568     -369.34853      278.5307      -881.55075      960.18531      0.99696118
    947000  -334.71329      54.767678     -389.48097      291.6416       807.70233      960.18531      0.99696118
    948000  -325.04243      43.940754     -368.98318      233.9875      -1690.6648      960.18531      0.99696118
    949000  -315.61816      47.905785     -363.52395      255.10156      245.96495      960.18531      0.99696118
    950000  -308.21915      55.911334     -364.13049      297.73165     -269.43033      960.18531      0.99696118
    951000  -308.91064      62.653591     -371.56423      333.63463      2815.541       960.18531      0.99696118
    952000  -303.00003      66.82771      -369.82774      355.86209      3515.7864      960.18531      0.99696118
    953000  -302.50522      51.97455      -354.47977      276.76801     -983.56661      960.18531      0.99696118
    954000  -311.85411      55.151294     -367.0054       293.68438      212.51944      960.18531      0.99696118
    955000  -307.62653      52.671538     -360.29807      280.47951     -3035.1857      960.18531      0.99696118
    956000  -307.48355      62.082077     -369.56562      330.59127      1787.9274      960.18531      0.99696118
    957000  -318.53976      52.880831     -371.42059      281.59402     -2356.1265      960.18531      0.99696118
    958000  -307.06587      60.776009     -367.84188      323.63637      1661.4368      960.18531      0.99696118
    959000  -311.85836      56.04617      -367.90453      298.44966      2548.4807      960.18531      0.99696118
    960000  -325.95875      54.879049     -380.8378       292.23466      2549.0604      960.18531      0.99696118
    961000  -311.03518      68.790562     -379.82574      366.31441     -150.31586      960.18531      0.99696118
    962000  -325.78804      40.645677     -366.43372      216.44099     -2152.9816      960.18531      0.99696118
    963000  -302.87006      55.548093     -358.41816      295.79737      1341.9045      960.18531      0.99696118
    964000  -333.15238      52.146709     -385.29909      277.68477     -1019.126       960.18531      0.99696118
    965000  -313.68303      49.797286     -363.48032      265.17393      2464.8746      960.18531      0.99696118
    966000  -294.0885       57.208909     -351.29741      304.64133      230.842        960.18531      0.99696118
    967000  -310.78975      56.089625     -366.87938      298.68106     -673.12072      960.18531      0.99696118
    968000  -322.15928      47.839807     -369.99909      254.75022      2774.176       960.18531      0.99696118
    969000  -318.47861      46.881577     -365.36019      249.64758     -2410.9394      960.18531      0.99696118
    970000  -294.33306      66.04913      -360.38219      351.7161      -809.76219      960.18531      0.99696118
    971000  -316.18099      52.33861      -368.5196       278.70665      506.91493      960.18531      0.99696118
    972000  -308.79212      62.990842     -371.78296      335.43051     -772.4684       960.18531      0.99696118
    973000  -307.54258      55.818522     -363.3611       297.23742     -898.38003      960.18531      0.99696118
    974000  -309.41334      66.363407     -375.77674      353.38965      1783.78        960.18531      0.99696118
    975000  -328.07505      50.326154     -378.40121      267.99018      219.96468      960.18531      0.99696118
    976000  -330.89449      44.148713     -375.04321      235.09489     -1581.625       960.18531      0.99696118
    977000  -314.15355      58.406338     -372.55989      311.01771      2072.1416      960.18531      0.99696118
    978000  -339.89704      48.030193     -387.92723      255.76404     -1495.2754      960.18531      0.99696118
    979000  -315.2508       54.448867     -369.69967      289.94391      2033.8958      960.18531      0.99696118
    980000  -321.34974      51.416971     -372.76671      273.79886     -1084.3933      960.18531      0.99696118
    981000  -318.36041      59.478031     -377.83844      316.72455     -1744.9244      960.18531      0.99696118
    982000  -329.34535      50.435711     -379.78106      268.57358      65.919381      960.18531      0.99696118
    983000  -329.84357      63.02288      -392.86645      335.60112      150.26771      960.18531      0.99696118
    984000  -323.75004      57.381233     -381.13127      305.55896     -1625.8733      960.18531      0.99696118
    985000  -314.60487      55.25201      -369.85688      294.22071     -2308.391       960.18531      0.99696118
    986000  -323.69471      59.091864     -382.78657      314.66819      1727.0392      960.18531      0.99696118
    987000  -308.48188      60.448899     -368.93078      321.89449     -4361.4199      960.18531      0.99696118
    988000  -316.30371      61.23216      -377.53587      326.06541     -887.51231      960.18531      0.99696118
    989000  -313.81554      55.191158     -369.0067       293.89666     -850.55513      960.18531      0.99696118
    990000  -324.61316      48.568356     -373.18152      258.6298       4056.8044      960.18531      0.99696118
    991000  -318.27184      53.079657     -371.35149      282.65278     -3620.8149      960.18531      0.99696118
    992000  -314.56259      61.883621     -376.44622      329.53448     -1018.1146      960.18531      0.99696118
    993000  -295.36129      61.173844     -356.53514      325.75487     -1756.5528      960.18531      0.99696118
    994000  -312.90394      55.750389     -368.65432      296.8746       856.21028      960.18531      0.99696118
    995000  -306.16129      64.436103     -370.59739      343.12662     -2269.5412      960.18531      0.99696118
    996000  -322.2741       54.438164     -376.71226      289.88692     -4711.4243      960.18531      0.99696118
    997000  -318.07169      57.803469     -375.87516      307.8074       1537.9399      960.18531      0.99696118
    998000  -322.75049      43.257961     -366.00845      230.35158      640.41616      960.18531      0.99696118
    999000  -322.25619      61.944983     -384.20117      329.86124     -234.13728      960.18531      0.99696118
   1000000  -326.45016      51.907358     -378.35752      276.41021     -1084.8881      960.18531      0.99696118
Loop time of 432.68 on 1 procs for 1000000 steps with 96 atoms

Performance: 199.685 ns/day, 0.120 hours/ns, 2311.174 timesteps/s
99.7% CPU use with 1 MPI tasks x 1 OpenMP threads

MPI task timing breakdown:
Section |  min time  |  avg time  |  max time  |%varavg| %total
---------------------------------------------------------------
Pair    | 338.35     | 338.35     | 338.35     |   0.0 | 78.20
Bond    | 0.053609   | 0.053609   | 0.053609   |   0.0 |  0.01
Kspace  | 58.904     | 58.904     | 58.904     |   0.0 | 13.61
Neigh   | 16.248     | 16.248     | 16.248     |   0.0 |  3.76
Comm    | 11.485     | 11.485     | 11.485     |   0.0 |  2.65
Output  | 0.14686    | 0.14686    | 0.14686    |   0.0 |  0.03
Modify  | 5.8425     | 5.8425     | 5.8425     |   0.0 |  1.35
Other   |            | 1.653      |            |       |  0.38

Nlocal:             96 ave          96 max          96 min
Histogram: 1 0 0 0 0 0 0 0 0 0
Nghost:           3775 ave        3775 max        3775 min
Histogram: 1 0 0 0 0 0 0 0 0 0
Neighs:          34657 ave       34657 max       34657 min
Histogram: 1 0 0 0 0 0 0 0 0 0

Total # of neighbors = 34657
Ave neighs/atom = 361.01042
Ave special neighs/atom = 2
Neighbor list builds = 22975
Dangerous builds = 0
# write data file
write_data data.after_eq.lmp
System init for write_data ...
PPPM initialization ...
  using 12-bit tables for long-range coulomb (src/kspace.cpp:342)
  G vector (1/distance) = 0.30847861
  grid = 9 9 9
  stencil order = 5
  estimated absolute RMS force accuracy = 0.0027675926
  estimated relative force accuracy = 8.334523e-06
  using double precision FFTW3
  3d grid and FFT values/proc = 4096 729
Generated 1 of 1 mixed pair_coeff terms from geometric mixing rule

# clean up
undump dEQUI

# production
# 2 ns
dump dPROD all custom 1000 prod.lammpstrj id element xu yu zu
dump_modify dPROD element H O sort id
run 2000000
PPPM initialization ...
  using 12-bit tables for long-range coulomb (src/kspace.cpp:342)
  G vector (1/distance) = 0.30847861
  grid = 9 9 9
  stencil order = 5
  estimated absolute RMS force accuracy = 0.0027675926
  estimated relative force accuracy = 8.334523e-06
  using double precision FFTW3
  3d grid and FFT values/proc = 4096 729
Generated 1 of 1 mixed pair_coeff terms from geometric mixing rule
Per MPI rank memory allocation (min/avg/max) = 9.327 | 9.327 | 9.327 Mbytes
   Step         TotEng         KinEng         PotEng          Temp          Press          Volume        Density
   1000000  -326.45016      51.907358     -378.35752      276.41021     -1083.3966      960.18531      0.99696118
   1001000  -295.34795      63.806808     -359.15476      339.77559     -872.94754      960.18531      0.99696118
   1002000  -318.10825      53.849817     -371.95807      286.75393      173.14471      960.18531      0.99696118
   1003000  -313.94966      58.726462     -372.67613      312.7224       595.43008      960.18531      0.99696118
   1004000  -327.62275      43.628815     -371.25156      232.3264       1913.8671      960.18531      0.99696118
   1005000  -316.25927      65.129524     -381.38879      346.81914     -2112.7665      960.18531      0.99696118
   1006000  -316.89104      62.438521     -379.32956      332.48936      288.0029       960.18531      0.99696118
   1007000  -316.52072      54.107875     -370.62859      288.12811     -46.193163      960.18531      0.99696118
   1008000  -316.86668      56.49069      -373.35737      300.81676     -660.26872      960.18531      0.99696118
   1009000  -296.93979      58.015038     -354.95483      308.93402      1810.762       960.18531      0.99696118
   1010000  -308.76283      58.940705     -367.70353      313.86326      2540.2668      960.18531      0.99696118
   1011000  -327.45464      53.865301     -381.31994      286.83639     -1029.8829      960.18531      0.99696118
   1012000  -316.15176      53.931254     -370.08301      287.18759      565.18373      960.18531      0.99696118
   1013000  -314.22847      59.122256     -373.35073      314.83003     -1259.1727      960.18531      0.99696118
   1014000  -304.93873      58.505553     -363.44428      311.54604     -1975.053       960.18531      0.99696118
   1015000  -301.9933       58.3476       -360.3409       310.70493     -2847.9005      960.18531      0.99696118
   1016000  -314.13022      57.920437     -372.05066      308.43026     -688.46522      960.18531      0.99696118
   1017000  -317.6128       64.371969     -381.98477      342.7851       804.58501      960.18531      0.99696118
   1018000  -333.33146      55.662692     -388.99415      296.40761      1719.9377      960.18531      0.99696118
   1019000  -310.15944      63.428791     -373.58823      337.76262      1124.4939      960.18531      0.99696118
   1020000  -313.1904       53.329842     -366.52024      283.98503      914.28411      960.18531      0.99696118
   1021000  -307.44283      57.934056     -365.37689      308.50278      2973.103       960.18531      0.99696118
   1022000  -328.05409      53.950208     -382.0043       287.28852      1051.1861      960.18531      0.99696118
   1023000  -311.62564      60.417498     -372.04314      321.72728      2731.6289      960.18531      0.99696118
   1024000  -311.95932      53.589985     -365.54931      285.37031      2513.4558      960.18531      0.99696118
   1025000  -321.2674       60.459699     -381.7271       321.952        193.29582      960.18531      0.99696118
   1026000  -308.26414      53.883662     -362.1478       286.93416     -2502.181       960.18531      0.99696118
   1027000  -299.01503      59.002069     -358.0171       314.19002      1600.1689      960.18531      0.99696118
   1028000  -304.01265      55.079593     -359.09224      293.30257      1716.793       960.18531      0.99696118
   1029000  -324.01642      50.774216     -374.79063      270.37615      1693.657       960.18531      0.99696118
   1030000  -303.56959      61.317185     -364.88678      326.51817      716.38633      960.18531      0.99696118
   1031000  -324.06733      56.300663     -380.36799      299.80485     -929.54362      960.18531      0.99696118
   1032000  -304.48074      57.584689     -362.06543      306.64238      2321.996       960.18531      0.99696118
   1033000  -319.7882       52.451515     -372.23972      279.30788     -1345.1274      960.18531      0.99696118
   1034000  -329.45756      47.689006     -377.14656      253.9472      -2806.4447      960.18531      0.99696118
   1035000  -316.97885      59.63364      -376.61249      317.55318     -3667.3858      960.18531      0.99696118
   1036000  -328.45648      49.375543     -377.83203      262.92812     -606.99764      960.18531      0.99696118
   1037000  -324.48669      55.350187     -379.83688      294.7435      -4872.2887      960.18531      0.99696118
   1038000  -314.2654       55.548093     -369.8135       295.79737     -1685.4998      960.18531      0.99696118
   1039000  -311.97672      51.185835     -363.16255      272.56804     -855.87333      960.18531      0.99696118
   1040000  -310.61794      46.213345     -356.83128      246.0892      -112.85564      960.18531      0.99696118
   1041000  -315.73226      47.397551     -363.12981      252.39518      1465.6969      960.18531      0.99696118
   1042000  -318.76705      53.155376     -371.92243      283.05598     -3823.967       960.18531      0.99696118
   1043000  -329.00215      46.145297     -375.14745      245.72684     -127.75618      960.18531      0.99696118
   1044000  -323.64503      46.534019     -370.17905      247.79681     -3422.3821      960.18531      0.99696118
   1045000  -323.13826      58.643532     -381.78179      312.28079      672.55914      960.18531      0.99696118
   1046000  -315.32111      57.819309     -373.14042      307.89175      1871.8373      960.18531      0.99696118
   1047000  -309.1328       60.877458     -370.01026      324.1766      -838.45049      960.18531      0.99696118
   1048000  -309.25895      48.093522     -357.35248      256.10127     -2016.5293      960.18531      0.99696118
   1049000  -318.06458      57.627355     -375.69194      306.86958     -722.32618      960.18531      0.99696118
   1050000  -307.9699       61.554064     -369.52396      327.77957     -364.42517      960.18531      0.99696118
   1051000  -301.65317      64.330705     -365.98387      342.56537      110.56717      960.18531      0.99696118
   1052000  -318.1617       52.588994     -370.7507       280.03997     -1625.0622      960.18531      0.99696118
   1053000  -294.19376      65.09822      -359.29198      346.65244     -2197.5319      960.18531      0.99696118
   1054000  -299.09345      59.892308     -358.98576      318.9306       328.01774      960.18531      0.99696118
   1055000  -315.18942      56.687065     -371.87649      301.86247     -2916.9182      960.18531      0.99696118
   1056000  -310.79239      60.265064     -371.05745      320.91556      1596.2215      960.18531      0.99696118
   1057000  -303.10697      52.103598     -355.21057      277.4552      -3.0514461      960.18531      0.99696118
   1058000  -312.59312      49.292765     -361.88589      262.48732     -294.80703      960.18531      0.99696118
   1059000  -318.50544      55.221513     -373.72695      294.05831      864.44477      960.18531      0.99696118
   1060000  -311.02763      60.901922     -371.92955      324.30687     -2218.5107      960.18531      0.99696118
   1061000  -302.31711      54.127244     -356.44435      288.23125      1880.4994      960.18531      0.99696118
   1062000  -307.55127      58.049184     -365.60046      309.11584     -1336.592       960.18531      0.99696118
   1063000  -324.80593      56.957188     -381.76312      303.30089     -1797.7826      960.18531      0.99696118
   1064000  -324.16315      55.763038     -379.92619      296.94196      12.387202      960.18531      0.99696118
   1065000  -321.37402      50.070747     -371.44476      266.63012     -941.49445      960.18531      0.99696118
   1066000  -322.89794      62.794766     -385.69271      334.38639     -1976.4416      960.18531      0.99696118
   1067000  -316.41103      50.394229     -366.80526      268.35269     -2472.5385      960.18531      0.99696118
   1068000  -324.58854      48.131409     -372.71995      256.30302      392.17279      960.18531      0.99696118
   1069000  -311.0763       48.199391     -359.27569      256.66503     -642.87809      960.18531      0.99696118
   1070000  -321.16157      53.397701     -374.55927      284.34638      195.17955      960.18531      0.99696118
   1071000  -317.8971       56.608755     -374.50586      301.44546      2430.0473      960.18531      0.99696118
   1072000  -334.05853      44.851099     -378.90962      238.83514      587.69731      960.18531      0.99696118
   1073000  -302.65452      69.959438     -372.61396      372.53876      820.5199       960.18531      0.99696118
   1074000  -329.98426      47.609829     -377.59409      253.52557      2898.4321      960.18531      0.99696118
   1075000  -303.5652       56.049493     -359.61469      298.46735     -2963.559       960.18531      0.99696118
   1076000  -323.01304      45.942146     -368.95518      244.64505      227.74699      960.18531      0.99696118
   1077000  -328.72407      51.991534     -380.7156       276.85845     -3647.3342      960.18531      0.99696118
   1078000  -319.03747      60.30463      -379.3421       321.12625     -1516.7801      960.18531      0.99696118
   1079000  -312.76039      47.743762     -360.50415      254.23877      6869.057       960.18531      0.99696118
   1080000  -322.52509      51.426736     -373.95183      273.85086     -1577.6369      960.18531      0.99696118
   1081000  -306.86056      57.54431      -364.40487      306.42736     -1363.8902      960.18531      0.99696118
   1082000  -305.25702      55.022719     -360.27974      292.99971      709.05951      960.18531      0.99696118
   1083000  -318.34003      48.317212     -366.65724      257.29243      5730.1384      960.18531      0.99696118
   1084000  -315.2083       55.49194      -370.70024      295.49835      1399.5994      960.18531      0.99696118
   1085000  -321.44037      50.822572     -372.26294      270.63365      8.6215283      960.18531      0.99696118
   1086000  -295.00242      71.33044      -366.33286      379.83943      2019.9802      960.18531      0.99696118
   1087000  -330.17105      46.581166     -376.75221      248.04787      1761.2296      960.18531      0.99696118
   1088000  -336.34938      55.326091     -391.67547      294.61519     -4163.5126      960.18531      0.99696118
   1089000  -312.51161      61.957402     -374.46901      329.92737      2182.7228      960.18531      0.99696118
   1090000  -304.96424      60.605901     -365.57014      322.73054     -2792.1156      960.18531      0.99696118
   1091000  -309.66971      59.268504     -368.93821      315.60881      1571.5087      960.18531      0.99696118
   1092000  -320.29438      51.281663     -371.57605      273.07834     -1333.6501      960.18531      0.99696118
   1093000  -309.42915      50.644712     -360.07386      269.68653      496.79168      960.18531      0.99696118
   1094000  -315.3596       54.861843     -370.22144      292.14304      5022.0949      960.18531      0.99696118
   1095000  -321.16496      62.533672     -383.69863      332.99605      1125.4141      960.18531      0.99696118
   1096000  -303.84098      57.535171     -361.37615      306.37869      878.63583      960.18531      0.99696118
   1097000  -320.96398      48.433288     -369.39726      257.91055     -1479.6322      960.18531      0.99696118
   1098000  -326.72878      53.04537      -379.77415      282.4702       479.74097      960.18531      0.99696118
   1099000  -321.26322      53.60941      -374.87263      285.47375     -47.254219      960.18531      0.99696118
   1100000  -311.26896      61.957303     -373.22627      329.92684      3433.7329      960.18531      0.99696118
   1101000  -309.97695      53.614915     -363.59187      285.50306      3321.2058      960.18531      0.99696118
   1102000  -315.72963      58.772498     -374.50212      312.96754      2733.8451      960.18531      0.99696118
   1103000  -314.68556      55.814766     -370.50032      297.21742      1684.4375      960.18531      0.99696118
   1104000  -305.96432      48.435185     -354.39951      257.92065      1991.5642      960.18531      0.99696118
   1105000  -314.73745      48.813001     -363.55045      259.93255      2871.1574      960.18531      0.99696118
   1106000  -303.75403      58.300763     -362.05479      310.45552      1279.6892      960.18531      0.99696118
   1107000  -312.17911      57.628268     -369.80737      306.87444      989.60449      960.18531      0.99696118
   1108000  -322.94012      53.528822     -376.46894      285.04461     -4596.4143      960.18531      0.99696118
   1109000  -330.90657      51.408175     -382.31475      273.75202     -2452.252       960.18531      0.99696118
   1110000  -320.06751      54.183171     -374.25068      288.52907     -912.00992      960.18531      0.99696118
   1111000  -308.64426      62.634856     -371.27912      333.53486      1178.8233      960.18531      0.99696118
   1112000  -309.17848      60.336938     -369.51542      321.29829      438.14611      960.18531      0.99696118
   1113000  -323.72379      51.798149     -375.52194      275.82866      109.37309      960.18531      0.99696118
   1114000  -321.54274      56.360122     -377.90286      300.12148      934.36224      960.18531      0.99696118
   1115000  -296.39244      59.178114     -355.57055      315.12748     -1792.2638      960.18531      0.99696118
   1116000  -314.36938      55.046407     -369.41579      293.12585     -1637.5963      960.18531      0.99696118
   1117000  -314.71845      54.31565      -369.0341       289.23452      939.45002      960.18531      0.99696118
   1118000  -297.51783      54.105531     -351.62336      288.11562     -349.6137       960.18531      0.99696118
   1119000  -308.23787      54.04596      -362.28383      287.79841      1290.1027      960.18531      0.99696118
   1120000  -317.06868      55.229668     -372.29835      294.10173     -1591.5216      960.18531      0.99696118
   1121000  -314.60752      56.847375     -371.4549       302.71613      1965.5366      960.18531      0.99696118
   1122000  -307.41759      53.006954     -360.42454      282.26563     -1051.8439      960.18531      0.99696118
   1123000  -327.06592      53.17149      -380.23741      283.14179      3212.5007      960.18531      0.99696118
   1124000  -319.75444      54.861909     -374.61635      292.14339      1986.4874      960.18531      0.99696118
   1125000  -314.24394      54.163235     -368.40718      288.4229       304.90095      960.18531      0.99696118
   1126000  -318.74992      45.510759     -364.26068      242.34788     -3003.7677      960.18531      0.99696118
   1127000  -337.79853      47.283501     -385.08203      251.78785      3042.9374      960.18531      0.99696118
   1128000  -326.78176      52.579403     -379.36117      279.98889      1608.783       960.18531      0.99696118
   1129000  -313.83922      50.517566     -364.35679      269.00947      1872.5551      960.18531      0.99696118
   1130000  -317.57034      52.888226     -370.45856      281.63339     -1684.3577      960.18531      0.99696118
   1131000  -297.87369      62.775011     -360.6487       334.2812       897.10816      960.18531      0.99696118
   1132000  -309.58398      58.859388     -368.44337      313.43024      2647.7879      960.18531      0.99696118
   1133000  -309.59271      60.959539     -370.55225      324.61368     -2505.0425      960.18531      0.99696118
   1134000  -315.11582      52.854271     -367.97009      281.45258      3520.2084      960.18531      0.99696118
   1135000  -301.95073      62.890628     -364.84135      334.89686     -3848.0618      960.18531      0.99696118
   1136000  -322.10855      57.401708     -379.51025      305.66799     -172.45757      960.18531      0.99696118
   1137000  -312.41483      56.375763     -368.79059      300.20476      3609.2841      960.18531      0.99696118
   1138000  -288.98239      61.972818     -350.95521      330.00947     -2940.6374      960.18531      0.99696118
   1139000  -311.19726      59.329624     -370.52688      315.93427     -534.97619      960.18531      0.99696118
   1140000  -326.07631      44.712517     -370.78883      238.09719      1612.5168      960.18531      0.99696118
   1141000  -320.76008      58.045872     -378.80596      309.09821     -630.75272      960.18531      0.99696118
   1142000  -311.20682      58.380814     -369.58763      310.8818       1642.7027      960.18531      0.99696118
   1143000  -295.2148       66.044571     -361.25937      351.69183     -1480.1613      960.18531      0.99696118
   1144000  -315.52812      59.354729     -374.88285      316.06796     -1379.569       960.18531      0.99696118
   1145000  -315.25003      56.492409     -371.74244      300.82591      460.2904       960.18531      0.99696118
   1146000  -303.81932      63.429034     -367.24835      337.76391      3571.8693      960.18531      0.99696118
   1147000  -303.13954      62.353165     -365.4927       332.03484      1899.6145      960.18531      0.99696118
   1148000  -325.5213       50.595627     -376.11693      269.42515      436.69225      960.18531      0.99696118
   1149000  -284.52639      59.649949     -344.17633      317.64003     -565.75851      960.18531      0.99696118
   1150000  -318.29804      55.647698     -373.94574      296.32777     -1399.1473      960.18531      0.99696118
   1151000  -332.31302      48.043686     -380.35671      255.83589      2117.0815      960.18531      0.99696118
   1152000  -307.00761      63.748355     -370.75597      339.46432      4105.2956      960.18531      0.99696118
   1153000  -318.37882      44.616117     -362.99493      237.58385     -3749.3868      960.18531      0.99696118
   1154000  -303.75342      62.115962     -365.86938      330.77172      3505.3265      960.18531      0.99696118
   1155000  -327.53781      46.395941     -373.93375      247.06154      433.74702      960.18531      0.99696118
   1156000  -308.65504      53.941336     -362.59638      287.24128      1574.164       960.18531      0.99696118
   1157000  -281.44191      68.115713     -349.55763      362.7208       1274.7691      960.18531      0.99696118
   1158000  -314.32398      49.936608     -364.26059      265.91583      383.80873      960.18531      0.99696118
   1159000  -323.42507      47.52776      -370.95283      253.08855     -934.94406      960.18531      0.99696118
   1160000  -310.76286      63.555643     -374.3185       338.43811      135.33549      960.18531      0.99696118
   1161000  -320.24242      50.521407     -370.76382      269.02992     -1409.6525      960.18531      0.99696118
   1162000  -302.27091      61.465679     -363.73658      327.30891     -3667.4372      960.18531      0.99696118
   1163000  -311.14138      57.943634     -369.08501      308.55378     -495.88633      960.18531      0.99696118
   1164000  -310.2163       60.076834     -370.29313      319.91322     -2189.6877      960.18531      0.99696118
   1165000  -314.74269      53.795052     -368.53774      286.46231     -1045.4854      960.18531      0.99696118
   1166000  -301.02935      59.634567     -360.66392      317.55812     -3518.6895      960.18531      0.99696118
   1167000  -328.74907      44.462348     -373.21142      236.76502     -1020.9341      960.18531      0.99696118
   1168000  -304.22556      63.26269      -367.48825      336.87812      856.31942      960.18531      0.99696118
   1169000  -322.9272       53.787765     -376.71496      286.4235      -3218.963       960.18531      0.99696118
   1170000  -305.44166      51.675898     -357.11756      275.17766     -1964.4128      960.18531      0.99696118
   1171000  -284.30764      57.501439     -341.80908      306.19907     -654.82434      960.18531      0.99696118
   1172000  -299.99348      63.268368     -363.26184      336.90836     -1977.8169      960.18531      0.99696118
   1173000  -308.20484      61.668387     -369.87323      328.38835      1814.4747      960.18531      0.99696118
   1174000  -307.50551      52.793853     -360.29937      281.13085     -341.10864      960.18531      0.99696118
   1175000  -310.3288       54.055837     -364.38464      287.851        1914.5477      960.18531      0.99696118
   1176000  -315.48161      55.303718     -370.78533      294.49605      3963.3738      960.18531      0.99696118
   1177000  -321.17615      47.257813     -368.43396      251.65106     -1551.2294      960.18531      0.99696118
   1178000  -306.97891      51.179288     -358.1582       272.53318     -1484.1583      960.18531      0.99696118
   1179000  -314.04745      66.2929       -380.34035      353.01419      2176.9464      960.18531      0.99696118
   1180000  -301.39705      58.448989     -359.84604      311.24483      4266.2096      960.18531      0.99696118
   1181000  -305.52146      69.178368     -374.69983      368.3795       2509.7904      960.18531      0.99696118
   1182000  -302.98027      52.88307      -355.86334      281.60594      349.25576      960.18531      0.99696118
   1183000  -315.88235      58.325134     -374.20748      310.5853       1221.8092      960.18531      0.99696118
   1184000  -312.07407      55.384006     -367.45808      294.92359     -1034.2992      960.18531      0.99696118
   1185000  -328.22899      58.542852     -386.77185      311.74466     -1645.6672      960.18531      0.99696118
   1186000  -327.45226      53.085347     -380.53761      282.68308      3073.5218      960.18531      0.99696118
   1187000  -324.51511      51.168631     -375.68374      272.47643      526.74252      960.18531      0.99696118
   1188000  -323.44282      53.795604     -377.23843      286.46525      459.80279      960.18531      0.99696118
   1189000  -330.72391      48.458938     -379.18285      258.04713     -2257.7236      960.18531      0.99696118
   1190000  -311.53546      55.597907     -367.13337      296.06263     -1248.3794      960.18531      0.99696118
   1191000  -305.02772      56.09566      -361.12338      298.7132      -253.25319      960.18531      0.99696118
   1192000  -330.96956      53.484425     -384.45399      284.80819     -2434.8902      960.18531      0.99696118
   1193000  -309.07105      63.070547     -372.1416       335.85494     -3673.4287      960.18531      0.99696118
   1194000  -334.77387      50.633409     -385.40728      269.62634     -2172.5365      960.18531      0.99696118
   1195000  -315.17739      55.721056     -370.89845      296.7184      -258.07822      960.18531      0.99696118
   1196000  -325.24545      60.878376     -386.12383      324.18149     -3324.1275      960.18531      0.99696118
   1197000  -328.31189      50.185188     -378.49708      267.23954      1697.0697      960.18531      0.99696118
   1198000  -308.40454      63.224665     -371.6292       336.67563      468.81193      960.18531      0.99696118
   1199000  -325.53963      48.596593     -374.13622      258.78016      968.41421      960.18531      0.99696118
   1200000  -314.69289      61.949254     -376.64214      329.88398      610.61701      960.18531      0.99696118
   1201000  -319.63449      57.317614     -376.9521       305.22018      91.07546       960.18531      0.99696118
   1202000  -312.13362      55.719741     -367.85336      296.7114      -4245.1277      960.18531      0.99696118
   1203000  -323.9772       55.162686     -379.13989      293.74505     -64.348804      960.18531      0.99696118
   1204000  -312.19464      58.246937     -370.44158      310.16889      212.66782      960.18531      0.99696118
   1205000  -318.75731      48.509565     -367.26688      258.31672      419.77419      960.18531      0.99696118
   1206000  -306.98474      55.359739     -362.34448      294.79437      12.032526      960.18531      0.99696118
   1207000  -283.59378      66.199247     -349.79303      352.51549      2333.0385      960.18531      0.99696118
   1208000  -315.72961      57.867142     -373.59675      308.14646     -487.07129      960.18531      0.99696118
   1209000  -324.91253      56.817182     -381.72971      302.55535     -510.81782      960.18531      0.99696118
   1210000  -303.08865      58.653065     -361.74172      312.33155      2264.0788      960.18531      0.99696118
   1211000  -318.02135      54.656642     -372.67799      291.05033      924.53689      960.18531      0.99696118
   1212000  -307.35191      64.760756     -372.11267      344.85542     -2657.9328      960.18531      0.99696118
   1213000  -332.51368      53.616907     -386.13059      285.51367      323.50838      960.18531      0.99696118
   1214000  -301.99062      53.153713     -355.14434      283.04713     -2735.5186      960.18531      0.99696118
   1215000  -325.66527      55.237347     -380.90261      294.14263     -613.08214      960.18531      0.99696118
   1216000  -315.33425      58.603463     -373.93771      312.06742     -180.85359      960.18531      0.99696118
   1217000  -308.47942      50.802764     -359.28218      270.52817      180.29484      960.18531      0.99696118
   1218000  -298.27837      62.521369     -360.79973      332.93053     -2417.2396      960.18531      0.99696118
   1219000  -316.90866      59.03135      -375.94001      314.34595     -1056.9409      960.18531      0.99696118
   1220000  -312.38275      57.863312     -370.24606      308.12607      1635.8255      960.18531      0.99696118
   1221000  -323.30967      51.393012     -374.70269      273.67128      4691.7993      960.18531      0.99696118
   1222000  -311.38361      52.499463     -363.88307      279.5632       9229.49        960.18531      0.99696118
   1223000  -322.63221      51.106408     -373.73861      272.14509     -1933.4555      960.18531      0.99696118
   1224000  -311.67123      52.765351     -364.43658      280.97908     -489.6158       960.18531      0.99696118
   1225000  -337.22542      51.852607     -389.07802      276.11865      909.73467      960.18531      0.99696118
   1226000  -318.77361      50.439475     -369.21308      268.59363      3957.5326      960.18531      0.99696118
   1227000  -309.074        55.649073     -364.72307      296.33509     -2242.1859      960.18531      0.99696118
   1228000  -292.73361      56.35227      -349.08588      300.07967     -4778.1542      960.18531      0.99696118
   1229000  -335.9197       55.631459     -391.55116      296.2413      -1508.3229      960.18531      0.99696118
   1230000  -321.92605      53.092274     -375.01833      282.71997     -330.73087      960.18531      0.99696118
   1231000  -303.73839      58.677279     -362.41567      312.46049      1224.9791      960.18531      0.99696118
   1232000  -298.27589      68.081734     -366.35763      362.53986      1527.8945      960.18531      0.99696118
   1233000  -320.29014      53.69726      -373.9874       285.94155      1381.7494      960.18531      0.99696118
   1234000  -309.10368      66.670314     -375.77399      355.02395     -29.798065      960.18531      0.99696118
   1235000  -316.36485      51.996738     -368.36159      276.88616     -2330.9338      960.18531      0.99696118
   1236000  -301.24359      57.779965     -359.02355      307.68224      3720.7451      960.18531      0.99696118
   1237000  -314.07032      52.095625     -366.16594      277.41274      1603.7556      960.18531      0.99696118
   1238000  -312.9239       60.444659     -373.36856      321.87191      804.42793      960.18531      0.99696118
   1239000  -303.98691      53.783855     -357.77077      286.40268     -154.87126      960.18531      0.99696118
   1240000  -312.70196      51.587151     -364.28911      274.70508      1095.2509      960.18531      0.99696118
   1241000  -324.7764       52.739353     -377.51575      280.84064     -3702.4613      960.18531      0.99696118
   1242000  -323.19457      55.848451     -379.04302      297.39679      2851.7284      960.18531      0.99696118
   1243000  -313.37363      64.655966     -378.0296       344.29741      797.56664      960.18531      0.99696118
   1244000  -309.01256      58.431919     -367.44448      311.15394     -3035.2583      960.18531      0.99696118
   1245000  -322.56557      50.493953     -373.05953      268.88373     -3035.5129      960.18531      0.99696118
   1246000  -297.66866      59.401059     -357.06972      316.31467      2450.6408      960.18531      0.99696118
   1247000  -325.45392      52.349714     -377.80364      278.76578      95.942382      960.18531      0.99696118
   1248000  -310.74423      55.478228     -366.22246      295.42533      894.00068      960.18531      0.99696118
   1249000  -314.03879      52.959423     -366.99821      282.01252     -113.36616      960.18531      0.99696118
   1250000  -329.58077      54.371161     -383.95193      289.53012     -1498.9016      960.18531      0.99696118
   1251000  -332.82664      58.94219      -391.76883      313.87116      1894.4817      960.18531      0.99696118
   1252000  -311.87101      62.045506     -373.91652      330.39653     -1051.3819      960.18531      0.99696118
   1253000  -311.80995      64.048298     -375.85825      341.06153     -2211.5849      960.18531      0.99696118
   1254000  -317.8811       56.466413     -374.34752      300.68748      943.98426      960.18531      0.99696118
   1255000  -309.9735       58.39674      -368.37024      310.9666       4101.3616      960.18531      0.99696118
   1256000  -296.05106      59.11058      -355.16164      314.76785      1107.8174      960.18531      0.99696118
   1257000  -309.28811      46.498752     -355.78686      247.60901     -3640.317       960.18531      0.99696118
   1258000  -309.28031      55.239166     -364.51947      294.15231      6279.8029      960.18531      0.99696118
   1259000  -309.67462      51.52203      -361.19665      274.35831     -240.05493      960.18531      0.99696118
   1260000  -315.33036      59.615443     -374.9458       317.45628     -1278.0002      960.18531      0.99696118
   1261000  -300.22899      61.247207     -361.4762       326.14554      1510.4012      960.18531      0.99696118
   1262000  -311.16116      44.315389     -355.47655      235.98246     -3871.8397      960.18531      0.99696118
   1263000  -305.61578      52.384161     -357.99994      278.94921      160.18826      960.18531      0.99696118
   1264000  -314.13298      58.918183     -373.05116      313.74332     -839.27104      960.18531      0.99696118
   1265000  -300.68602      60.207187     -360.8932       320.60736     -136.26812      960.18531      0.99696118
   1266000  -322.75538      58.437396     -381.19277      311.1831       94.228359      960.18531      0.99696118
   1267000  -302.81378      58.782966     -361.59675      313.02329     -2743.9731      960.18531      0.99696118
   1268000  -332.29182      56.456204     -388.74802      300.63312      1794.7011      960.18531      0.99696118
   1269000  -314.67852      66.559923     -381.23845      354.43611      15.155881      960.18531      0.99696118
   1270000  -309.46516      52.028093     -361.49325      277.05313      4048.254       960.18531      0.99696118
   1271000  -313.36465      55.594802     -368.95945      296.0461       1346.4561      960.18531      0.99696118
   1272000  -308.97521      66.639062     -375.61427      354.85753     -2890.6633      960.18531      0.99696118
   1273000  -309.56086      58.594041     -368.1549       312.01725      819.95412      960.18531      0.99696118
   1274000  -315.4425       60.337617     -375.78012      321.30191     -2710.7406      960.18531      0.99696118
   1275000  -302.93468      60.795737     -363.73042      323.74143     -4396.9177      960.18531      0.99696118
   1276000  -319.96733      51.624699     -371.59203      274.90503      3433.5536      960.18531      0.99696118
   1277000  -310.82863      50.080758     -360.90938      266.68344     -411.90701      960.18531      0.99696118
   1278000  -330.37751      49.142301     -379.51981      261.68609     -996.31118      960.18531      0.99696118
   1279000  -309.37456      63.329546     -372.7041       337.23413     -2297.7088      960.18531      0.99696118
   1280000  -315.46443      62.145782     -377.61021      330.93051      583.81477      960.18531      0.99696118
   1281000  -301.32422      66.93401      -368.25823      356.42815      1873.5959      960.18531      0.99696118
   1282000  -296.06173      59.913013     -355.97474      319.04086     -1202.5117      960.18531      0.99696118
   1283000  -280.88445      66.450447     -347.3349       353.85314     -310.59101      960.18531      0.99696118
   1284000  -310.50855      57.376961     -367.88551      305.53621     -1009.746       960.18531      0.99696118
   1285000  -300.50004      63.642745     -364.14279      338.90194     -1220.7181      960.18531      0.99696118
   1286000  -312.44227      60.341328     -372.7836       321.32167     -323.85399      960.18531      0.99696118
   1287000  -302.11709      67.304481     -369.42157      358.40093     -1458.7487      960.18531      0.99696118
   1288000  -306.60979      48.596176     -355.20597      258.77794     -1147.1757      960.18531      0.99696118
   1289000  -326.11841      57.719525     -383.83793      307.36039     -4404.4403      960.18531      0.99696118
   1290000  -309.14552      68.138185     -377.28371      362.84046     -566.64958      960.18531      0.99696118
   1291000  -318.03742      55.561749     -373.59917      295.87008      1368.9386      960.18531      0.99696118
   1292000  -323.51298      54.547482     -378.06046      290.46904      433.99626      960.18531      0.99696118
   1293000  -330.71311      59.62158      -390.33469      317.48896     -1489.2372      960.18531      0.99696118
   1294000  -322.38469      63.588434     -385.97312      338.61273     -36.325517      960.18531      0.99696118
   1295000  -311.50383      54.68617      -366.19         291.20757      188.20666      960.18531      0.99696118
   1296000  -304.98411      68.903131     -373.88725      366.91385      2257.1829      960.18531      0.99696118
   1297000  -322.64504      64.717587     -387.36263      344.62555     -1605.4331      960.18531      0.99696118
   1298000  -329.93702      47.022016     -376.95904      250.39543     -36.192617      960.18531      0.99696118
   1299000  -310.3312       55.158758     -365.48995      293.72413     -499.51963      960.18531      0.99696118
   1300000  -302.93063      60.073696     -363.00433      319.89651      5370.3927      960.18531      0.99696118
   1301000  -313.7769       52.166895     -365.9438       277.79226      1220.0249      960.18531      0.99696118
   1302000  -316.34738      54.020442     -370.36782      287.66252     -1699.9684      960.18531      0.99696118
   1303000  -309.60951      65.061562     -374.67107      346.45723     -530.85528      960.18531      0.99696118
   1304000  -303.62435      59.800838     -363.42518      318.44352     -658.63468      960.18531      0.99696118
   1305000  -293.6776       59.816882     -353.49448      318.52896      1884.2193      960.18531      0.99696118
   1306000  -324.36009      57.101946     -381.46204      304.07174     -3325.61        960.18531      0.99696118
   1307000  -314.42712      62.830443     -377.25757      334.57638     -2755.3603      960.18531      0.99696118
   1308000  -310.95879      58.549538     -369.50833      311.78027      2204.9128      960.18531      0.99696118
   1309000  -335.43844      49.584832     -385.02327      264.0426      -1369.4296      960.18531      0.99696118
   1310000  -296.97655      63.99692      -360.97347      340.78794     -1081.0801      960.18531      0.99696118
   1311000  -325.65331      62.742925     -388.39624      334.11034      1588.0588      960.18531      0.99696118
   1312000  -297.44972      55.532285     -352.98201      295.71319     -1373.5509      960.18531      0.99696118
   1313000  -314.1351       53.975046     -368.11015      287.42078     -325.59556      960.18531      0.99696118
   1314000  -317.33276      58.676326     -376.00909      312.45542     -393.87641      960.18531      0.99696118
   1315000  -314.42347      56.605636     -371.02911      301.42885     -966.27055      960.18531      0.99696118
   1316000  -309.85582      53.15296      -363.00878      283.04312     -658.4635       960.18531      0.99696118
   1317000  -311.71276      53.435475     -365.14823      284.54753      747.46077      960.18531      0.99696118
   1318000  -313.3614       51.736033     -365.09743      275.49789     -1697.7805      960.18531      0.99696118
   1319000  -300.75884      56.333776     -357.09261      299.98118     -939.79317      960.18531      0.99696118
   1320000  -320.50544      52.351671     -372.85711      278.7762       3081.1574      960.18531      0.99696118
   1321000  -317.60776      57.426745     -375.03451      305.80131     -3417.8869      960.18531      0.99696118
   1322000  -329.68105      53.583874     -383.26492      285.33776     -740.17897      960.18531      0.99696118
   1323000  -314.29579      56.242382     -370.53817      299.4945      -2805.1045      960.18531      0.99696118
   1324000  -319.50925      54.505568     -374.01482      290.24585      1387.4754      960.18531      0.99696118
   1325000  -311.86143      52.326372     -364.1878       278.64148      363.82865      960.18531      0.99696118
   1326000  -306.68059      51.85082      -358.53141      276.10914     -467.09067      960.18531      0.99696118
   1327000  -323.76447      61.587178     -385.35164      327.9559       974.809        960.18531      0.99696118
   1328000  -320.74814      53.809256     -374.55739      286.53794      1730.5035      960.18531      0.99696118
   1329000  -313.64912      57.64716      -371.29628      306.97504      2916.0755      960.18531      0.99696118
   1330000  -330.38709      62.848207     -393.2353       334.67097      641.91305      960.18531      0.99696118
   1331000  -317.29998      56.081776     -373.38175      298.63926      1201.9171      960.18531      0.99696118
   1332000  -312.62846      54.167571     -366.79603      288.44599      293.93882      960.18531      0.99696118
   1333000  -304.43891      48.516826     -352.95574      258.35539     -2071.5654      960.18531      0.99696118
   1334000  -316.19305      53.352558     -369.54561      284.10599     -1187.2015      960.18531      0.99696118
   1335000  -302.79481      56.337584     -359.13239      300.00146     -3089.2741      960.18531      0.99696118
   1336000  -321.8479       45.589173     -367.43708      242.76544     -2123.3         960.18531      0.99696118
   1337000  -302.28528      65.855852     -368.14114      350.68688      1944.817       960.18531      0.99696118
   1338000  -302.44423      57.861672     -360.3059       308.11733      79.838271      960.18531      0.99696118
   1339000  -322.78749      52.142885     -374.93038      277.6644       2125.7069      960.18531      0.99696118
   1340000  -321.94881      51.051682     -373.00049      271.85367     -962.37243      960.18531      0.99696118
   1341000  -314.79639      52.565818     -367.36221      279.91655      1094.197       960.18531      0.99696118
   1342000  -326.61249      55.539304     -382.1518       295.75056      2864.5308      960.18531      0.99696118
   1343000  -311.4397       54.565217     -366.00492      290.56348      980.68277      960.18531      0.99696118
   1344000  -303.21839      59.394446     -362.61283      316.27946      265.75679      960.18531      0.99696118
   1345000  -309.03165      54.916669     -363.94832      292.43499     -2267.997       960.18531      0.99696118
   1346000  -301.51662      59.604087     -361.12071      317.39581     -163.44314      960.18531      0.99696118
   1347000  -326.03515      48.098015     -374.13316      256.1252       1352.699       960.18531      0.99696118
   1348000  -326.43088      50.987976     -377.41886      271.51443     -1044.5083      960.18531      0.99696118
   1349000  -324.57914      60.696325     -385.27547      323.21205     -3004.4596      960.18531      0.99696118
   1350000  -319.54522      53.934149     -373.47937      287.203        159.32428      960.18531      0.99696118
   1351000  -322.35945      46.132577     -368.49203      245.6591      -420.23572      960.18531      0.99696118
   1352000  -306.86937      54.335877     -361.20524      289.34223     -347.67673      960.18531      0.99696118
   1353000  -321.29207      61.417828     -382.7099       327.05411     -268.58132      960.18531      0.99696118
   1354000  -313.52926      61.665269     -375.19453      328.37174      1239.645       960.18531      0.99696118
   1355000  -315.91408      53.063426     -368.97751      282.56635     -1427.5509      960.18531      0.99696118
   1356000  -312.60982      49.697159     -362.30698      264.64075      788.75027      960.18531      0.99696118
   1357000  -321.95071      45.830827     -367.78154      244.05227      475.7457       960.18531      0.99696118
   1358000  -292.80702      52.678764     -345.48578      280.51799      3337.4104      960.18531      0.99696118
   1359000  -313.32536      46.873053     -360.19842      249.60219      2183.7883      960.18531      0.99696118
   1360000  -314.66615      58.678062     -373.34422      312.46467      2727.8565      960.18531      0.99696118
   1361000  -311.813        52.579465     -364.39246      279.98922     -2375.4509      960.18531      0.99696118
   1362000  -309.19952      54.157729     -363.35725      288.39358     -2900.8386      960.18531      0.99696118
   1363000  -321.34897      60.581002     -381.92997      322.59795     -919.22452      960.18531      0.99696118
   1364000  -329.78953      48.091517     -377.88105      256.09059      409.33605      960.18531      0.99696118
   1365000  -297.22647      56.446692     -353.67316      300.58247     -1585.8754      960.18531      0.99696118
   1366000  -293.41569      64.91386      -358.32955      345.67071      2752.3887      960.18531      0.99696118
   1367000  -284.99527      56.930994     -341.92627      303.16141      2126.2689      960.18531      0.99696118
   1368000  -306.75613      54.336058     -361.09219      289.3432      -2049.9691      960.18531      0.99696118
   1369000  -301.1949       58.308969     -359.50387      310.49922      3457.475       960.18531      0.99696118
   1370000  -317.19713      54.267351     -371.46448      288.97733      3485.3532      960.18531      0.99696118
   1371000  -306.17039      60.711626     -366.88202      323.29353      177.73162      960.18531      0.99696118
   1372000  -299.75359      60.194611     -359.9482       320.54039     -1401.4875      960.18531      0.99696118
   1373000  -314.69917      62.584816     -377.28398      333.26839     -2496.2928      960.18531      0.99696118
   1374000  -318.13756      48.59271      -366.73027      258.75948     -2885.3826      960.18531      0.99696118
   1375000  -311.30139      52.423103     -363.72449      279.15658      1340.7868      960.18531      0.99696118
   1376000  -324.46696      49.621286     -374.08825      264.23672     -435.12548      960.18531      0.99696118
   1377000  -298.70516      65.21228      -363.91744      347.25982      1520.1457      960.18531      0.99696118
   1378000  -315.27116      55.589739     -370.8609       296.01914     -860.67206      960.18531      0.99696118
   1379000  -294.68981      67.547087     -362.23689      359.69282      312.67658      960.18531      0.99696118
   1380000  -320.37351      54.301659     -374.67517      289.16002      581.04335      960.18531      0.99696118
   1381000  -314.13813      55.156398     -369.29452      293.71156      3507.0977      960.18531      0.99696118
   1382000  -333.49812      56.975049     -390.47317      303.396        277.65314      960.18531      0.99696118
   1383000  -306.41485      55.131551     -361.5464       293.57925     -1218.6937      960.18531      0.99696118
   1384000  -311.14084      62.315964     -373.45681      331.83674      413.56142      960.18531      0.99696118
   1385000  -318.52101      55.995253     -374.51627      298.17853      1201.1279      960.18531      0.99696118
   1386000  -306.85878      59.010851     -365.86963      314.23679     -485.87536      960.18531      0.99696118
   1387000  -310.66772      55.708802     -366.37652      296.65315      8.7267981      960.18531      0.99696118
   1388000  -306.13145      61.35168      -367.48313      326.70186     -3439.1254      960.18531      0.99696118
   1389000  -311.53502      53.250093     -364.78512      283.56036      276.39636      960.18531      0.99696118
   1390000  -327.17443      47.227176     -374.40161      251.48792     -881.84094      960.18531      0.99696118
   1391000  -305.89712      57.687262     -363.58439      307.18859      4806.1521      960.18531      0.99696118
   1392000  -317.14793      45.958003     -363.10593      244.72949      1196.7105      960.18531      0.99696118
   1393000  -312.22256      60.147115     -372.36967      320.28747     -2211.7463      960.18531      0.99696118
   1394000  -322.38547      58.260195     -380.64567      310.23949      3296.5985      960.18531      0.99696118
   1395000  -303.07975      58.522532     -361.60228      311.63645      4514.6736      960.18531      0.99696118
   1396000  -307.66857      53.882218     -361.55079      286.92647     -2114.6596      960.18531      0.99696118
   1397000  -299.7477       64.869837     -364.61753      345.43629      675.37937      960.18531      0.99696118
   1398000  -310.45394      53.057618     -363.51155      282.53542     -1791.9824      960.18531      0.99696118
   1399000  -313.71871      60.49733      -374.21604      322.15239     -3190.5312      960.18531      0.99696118
   1400000  -310.72458      56.382732     -367.10731      300.24188     -797.72527      960.18531      0.99696118
   1401000  -322.20331      54.982961     -377.18627      292.788       -2946.5942      960.18531      0.99696118
   1402000  -323.28106      57.329292     -380.61035      305.28237     -108.61766      960.18531      0.99696118
   1403000  -323.22951      41.276736     -364.50625      219.80142     -1857.6818      960.18531      0.99696118
   1404000  -312.25358      50.412674     -362.66626      268.45091      1673.0729      960.18531      0.99696118
   1405000  -311.08955      58.224624     -369.31417      310.05008     -412.66492      960.18531      0.99696118
   1406000  -330.59759      49.769165     -380.36675      265.02418     -1669.1547      960.18531      0.99696118
   1407000  -303.26974      54.85702      -358.12676      292.11736      1812.1059      960.18531      0.99696118
   1408000  -323.6829       52.976948     -376.65985      282.10585     -1366.9304      960.18531      0.99696118
   1409000  -298.63142      63.136057     -361.76747      336.20379     -1029.8809      960.18531      0.99696118
   1410000  -319.74413      55.812708     -375.55684      297.20646     -2669.2784      960.18531      0.99696118
   1411000  -315.29341      59.45503      -374.74844      316.60207      3742.2701      960.18531      0.99696118
   1412000  -328.35224      55.625592     -383.97783      296.21006     -516.20072      960.18531      0.99696118
   1413000  -313.89777      46.989599     -360.88737      250.2228      -1203.4221      960.18531      0.99696118
   1414000  -288.30419      64.710791     -353.01498      344.58936     -1467.0862      960.18531      0.99696118
   1415000  -316.89658      52.720892     -369.61747      280.74233     -3600.9368      960.18531      0.99696118
   1416000  -309.30649      61.722987     -371.02948      328.6791      -849.07585      960.18531      0.99696118
   1417000  -322.22631      46.463591     -368.6899       247.42178     -949.58088      960.18531      0.99696118
   1418000  -308.91108      61.308657     -370.21973      326.47276      967.62099      960.18531      0.99696118
   1419000  -314.11357      43.471865     -357.58543      231.49063      3763.9617      960.18531      0.99696118
   1420000  -316.61473      57.085932     -373.70066      303.98646     -324.24541      960.18531      0.99696118
   1421000  -300.3437       62.166293     -362.50999      331.03973     -913.63501      960.18531      0.99696118
   1422000  -299.06892      53.240262     -352.30918      283.50801     -649.32418      960.18531      0.99696118
   1423000  -317.07649      50.032599     -367.10909      266.42699      836.77778      960.18531      0.99696118
   1424000  -319.3177       56.397033     -375.71474      300.31803     -3533.8805      960.18531      0.99696118
   1425000  -311.76829      57.257979     -369.02627      304.90263     -5997.3895      960.18531      0.99696118
   1426000  -310.11497      47.489506     -357.60448      252.88484     -602.66952      960.18531      0.99696118
   1427000  -297.00947      68.503915     -365.51339      364.788       -2916.0555      960.18531      0.99696118
   1428000  -317.46872      53.699778     -371.1685       285.95496     -887.63956      960.18531      0.99696118
   1429000  -304.12486      60.625126     -364.74999      322.83291     -2782.2223      960.18531      0.99696118
   1430000  -302.67702      57.789193     -360.46621      307.73138     -1652.9623      960.18531      0.99696118
   1431000  -316.40903      52.197989     -368.60702      277.95783     -1624.5906      960.18531      0.99696118
   1432000  -301.91312      70.115521     -372.02864      373.36991      2709.3005      960.18531      0.99696118
   1433000  -302.48428      64.994985     -367.47926      346.10271     -522.05948      960.18531      0.99696118
   1434000  -318.44331      54.834682     -373.27799      291.99841      2945.4712      960.18531      0.99696118
   1435000  -306.62294      56.726424     -363.34937      302.07206     -3072.296       960.18531      0.99696118
   1436000  -318.39174      52.512013     -370.90375      279.63003     -171.52578      960.18531      0.99696118
   1437000  -319.16944      54.734743     -373.90418      291.46622     -1878.7765      960.18531      0.99696118
   1438000  -315.62706      54.622851     -370.24991      290.87039     -17.945771      960.18531      0.99696118
   1439000  -330.12117      51.632273     -381.75345      274.94536     -2823.3677      960.18531      0.99696118
   1440000  -297.98232      58.77042      -356.75275      312.95648      1707.4231      960.18531      0.99696118
   1441000  -320.47258      53.879575     -374.35216      286.9124      -2957.8852      960.18531      0.99696118
   1442000  -323.16216      58.220046     -381.3822       310.02569     -2430.0251      960.18531      0.99696118
   1443000  -316.97194      62.941652     -379.91359      335.16857      1645.056       960.18531      0.99696118
   1444000  -309.88884      51.156535     -361.04538      272.41202      223.24196      960.18531      0.99696118
   1445000  -290.68385      65.37963      -356.06348      348.15097     -2488.7446      960.18531      0.99696118
   1446000  -300.90403      61.994051     -362.89808      330.12253     -952.82828      960.18531      0.99696118
   1447000  -320.48046      53.07823      -373.55869      282.64518     -1123.8356      960.18531      0.99696118
   1448000  -333.52168      46.791066     -380.31275      249.16561     -1250.6328      960.18531      0.99696118
   1449000  -326.66884      58.533714     -385.20255      311.696       -3528.9624      960.18531      0.99696118
   1450000  -307.32511      52.995402     -360.32052      282.20411      2983.5815      960.18531      0.99696118
   1451000  -333.33224      47.15688      -380.48912      251.11359     -2327.2938      960.18531      0.99696118
   1452000  -312.96257      58.46859      -371.43116      311.34921      2616.9684      960.18531      0.99696118
   1453000  -324.2229       54.802983     -379.02588      291.82961     -1952.3106      960.18531      0.99696118
   1454000  -318.98319      53.014828     -371.99801      282.30756     -1369.9353      960.18531      0.99696118
   1455000  -311.90593      51.196995     -363.10292      272.62747     -4840.046       960.18531      0.99696118
   1456000  -326.67137      57.242166     -383.91353      304.81842     -1500.1547      960.18531      0.99696118
   1457000  -311.32906      57.48541      -368.81447      306.11371      1031.6274      960.18531      0.99696118
   1458000  -306.16077      60.329422     -366.49019      321.25827      194.28688      960.18531      0.99696118
   1459000  -313.24945      52.544506     -365.79395      279.80306      218.64663      960.18531      0.99696118
   1460000  -317.47789      60.20889      -377.68678      320.61643     -674.87131      960.18531      0.99696118
   1461000  -325.98091      56.685182     -382.6661       301.85244     -1044.1182      960.18531      0.99696118
   1462000  -312.49175      57.426209     -369.91795      305.79846      993.00803      960.18531      0.99696118
   1463000  -299.35298      59.807362     -359.16034      318.47826     -2372.5268      960.18531      0.99696118
   1464000  -313.45424      58.288983     -371.74322      310.39279      2910.1418      960.18531      0.99696118
   1465000  -310.37256      52.751986     -363.12455      280.9079      -1366.5044      960.18531      0.99696118
   1466000  -314.41715      48.513428     -362.93058      258.3373      -2583.757       960.18531      0.99696118
   1467000  -312.63978      63.530199     -376.16998      338.30262     -1461.6934      960.18531      0.99696118
   1468000  -325.46067      55.085999     -380.54667      293.33669      4275.8613      960.18531      0.99696118
   1469000  -296.87678      66.299191     -363.17598      353.04769     -2332.2992      960.18531      0.99696118
   1470000  -328.53295      51.639194     -380.17215      274.98221     -3359.3589      960.18531      0.99696118
   1471000  -333.77047      45.493793     -379.26427      242.25754     -1401.2808      960.18531      0.99696118
   1472000  -307.24452      58.85718      -366.1017       313.41848      4595.5273      960.18531      0.99696118
   1473000  -326.41188      52.795994     -379.20788      281.14225     -2795.457       960.18531      0.99696118
   1474000  -335.23668      40.99801      -376.23469      218.31719     -326.90784      960.18531      0.99696118
   1475000  -320.71074      57.68829      -378.39903      307.19406     -1494.0961      960.18531      0.99696118
   1476000  -315.41782      45.81687      -361.23469      243.97794     -1356.0252      960.18531      0.99696118
   1477000  -317.1937       53.325609     -370.51931      283.96249     -3557.1878      960.18531      0.99696118
   1478000  -324.77272      52.664336     -377.43706      280.44116      2456.637       960.18531      0.99696118
   1479000  -295.43134      60.848447     -356.27978      324.02211      4540.418       960.18531      0.99696118
   1480000  -315.74182      57.511183     -373.253        306.25095      3734.9872      960.18531      0.99696118
   1481000  -312.04832      59.696859     -371.74518      317.88983      1614.3753      960.18531      0.99696118
   1482000  -305.01035      54.880052     -359.89041      292.24        -389.06172      960.18531      0.99696118
   1483000  -323.24064      52.46457      -375.70521      279.3774       3367.6505      960.18531      0.99696118
   1484000  -306.13         59.949778     -366.07978      319.23664     -1853.6296      960.18531      0.99696118
   1485000  -324.70179      43.264811     -367.9666       230.38806      113.18478      960.18531      0.99696118
   1486000  -293.29036      66.230131     -359.52049      352.67995      452.77758      960.18531      0.99696118
   1487000  -313.36075      56.665922     -370.02667      301.74988     -526.91809      960.18531      0.99696118
   1488000  -300.06733      56.811339     -356.87867      302.52424      2931.2213      960.18531      0.99696118
   1489000  -328.4867       50.862383     -379.34909      270.84564      3804.2667      960.18531      0.99696118
   1490000  -310.07472      68.403766     -378.47849      364.2547       1192.1528      960.18531      0.99696118
   1491000  -313.85721      53.414711     -367.27192      284.43696     -1577.6218      960.18531      0.99696118
   1492000  -302.72043      60.151241     -362.87167      320.30944     -463.23684      960.18531      0.99696118
   1493000  -324.69532      50.636747     -375.33207      269.64412     -462.35538      960.18531      0.99696118
   1494000  -345.35813      42.357715     -387.71585      225.55771      1827.9479      960.18531      0.99696118
   1495000  -307.77403      59.284823     -367.05885      315.69571     -5456.8747      960.18531      0.99696118
   1496000  -313.55643      57.486296     -371.04273      306.11843      3201.9093      960.18531      0.99696118
   1497000  -324.74581      54.645219     -379.39103      290.9895      -2453.7332      960.18531      0.99696118
   1498000  -305.84582      61.546289     -367.39211      327.73817     -951.78383      960.18531      0.99696118
   1499000  -316.26795      60.438273     -376.70622      321.83791     -524.60255      960.18531      0.99696118
   1500000  -341.27984      51.256774     -392.53661      272.9458      -796.99322      960.18531      0.99696118
   1501000  -317.07529      62.013611     -379.08891      330.22669     -1927.6456      960.18531      0.99696118
   1502000  -304.59754      65.312571     -369.91011      347.79387      812.99729      960.18531      0.99696118
   1503000  -306.76804      63.285931     -370.05397      337.00188     -2045.3186      960.18531      0.99696118
   1504000  -300.22987      53.410132     -353.64         284.41258      14.633433      960.18531      0.99696118
   1505000  -310.62133      63.801143     -374.42247      339.74542      1979.1384      960.18531      0.99696118
   1506000  -334.33164      57.273938     -391.60557      304.98761      1953.3968      960.18531      0.99696118
   1507000  -325.8399       54.42848      -380.26838      289.83535     -69.575445      960.18531      0.99696118
   1508000  -322.44867      53.851051     -376.29972      286.7605      -1066.5349      960.18531      0.99696118
   1509000  -305.72112      56.722784     -362.4439       302.05268      4774.1723      960.18531      0.99696118
   1510000  -319.09308      59.827631     -378.92071      318.5862      -356.72798      960.18531      0.99696118
   1511000  -312.10332      56.069576     -368.1729       298.5743      -2768.4619      960.18531      0.99696118
   1512000  -301.23553      62.548489     -363.78402      333.07495      11.503825      960.18531      0.99696118
   1513000  -318.27871      53.98947      -372.26818      287.4976       749.47387      960.18531      0.99696118
   1514000  -320.13453      53.186539     -373.32107      283.22193     -693.04992      960.18531      0.99696118
   1515000  -310.78362      60.00335      -370.78697      319.52191      804.88339      960.18531      0.99696118
   1516000  -289.59503      60.23527      -349.8303       320.7569       5112.0114      960.18531      0.99696118
   1517000  -311.83489      54.39184      -366.22673      289.64024     -58.818491      960.18531      0.99696118
   1518000  -297.14645      56.009        -353.15545      298.25173      4097.2535      960.18531      0.99696118
   1519000  -308.7162       56.983535     -365.69974      303.44119     -29.604589      960.18531      0.99696118
   1520000  -302.96007      55.816198     -358.77626      297.22504      247.21621      960.18531      0.99696118
   1521000  -317.26864      56.948443     -374.21708      303.25433     -2787.5781      960.18531      0.99696118
   1522000  -319.46692      56.89616      -376.36308      302.97591     -841.5602       960.18531      0.99696118
   1523000  -309.48946      56.027691     -365.51715      298.35126     -630.73024      960.18531      0.99696118
   1524000  -328.8402       58.798274     -387.63848      313.1048      -1678.5242      960.18531      0.99696118
   1525000  -320.79465      57.05411      -377.84876      303.81701      383.67221      960.18531      0.99696118
   1526000  -309.96654      49.612133     -359.57867      264.18798     -1301.9076      960.18531      0.99696118
   1527000  -325.06703      53.937174     -379.00421      287.21912      1151.1367      960.18531      0.99696118
   1528000  -318.00304      57.829007     -375.83205      307.94339      375.22459      960.18531      0.99696118
   1529000  -314.04839      66.162245     -380.21063      352.31845      1729.0759      960.18531      0.99696118
   1530000  -316.93106      55.75533      -372.68639      296.90092      350.64741      960.18531      0.99696118
   1531000  -321.07869      53.650983     -374.72968      285.69513      1389.7998      960.18531      0.99696118
   1532000  -315.928        62.381893     -378.30989      332.18782      3046.5306      960.18531      0.99696118
   1533000  -315.05673      53.221654     -368.27839      283.40892      5481.0925      960.18531      0.99696118
   1534000  -328.25892      51.263196     -379.52211      272.98         2056.4218      960.18531      0.99696118
   1535000  -327.77142      52.78898      -380.5604       281.1049      -1489.1573      960.18531      0.99696118
   1536000  -288.19101      57.450582     -345.64159      305.92825      4625.5091      960.18531      0.99696118
   1537000  -323.4602       53.954775     -377.41498      287.31284     -1781.1321      960.18531      0.99696118
   1538000  -339.77084      45.16477      -384.93561      240.50547      92.235003      960.18531      0.99696118
   1539000  -320.41356      54.507451     -374.92101      290.25588     -413.49671      960.18531      0.99696118
   1540000  -307.14005      58.169201     -365.30925      309.75494      513.90293      960.18531      0.99696118
   1541000  -309.62629      51.577161     -361.20345      274.65188      1219.0604      960.18531      0.99696118
   1542000  -310.7842       52.962656     -363.74685      282.02974      454.92653      960.18531      0.99696118
   1543000  -324.60553      51.056569     -375.6621       271.87969      816.84814      960.18531      0.99696118
   1544000  -309.0066       62.868758     -371.87536      334.78041      931.36188      960.18531      0.99696118
   1545000  -316.47928      57.397115     -373.8764       305.64353      3715.3544      960.18531      0.99696118
   1546000  -301.00083      59.179765     -360.1806       315.13627     -1859.0614      960.18531      0.99696118
   1547000  -333.65581      46.730352     -380.38617      248.8423      -3735.7616      960.18531      0.99696118
   1548000  -313.58524      63.541172     -377.12641      338.36105      82.891797      960.18531      0.99696118
   1549000  -313.8864       59.681174     -373.56758      317.80631     -1031.5488      960.18531      0.99696118
   1550000  -303.99283      60.820746     -364.81357      323.8746       4041.4041      960.18531      0.99696118
   1551000  -326.33273      52.52969      -378.86242      279.72416      1679.9718      960.18531      0.99696118
   1552000  -320.29712      54.117819     -374.41494      288.18106      1392.2894      960.18531      0.99696118
   1553000  -315.47462      57.211342     -372.68596      304.65428     -1663.117       960.18531      0.99696118
   1554000  -301.79221      55.997902     -357.79011      298.19263      874.67657      960.18531      0.99696118
   1555000  -313.33209      38.935556     -352.26765      207.33448     -4413.8374      960.18531      0.99696118
   1556000  -312.99809      56.31098      -369.30907      299.85979     -1055.581       960.18531      0.99696118
   1557000  -327.23788      49.85427      -377.09215      265.47737     -123.29204      960.18531      0.99696118
   1558000  -318.96737      50.817733     -369.78511      270.60788      4115.9279      960.18531      0.99696118
   1559000  -315.66257      58.979158     -374.64173      314.06802     -1630.6469      960.18531      0.99696118
   1560000  -325.67531      54.742378     -380.41769      291.50688      1357.5392      960.18531      0.99696118
   1561000  -310.46148      59.013882     -369.47536      314.25293      2799.9182      960.18531      0.99696118
   1562000  -308.91477      54.286653     -363.20143      289.08011      3348.452       960.18531      0.99696118
   1563000  -309.66259      57.711584     -367.37417      307.3181      -987.98664      960.18531      0.99696118
   1564000  -311.76692      51.084019     -362.85094      272.02587     -2478.3833      960.18531      0.99696118
   1565000  -300.3725       54.453824     -354.82632      289.97031     -134.37665      960.18531      0.99696118
   1566000  -286.53315      69.330655     -355.86381      369.19045      1910.7609      960.18531      0.99696118
   1567000  -321.52645      54.76134      -376.28779      291.60785      1082.3052      960.18531      0.99696118
   1568000  -315.54614      58.503471     -374.04961      311.53495      402.04689      960.18531      0.99696118
   1569000  -300.80952      58.107781     -358.91731      309.42788      1473.591       960.18531      0.99696118
   1570000  -316.86179      62.001535     -378.86332      330.16238      325.67141      960.18531      0.99696118
   1571000  -304.71024      55.923869     -360.63411      297.7984      -2205.7189      960.18531      0.99696118
   1572000  -312.63904      57.90714      -370.54618      308.35945      1762.2001      960.18531      0.99696118
   1573000  -309.02039      50.026264     -359.04666      266.39325     -1202.2803      960.18531      0.99696118
   1574000  -322.51582      59.466412     -381.98223      316.66268      400.22618      960.18531      0.99696118
   1575000  -321.21219      64.633895     -385.84609      344.17988      1896.6899      960.18531      0.99696118
   1576000  -316.65547      66.877527     -383.53299      356.12737      3103.6146      960.18531      0.99696118
   1577000  -299.33012      58.937898     -358.26801      313.84831      742.84975      960.18531      0.99696118
   1578000  -309.6504       57.27596      -366.92636      304.99837      217.91855      960.18531      0.99696118
   1579000  -310.96036      59.131315     -370.09167      314.87826     -872.26043      960.18531      0.99696118
   1580000  -319.07514      51.588886     -370.66402      274.71432      2134.169       960.18531      0.99696118
   1581000  -301.06323      52.504368     -353.5676       279.58932     -3693.3991      960.18531      0.99696118
   1582000  -317.64956      47.046606     -364.69617      250.52637      505.53728      960.18531      0.99696118
   1583000  -299.09723      64.32603      -363.42326      342.54048      5277.0812      960.18531      0.99696118
   1584000  -320.05728      62.222771     -382.28005      331.34048      129.55423      960.18531      0.99696118
   1585000  -306.1077       67.947556     -374.05525      361.82535      2380.6211      960.18531      0.99696118
   1586000  -310.37786      65.069017     -375.44688      346.49693      420.55714      960.18531      0.99696118
   1587000  -305.41541      52.135092     -357.5505       277.6229       2834.2123      960.18531      0.99696118
   1588000  -322.44604      51.036663     -373.4827       271.77369     -593.8359       960.18531      0.99696118
   1589000  -291.50624      62.705973     -354.21222      333.91356     -2804.1729      960.18531      0.99696118
   1590000  -308.1937       62.596358     -370.79006      333.32986      2716.1982      960.18531      0.99696118
   1591000  -325.70773      52.697024     -378.40475      280.61523     -4215.4896      960.18531      0.99696118
   1592000  -289.45341      73.713547     -363.16696      392.52964     -1513.482       960.18531      0.99696118
   1593000  -311.58784      48.27064      -359.85848      257.04444     -1018.2629      960.18531      0.99696118
   1594000  -319.95729      54.302695     -374.25998      289.16554     -149.46167      960.18531      0.99696118
   1595000  -328.12739      48.820606     -376.94799      259.97304      3720.4265      960.18531      0.99696118
   1596000  -328.85098      50.039523     -378.8905       266.46385      3320.5297      960.18531      0.99696118
   1597000  -305.97762      67.071403     -373.04902      357.15977     -550.25823      960.18531      0.99696118
   1598000  -319.08895      56.360444     -375.4494       300.12319      1507.9697      960.18531      0.99696118
   1599000  -339.66443      57.222471     -396.8869       304.71354     -359.93296      960.18531      0.99696118
   1600000  -340.9578       46.851807     -387.80961      249.48905     -1552.2809      960.18531      0.99696118
   1601000  -304.78393      62.487292     -367.27122      332.74907      485.55776      960.18531      0.99696118
   1602000  -319.94366      50.444567     -370.38823      268.62074     -452.00838      960.18531      0.99696118
   1603000  -325.00477      48.47545      -373.48022      258.13506     -1114.9079      960.18531      0.99696118
   1604000  -339.64063      55.720625     -395.36125      296.71611     -881.53329      960.18531      0.99696118
   1605000  -320.95457      50.838939     -371.79351      270.7208      -3103.7906      960.18531      0.99696118
   1606000  -287.39562      73.872402     -361.26802      393.37556     -1804.3042      960.18531      0.99696118
   1607000  -306.92765      53.475612     -360.40326      284.76126      778.77672      960.18531      0.99696118
   1608000  -318.90139      45.873386     -364.77478      244.2789       4269.4053      960.18531      0.99696118
   1609000  -299.17948      56.63139      -355.81087      301.566       -3354.3634      960.18531      0.99696118
   1610000  -297.92233      57.045539     -354.96787      303.77137      1614.7439      960.18531      0.99696118
   1611000  -311.42941      53.136801     -364.56622      282.95707     -910.08458      960.18531      0.99696118
   1612000  -299.3568       65.537335     -364.89413      348.99076      3427.3694      960.18531      0.99696118
   1613000  -312.70821      53.419453     -366.12766      284.46221     -1807.3829      960.18531      0.99696118
   1614000  -304.42362      56.421044     -360.84466      300.44589      103.62972      960.18531      0.99696118
   1615000  -326.50789      54.183138     -380.69102      288.52889     -1854.6221      960.18531      0.99696118
   1616000  -323.45222      57.521637     -380.97386      306.30662     -1362.8161      960.18531      0.99696118
   1617000  -332.09287      53.572717     -385.66559      285.27836     -2814.3653      960.18531      0.99696118
   1618000  -325.14762      57.633756     -382.78138      306.90367     -660.79632      960.18531      0.99696118
   1619000  -305.39584      57.226035     -362.62188      304.73252     -2300.2486      960.18531      0.99696118
   1620000  -329.68841      52.410489     -382.0989       279.08941     -3704.6318      960.18531      0.99696118
   1621000  -327.92625      48.207787     -376.13404      256.70974      957.61258      960.18531      0.99696118
   1622000  -297.44453      61.411198     -358.85572      327.0188      -1915.2028      960.18531      0.99696118
   1623000  -303.12533      60.478161     -363.60349      322.05031     -302.48515      960.18531      0.99696118
   1624000  -300.31398      57.949952     -358.26393      308.58743      2641.0563      960.18531      0.99696118
   1625000  -320.07017      49.890441     -369.96061      265.66999      399.56078      960.18531      0.99696118
   1626000  -313.72297      54.332092     -368.05507      289.32208      4205.7543      960.18531      0.99696118
   1627000  -329.00441      53.149627     -382.15404      283.02537     -1176.1779      960.18531      0.99696118
   1628000  -308.30292      57.3101       -365.61302      305.18017     -598.144        960.18531      0.99696118
   1629000  -321.73174      38.906681     -360.63842      207.18072      1775.6429      960.18531      0.99696118
   1630000  -325.67594      50.206852     -375.88279      267.3549       1258.6465      960.18531      0.99696118
   1631000  -308.9333       55.737307     -364.67061      296.80494      5518.0441      960.18531      0.99696118
   1632000  -315.89008      55.519278     -371.40935      295.64393      1199.2502      960.18531      0.99696118
   1633000  -317.67082      60.61718      -378.288        322.7906      -1357.7381      960.18531      0.99696118
   1634000  -311.11129      56.563308     -367.6746       301.20345     -2157.9486      960.18531      0.99696118
   1635000  -319.70901      53.578336     -373.28735      285.30828     -876.62675      960.18531      0.99696118
   1636000  -303.73386      65.260821     -368.99468      347.5183      -1921.9173      960.18531      0.99696118
   1637000  -322.78501      44.749741     -367.53475      238.29541     -721.81906      960.18531      0.99696118
   1638000  -314.67447      49.176783     -363.85125      261.86971      1991.0284      960.18531      0.99696118
   1639000  -294.50534      58.972097     -353.47744      314.03042      1110.2434      960.18531      0.99696118
   1640000  -300.00226      69.475611     -369.47787      369.96234     -2279.2022      960.18531      0.99696118
   1641000  -316.29183      53.641145     -369.93298      285.64274     -483.94103      960.18531      0.99696118
   1642000  -316.42696      64.422076     -380.84904      343.05193     -383.72207      960.18531      0.99696118
   1643000  -299.19115      62.193704     -361.38485      331.1857      -1739.6881      960.18531      0.99696118
   1644000  -312.41896      54.971014     -367.38997      292.72438     -729.84899      960.18531      0.99696118
   1645000  -301.00738      69.055533     -370.06291      367.7254      -788.11701      960.18531      0.99696118
   1646000  -306.86722      59.785131     -366.65235      318.35988      2339.0249      960.18531      0.99696118
   1647000  -332.51246      45.628835     -378.1413       242.97664     -981.17564      960.18531      0.99696118
   1648000  -315.82838      48.342785     -364.17117      257.42861      711.47805      960.18531      0.99696118
   1649000  -305.55778      56.139078     -361.69686      298.9444       769.81557      960.18531      0.99696118
   1650000  -308.86118      50.933142     -359.79432      271.22244      44.914724      960.18531      0.99696118
   1651000  -317.3422       56.793785     -374.13599      302.43076      2815.3849      960.18531      0.99696118
   1652000  -324.17786      51.242742     -375.4206       272.87108      132.78051      960.18531      0.99696118
   1653000  -311.15417      54.904968     -366.05914      292.37268     -1912.8476      960.18531      0.99696118
   1654000  -305.82319      66.507763     -372.33095      354.15835     -1123.5022      960.18531      0.99696118
   1655000  -311.07215      52.259209     -363.33136      278.28383     -687.9408       960.18531      0.99696118
   1656000  -299.09682      57.620896     -356.71771      306.83518     -1655.1196      960.18531      0.99696118
   1657000  -312.77906      61.063597     -373.84265      325.1678       2577.7747      960.18531      0.99696118
   1658000  -312.88782      50.065807     -362.95363      266.60382     -26.357967      960.18531      0.99696118
   1659000  -319.48454      61.218972     -380.70352      325.99518      1770.4339      960.18531      0.99696118
   1660000  -324.23697      55.070221     -379.3072       293.25266      741.69573      960.18531      0.99696118
   1661000  -307.49632      58.449477     -365.9458       311.24743     -1951.3666      960.18531      0.99696118
   1662000  -328.12658      48.502009     -376.62859      258.27649     -3681.0436      960.18531      0.99696118
   1663000  -307.03734      50.506178     -357.54352      268.94882      5216.6537      960.18531      0.99696118
   1664000  -323.94559      56.581663     -380.52725      301.3012       2273.3532      960.18531      0.99696118
   1665000  -337.81285      46.118613     -383.93146      245.58474      461.1719       960.18531      0.99696118
   1666000  -311.59741      64.77981      -376.37722      344.95689     -725.29192      960.18531      0.99696118
   1667000  -330.84984      56.243139     -387.09298      299.49853     -1362.4405      960.18531      0.99696118
   1668000  -336.41613      50.894511     -387.31064      271.01673      87.498497      960.18531      0.99696118
   1669000  -322.15881      51.005781     -373.1646       271.60925      1332.8555      960.18531      0.99696118
   1670000  -321.03965      46.101995     -367.14165      245.49625     -2729.077       960.18531      0.99696118
   1671000  -314.39475      62.147892     -376.54264      330.94174      1928.3737      960.18531      0.99696118
   1672000  -304.18884      54.792538     -358.98138      291.77398      135.08126      960.18531      0.99696118
   1673000  -339.25679      51.943685     -391.20047      276.60365     -5.7568724      960.18531      0.99696118
   1674000  -307.92394      60.470258     -368.3942       322.00823     -4414.8945      960.18531      0.99696118
   1675000  -315.45485      60.946693     -376.40154      324.54528     -327.21351      960.18531      0.99696118
   1676000  -290.24483      68.010962     -358.25579      362.16299      1943.2564      960.18531      0.99696118
   1677000  -315.79131      56.215415     -372.00673      299.3509      -793.01493      960.18531      0.99696118
   1678000  -306.59839      58.456632     -365.05502      311.28554     -2810.4087      960.18531      0.99696118
   1679000  -306.01895      48.9219       -354.94085      260.51244     -4945.9099      960.18531      0.99696118
   1680000  -323.124        56.665322     -379.78933      301.74669     -2507.5367      960.18531      0.99696118
   1681000  -310.32072      56.854629     -367.17535      302.75476      3188.3941      960.18531      0.99696118
   1682000  -288.81413      60.524002     -349.33813      322.29442      1387.5809      960.18531      0.99696118
   1683000  -314.49461      58.02561      -372.52022      308.99031      485.02882      960.18531      0.99696118
   1684000  -306.66922      56.773394     -363.44262      302.32217      3274.4459      960.18531      0.99696118
   1685000  -326.15039      54.657008     -380.8074       291.05228      2152.1826      960.18531      0.99696118
   1686000  -314.88882      60.965768     -375.85459      324.64686      1857.0934      960.18531      0.99696118
   1687000  -307.31922      67.642092     -374.96131      360.19873     -2577.9689      960.18531      0.99696118
   1688000  -319.23721      52.313843     -371.55106      278.57477      1284.8619      960.18531      0.99696118
   1689000  -334.13137      51.234271     -385.36564      272.82597      4037.2951      960.18531      0.99696118
   1690000  -322.81168      56.586405     -379.39809      301.32645      2352.7611      960.18531      0.99696118
   1691000  -315.88967      59.943118     -375.83279      319.20117     -4818.0371      960.18531      0.99696118
   1692000  -318.03624      56.958983     -374.99522      303.31045      2237.8093      960.18531      0.99696118
   1693000  -319.51087      46.504991     -366.01586      247.64224     -11.067458      960.18531      0.99696118
   1694000  -312.22631      62.202458     -374.42877      331.23231      289.60784      960.18531      0.99696118
   1695000  -318.80535      47.191651     -365.997        251.29874     -1740.7798      960.18531      0.99696118
   1696000  -321.27332      45.310011     -366.58334      241.27888      962.44983      960.18531      0.99696118
   1697000  -311.10249      49.510948     -360.61343      263.64916      1401.6277      960.18531      0.99696118
   1698000  -305.05259      59.911375     -364.96397      319.03214      939.83526      960.18531      0.99696118
   1699000  -320.37675      52.85678      -373.23353      281.46594      3283.672       960.18531      0.99696118
   1700000  -308.87866      57.576815     -366.45548      306.60045     -950.41567      960.18531      0.99696118
   1701000  -311.10271      60.937289     -372.04         324.4952      -2592.6177      960.18531      0.99696118
   1702000  -312.33644      50.66635      -363.00279      269.80176      2798.4881      960.18531      0.99696118
   1703000  -312.74135      59.945247     -372.6866       319.21251      2072.0641      960.18531      0.99696118
   1704000  -318.58171      55.43178      -374.01349      295.17799      3697.574       960.18531      0.99696118
   1705000  -312.54201      56.675077     -369.21709      301.79863     -374.18324      960.18531      0.99696118
   1706000  -324.54821      51.197049     -375.74526      272.62776     -1279.1015      960.18531      0.99696118
   1707000  -312.76909      65.748473     -378.51756      350.11508     -1402.0684      960.18531      0.99696118
   1708000  -306.73282      63.306219     -370.03904      337.10991      3116.9383      960.18531      0.99696118
   1709000  -318.11923      63.758888     -381.87812      339.5204       2782.5482      960.18531      0.99696118
   1710000  -325.87047      55.051347     -380.92182      293.15216      4530.7221      960.18531      0.99696118
   1711000  -337.05424      49.551183     -386.60542      263.86341     -698.65501      960.18531      0.99696118
   1712000  -320.73819      54.894396     -375.63258      292.31639      3840.3327      960.18531      0.99696118
   1713000  -334.92599      48.90541      -383.83141      260.42463     -3982.4071      960.18531      0.99696118
   1714000  -341.61425      63.39817      -405.01242      337.59956      448.8152       960.18531      0.99696118
   1715000  -319.233        48.856843     -368.08984      260.16601      3394.6666      960.18531      0.99696118
   1716000  -321.46649      47.783966     -369.25046      254.45286      2802.8838      960.18531      0.99696118
   1717000  -316.41949      67.24495      -383.66444      358.08392      3294.6916      960.18531      0.99696118
   1718000  -327.10194      56.456836     -383.55878      300.63648     -2908.2253      960.18531      0.99696118
   1719000  -324.80006      48.392956     -373.19301      257.69577     -1466.4831      960.18531      0.99696118
   1720000  -314.1987       57.056187     -371.25489      303.82807      1636.895       960.18531      0.99696118
   1721000  -311.13512      61.139905     -372.27503      325.57415      885.98861      960.18531      0.99696118
   1722000  -324.06508      47.631094     -371.69617      253.63881     -493.96659      960.18531      0.99696118
   1723000  -313.51944      55.602328     -369.12176      296.08617      590.55895      960.18531      0.99696118
   1724000  -323.71555      54.842159     -378.55771      292.03822      3747.0947      960.18531      0.99696118
   1725000  -306.2942       55.673955     -361.96815      296.46759      1235.4161      960.18531      0.99696118
   1726000  -328.72818      46.698699     -375.42687      248.67374     -2723.7817      960.18531      0.99696118
   1727000  -324.31761      59.683684     -384.0013       317.81967      1537.2184      960.18531      0.99696118
   1728000  -320.92084      45.543089     -366.46393      242.52004      1175.7645      960.18531      0.99696118
   1729000  -331.17404      51.521185     -382.69523      274.35381      1042.5734      960.18531      0.99696118
   1730000  -322.35155      59.973671     -382.32522      319.36387      1051.8725      960.18531      0.99696118
   1731000  -317.93258      59.362379     -377.29496      316.1087      -407.30503      960.18531      0.99696118
   1732000  -323.36954      54.052019     -377.42156      287.83067     -2955.4023      960.18531      0.99696118
   1733000  -301.15847      52.000877     -353.15935      276.9082       2318.1707      960.18531      0.99696118
   1734000  -313.80776      56.944547     -370.75231      303.23358      2619.5355      960.18531      0.99696118
   1735000  -322.53311      53.618122     -376.15123      285.52014      69.980251      960.18531      0.99696118
   1736000  -311.67284      52.802057     -364.47489      281.17454     -1358.2376      960.18531      0.99696118
   1737000  -305.29316      60.545483     -365.83865      322.4088      -995.17709      960.18531      0.99696118
   1738000  -317.49365      57.830476     -375.32413      307.95121      4247.5452      960.18531      0.99696118
   1739000  -313.30582      44.394745     -357.70056      236.40503      1924.0302      960.18531      0.99696118
   1740000  -324.63545      56.643565     -381.27901      301.63083     -1995.1432      960.18531      0.99696118
   1741000  -315.60944      63.103232     -378.71267      336.02899     -1790.4684      960.18531      0.99696118
   1742000  -310.79969      66.05033      -376.85002      351.72249     -453.55497      960.18531      0.99696118
   1743000  -315.34604      61.85053      -377.19657      329.35827     -195.39139      960.18531      0.99696118
   1744000  -293.70815      64.518612     -358.22676      343.56599      1835.2645      960.18531      0.99696118
   1745000  -317.8129       55.908802     -373.72171      297.71816      2240.2315      960.18531      0.99696118
   1746000  -309.81642      55.051488     -364.86791      293.15291      2614.1893      960.18531      0.99696118
   1747000  -308.68829      48.83979      -357.52808      260.0752      -327.67035      960.18531      0.99696118
   1748000  -314.24407      55.985322     -370.22939      298.12564     -554.22551      960.18531      0.99696118
   1749000  -327.99754      45.739569     -373.7371       243.56631     -2546.1427      960.18531      0.99696118
   1750000  -323.60589      52.865859     -376.47175      281.51429     -2461.8257      960.18531      0.99696118
   1751000  -311.7671       49.086674     -360.85378      261.38987     -2929.2479      960.18531      0.99696118
   1752000  -305.29677      70.202874     -375.49964      373.83507      376.45676      960.18531      0.99696118
   1753000  -319.74266      51.773543     -371.51621      275.69763      1090.1735      960.18531      0.99696118
   1754000  -312.55647      53.741405     -366.29787      286.17663     -3553.053       960.18531      0.99696118
   1755000  -308.34203      49.565887     -357.90792      263.94171      2027.8237      960.18531      0.99696118
   1756000  -309.96442      61.228753     -371.19318      326.04726     -1112.7736      960.18531      0.99696118
   1757000  -317.70116      58.167858     -375.86902      309.74779      275.81703      960.18531      0.99696118
   1758000  -324.46454      54.771764     -379.23631      291.66336     -357.57109      960.18531      0.99696118
   1759000  -315.04166      62.808845     -377.8505       334.46136     -2397.3773      960.18531      0.99696118
   1760000  -315.35887      59.791209     -375.15008      318.39225     -1024.4582      960.18531      0.99696118
   1761000  -312.39694      53.146544     -365.54349      283.00896      3005.2243      960.18531      0.99696118
   1762000  -321.06999      55.8306       -376.90059      297.30174     -2022.7681      960.18531      0.99696118
   1763000  -308.84309      61.342354     -370.18544      326.6522      -672.9811       960.18531      0.99696118
   1764000  -302.50339      63.711192     -366.21458      339.26642     -578.72832      960.18531      0.99696118
   1765000  -324.41465      52.375282     -376.78993      278.90193      262.95063      960.18531      0.99696118
   1766000  -322.51319      61.661012     -384.1742       328.34907      1052.0264      960.18531      0.99696118
   1767000  -313.29106      48.584008     -361.87507      258.71314      2761.6567      960.18531      0.99696118
   1768000  -323.17015      49.116982     -372.28713      261.55127      2157.3479      960.18531      0.99696118
   1769000  -319.76801      54.211066     -373.97908      288.67761     -1809.9199      960.18531      0.99696118
   1770000  -299.53462      64.501744     -364.03637      343.47617     -1834.2274      960.18531      0.99696118
   1771000  -314.07133      56.253351     -370.32468      299.55291     -2038.7913      960.18531      0.99696118
   1772000  -318.15585      54.200828     -372.35668      288.62309     -461.34         960.18531      0.99696118
   1773000  -331.6836       51.436617     -383.12021      273.90348     -1327.3649      960.18531      0.99696118
   1774000  -304.40254      63.132487     -367.53503      336.18478     -3720.5573      960.18531      0.99696118
   1775000  -298.42021      65.233376     -363.65359      347.37216     -2497.2387      960.18531      0.99696118
   1776000  -314.70633      57.251894     -371.95822      304.87022      1756.4171      960.18531      0.99696118
   1777000  -301.95767      59.352922     -361.31059      316.05834     -444.50255      960.18531      0.99696118
   1778000  -326.59003      51.166668     -377.7567       272.46598      475.62042      960.18531      0.99696118
   1779000  -319.54239      59.04586      -378.58825      314.42321     -1765.888       960.18531      0.99696118
   1780000  -310.98454      58.186414     -369.17096      309.8466      -1687.7682      960.18531      0.99696118
   1781000  -304.73463      48.02853      -352.76316      255.75518      2441.6108      960.18531      0.99696118
   1782000  -316.73195      54.741588     -371.47353      291.50267      390.30793      960.18531      0.99696118
   1783000  -314.85978      62.128621     -376.9884       330.83912      88.886581      960.18531      0.99696118
   1784000  -309.31047      58.32171      -367.63218      310.56707      1761.8782      960.18531      0.99696118
   1785000  -322.69332      50.968549     -373.66187      271.41098      292.77874      960.18531      0.99696118
   1786000  -317.50861      52.529704     -370.03832      279.72424     -819.68364      960.18531      0.99696118
   1787000  -317.65753      62.230442     -379.88797      331.38133      4098.0861      960.18531      0.99696118
   1788000  -304.37217      61.138979     -365.51115      325.56922      3887.3122      960.18531      0.99696118
   1789000  -318.78098      59.240316     -378.0213       315.45871      715.76457      960.18531      0.99696118
   1790000  -344.08712      49.830303     -393.91742      265.34975     -892.38773      960.18531      0.99696118
   1791000  -322.91503      63.783797     -386.69883      339.65305     -1031.3471      960.18531      0.99696118
   1792000  -331.37556      49.985356     -381.36091      266.17542      2509.0159      960.18531      0.99696118
   1793000  -293.44845      64.350167     -357.79862      342.66901      1055.8258      960.18531      0.99696118
   1794000  -324.15443      44.642143     -368.79657      237.72244     -3091.0087      960.18531      0.99696118
   1795000  -320.87046      51.028486     -371.89894      271.73015     -768.59685      960.18531      0.99696118
   1796000  -300.72673      63.089494     -363.81622      335.95584      778.25453      960.18531      0.99696118
   1797000  -309.96206      65.344539     -375.3066       347.9641      -177.22534      960.18531      0.99696118
   1798000  -307.94283      56.132557     -364.07538      298.90968     -3395.5942      960.18531      0.99696118
   1799000  -307.93132      56.680433     -364.61176      301.82715      2726.7448      960.18531      0.99696118
   1800000  -319.30499      54.922061     -374.22705      292.4637       874.20804      960.18531      0.99696118
   1801000  -308.58197      53.412585     -361.99455      284.42564      790.3226       960.18531      0.99696118
   1802000  -301.50917      53.997268     -355.50644      287.53912     -517.72669      960.18531      0.99696118
   1803000  -317.65965      60.355337     -378.01499      321.39626      1921.2968      960.18531      0.99696118
   1804000  -312.15086      48.258682     -360.40954      256.98076      5269.3345      960.18531      0.99696118
   1805000  -318.87383      49.885581     -368.75941      265.64411      2584.5013      960.18531      0.99696118
   1806000  -310.36631      64.701613     -375.06792      344.54048     -5492.52        960.18531      0.99696118
   1807000  -321.20366      52.591987     -373.79564      280.0559       2127.6442      960.18531      0.99696118
   1808000  -304.36733      58.493999     -362.86133      311.48452     -958.88699      960.18531      0.99696118
   1809000  -311.94029      57.621048     -369.56134      306.83599      929.69937      960.18531      0.99696118
   1810000  -299.9363       60.454037     -360.39034      321.92185     -3302.6257      960.18531      0.99696118
   1811000  -316.08194      54.511709     -370.59365      290.27855      1563.0571      960.18531      0.99696118
   1812000  -319.67853      41.363817     -361.04235      220.26513      3071.9762      960.18531      0.99696118
   1813000  -323.16991      48.52763      -371.69754      258.41293     -185.63994      960.18531      0.99696118
   1814000  -324.82775      62.579632     -387.40738      333.24079     -234.90091      960.18531      0.99696118
   1815000  -313.09783      55.127914     -368.22575      293.55988     -1683.8315      960.18531      0.99696118
   1816000  -328.67421      50.058815     -378.73302      266.56659      1807.143       960.18531      0.99696118
   1817000  -319.78382      62.932028     -382.71585      335.11732      1405.3368      960.18531      0.99696118
   1818000  -305.88208      64.372207     -370.25429      342.78637     -948.65912      960.18531      0.99696118
   1819000  -307.87723      64.892094     -372.76932      345.55481     -3775.0394      960.18531      0.99696118
   1820000  -311.48962      58.348492     -369.83811      310.70968     -3197.5115      960.18531      0.99696118
   1821000  -300.8383       54.943559     -355.78186      292.57818      1402.1129      960.18531      0.99696118
   1822000  -311.61409      64.740208     -376.3543       344.746       -170.82646      960.18531      0.99696118
   1823000  -315.03294      56.087579     -371.12051      298.67016      573.79691      960.18531      0.99696118
   1824000  -316.3766       49.70076      -366.07736      264.65992     -6199.9168      960.18531      0.99696118
   1825000  -315.67322      49.974074     -365.6473       266.11534     -4323.8819      960.18531      0.99696118
   1826000  -332.11267      44.896678     -377.00935      239.07786      145.95254      960.18531      0.99696118
   1827000  -308.97284      51.390445     -360.36328      273.65761     -2021.2582      960.18531      0.99696118
   1828000  -321.08523      55.950214     -377.03544      297.93869     -1449.7465      960.18531      0.99696118
   1829000  -309.32341      52.338398     -361.66181      278.70552     -1777.1065      960.18531      0.99696118
   1830000  -312.15538      58.518884     -370.67426      311.61703      3554.0713      960.18531      0.99696118
   1831000  -325.06221      57.108882     -382.17109      304.10867     -1921.8409      960.18531      0.99696118
   1832000  -309.82106      58.828177     -368.64924      313.26404     -1666.9143      960.18531      0.99696118
   1833000  -322.17277      52.048985     -374.22176      277.16438     -3795.4852      960.18531      0.99696118
   1834000  -317.44753      59.35329      -376.80082      316.0603      -5090.1059      960.18531      0.99696118
   1835000  -337.93306      38.40068      -376.33374      204.48623     -676.89964      960.18531      0.99696118
   1836000  -309.74989      57.985298     -367.73519      308.77565     -684.41108      960.18531      0.99696118
   1837000  -322.94662      54.818836     -377.76545      291.91402     -1940.3463      960.18531      0.99696118
   1838000  -318.29016      56.567575     -374.85774      301.22618      2592.1599      960.18531      0.99696118
   1839000  -319.64257      48.330798     -367.97337      257.36478     -3022.9393      960.18531      0.99696118
   1840000  -319.80432      50.169176     -369.97349      267.15427     -102.03416      960.18531      0.99696118
   1841000  -326.15744      40.228312     -366.38575      214.21849     -3647.0326      960.18531      0.99696118
   1842000  -313.99273      52.336259     -366.32898      278.69413     -30.831892      960.18531      0.99696118
   1843000  -313.08994      49.869528     -362.95947      265.55862      598.04911      960.18531      0.99696118
   1844000  -305.10107      57.831388     -362.93245      307.95607     -2165.0203      960.18531      0.99696118
   1845000  -323.73617      46.241504     -369.97767      246.23915     -580.79267      960.18531      0.99696118
   1846000  -290.22202      64.837067     -355.05908      345.26178      2489.592       960.18531      0.99696118
   1847000  -322.73602      49.62398      -372.36         264.25106     -1843.9523      960.18531      0.99696118
   1848000  -306.54035      57.335916     -363.87626      305.31765      545.95876      960.18531      0.99696118
   1849000  -319.67087      58.730479     -378.40135      312.74379      469.25786      960.18531      0.99696118
   1850000  -299.53921      70.025089     -369.5643       372.88835     -2300.2163      960.18531      0.99696118
   1851000  -308.58645      54.578382     -363.16483      290.63359      975.07904      960.18531      0.99696118
   1852000  -303.71586      49.498162     -353.21402      263.58107      4141.2048      960.18531      0.99696118
   1853000  -320.54696      50.196296     -370.74326      267.29868      1033.4286      960.18531      0.99696118
   1854000  -306.18274      61.123214     -367.30596      325.48526      7869.1612      960.18531      0.99696118
   1855000  -306.38202      55.159775     -361.5418       293.72954     -2655.7388      960.18531      0.99696118
   1856000  -316.11413      52.835821     -368.94996      281.35433     -996.52751      960.18531      0.99696118
   1857000  -299.8617       61.776515     -361.63821      328.96414     -2882.2156      960.18531      0.99696118
   1858000  -295.85582      63.4702       -359.32602      337.98312     -721.16136      960.18531      0.99696118
   1859000  -312.66369      55.273358     -367.93705      294.33439     -518.00042      960.18531      0.99696118
   1860000  -323.69133      59.471664     -383.16299      316.69065     -227.03635      960.18531      0.99696118
   1861000  -311.00428      58.957894     -369.96218      313.95479     -1816.0333      960.18531      0.99696118
   1862000  -301.89741      59.726592     -361.624        318.04816      1002.3847      960.18531      0.99696118
   1863000  -318.06797      60.663676     -378.73165      323.0382       1300.5835      960.18531      0.99696118
   1864000  -316.79363      41.633152     -358.42678      221.69936      812.60894      960.18531      0.99696118
   1865000  -303.00713      53.799734     -356.80686      286.48724     -2351.8833      960.18531      0.99696118
   1866000  -306.40988      51.506242     -357.91612      274.27423     -3353.4168      960.18531      0.99696118
   1867000  -299.0622       56.231822     -355.29402      299.43827      3356.4532      960.18531      0.99696118
   1868000  -313.16479      53.84419      -367.00898      286.72397     -3757.1481      960.18531      0.99696118
   1869000  -298.45047      62.608876     -361.05935      333.39652     -510.78127      960.18531      0.99696118
   1870000  -314.4002       58.980311     -373.38051      314.07416     -14.924194      960.18531      0.99696118
   1871000  -304.21321      58.850235     -363.06344      313.3815       1815.1385      960.18531      0.99696118
   1872000  -317.96248      60.046315     -378.00879      319.7507       2256.1572      960.18531      0.99696118
   1873000  -298.68611      65.174774     -363.86088      347.06009     -107.46679      960.18531      0.99696118
   1874000  -320.31618      46.003798     -366.31998      244.97335     -1005.1078      960.18531      0.99696118
   1875000  -317.18267      48.154062     -365.33673      256.42365     -691.9015       960.18531      0.99696118
   1876000  -316.77547      61.468908     -378.24438      327.32611      258.25528      960.18531      0.99696118
   1877000  -292.48679      65.402631     -357.88942      348.27345     -697.65155      960.18531      0.99696118
   1878000  -315.2323       44.944127     -360.17643      239.33053     -913.77035      960.18531      0.99696118
   1879000  -309.25908      60.473864     -369.73294      322.02743     -190.81488      960.18531      0.99696118
   1880000  -324.5115       52.217308     -376.72881      278.06071     -2034.9869      960.18531      0.99696118
   1881000  -313.66552      52.838822     -366.50434      281.37031     -5187.7402      960.18531      0.99696118
   1882000  -317.04623      46.396756     -363.44298      247.06587     -530.95571      960.18531      0.99696118
   1883000  -307.38091      62.485783     -369.8667       332.74104     -2062.4016      960.18531      0.99696118
   1884000  -330.9263       52.811152     -383.73745      281.22297      1209.8932      960.18531      0.99696118
   1885000  -310.38943      53.483328     -363.87276      284.80235      2867.7009      960.18531      0.99696118
   1886000  -329.048        45.987442     -375.03544      244.88625     -5.8800958      960.18531      0.99696118
   1887000  -317.11317      46.693328     -363.8065       248.64514     -2916.5167      960.18531      0.99696118
   1888000  -320.98125      55.101926     -376.08318      293.4215      -3127.4168      960.18531      0.99696118
   1889000  -315.64156      50.70616      -366.34772      270.01374      2818.5159      960.18531      0.99696118
   1890000  -323.97106      60.790144     -384.7612       323.71164      100.01306      960.18531      0.99696118
   1891000  -323.25316      46.305963     -369.55913      246.5824      -1903.6026      960.18531      0.99696118
   1892000  -309.45869      65.013041     -374.47173      346.19886      4558.3984      960.18531      0.99696118
   1893000  -307.90926      54.353374     -362.26264      289.43541      614.82774      960.18531      0.99696118
   1894000  -314.29623      56.086497     -370.38273      298.6644       447.67432      960.18531      0.99696118
   1895000  -324.62979      55.063143     -379.69293      293.21497     -1512.07        960.18531      0.99696118
   1896000  -307.03647      64.437617     -371.47409      343.13468      3313.2035      960.18531      0.99696118
   1897000  -323.59841      48.665172     -372.26358      259.14534      4644.5714      960.18531      0.99696118
   1898000  -326.00809      48.012428     -374.02052      255.66944     -2859.9539      960.18531      0.99696118
   1899000  -327.35968      54.721478     -382.08115      291.39558     -3944.5835      960.18531      0.99696118
   1900000  -322.92684      55.96033      -378.88717      297.99256     -836.35617      960.18531      0.99696118
   1901000  -298.31756      65.041268     -363.35882      346.34916      2255.94        960.18531      0.99696118
   1902000  -310.07662      57.992294     -368.06892      308.8129       735.9429       960.18531      0.99696118
   1903000  -328.08799      51.110478     -379.19847      272.16676      2127.1124      960.18531      0.99696118
   1904000  -317.55369      53.315945     -370.86963      283.91103      1633.8164      960.18531      0.99696118
   1905000  -316.61115      59.779248     -376.39039      318.32855     -3139.3103      960.18531      0.99696118
   1906000  -332.49681      54.333035     -386.82985      289.3271       1243.5902      960.18531      0.99696118
   1907000  -303.63673      68.03714      -371.67387      362.30239     -395.23971      960.18531      0.99696118
   1908000  -317.79466      59.736634     -377.5313       318.10163      1921.3182      960.18531      0.99696118
   1909000  -328.55759      48.965279     -377.52287      260.74344      138.60745      960.18531      0.99696118
   1910000  -319.08553      53.43817      -372.5237       284.56189     -2267.8052      960.18531      0.99696118
   1911000  -308.45054      46.256298     -354.70684      246.31792      57.040732      960.18531      0.99696118
   1912000  -317.92615      56.477587     -374.40374      300.74699      315.84024      960.18531      0.99696118
   1913000  -316.28313      58.300487     -374.58361      310.45405     -1314.3905      960.18531      0.99696118
   1914000  -304.33758      59.468305     -363.80588      316.67276      1876.9928      960.18531      0.99696118
   1915000  -292.8108       60.592108     -353.40291      322.65709      1597.1261      960.18531      0.99696118
   1916000  -320.18521      58.775648     -378.96086      312.98431     -1605.3105      960.18531      0.99696118
   1917000  -317.16187      44.810077     -361.97195      238.6167      -1720.719       960.18531      0.99696118
   1918000  -317.73438      58.136223     -375.8706       309.57933      103.75622      960.18531      0.99696118
   1919000  -317.72585      55.427626     -373.15347      295.15587     -3186.1802      960.18531      0.99696118
   1920000  -321.17261      54.908973     -376.08159      292.39401     -1841.0896      960.18531      0.99696118
   1921000  -313.60282      50.490528     -364.09335      268.86549     -130.65774      960.18531      0.99696118
   1922000  -307.89955      58.065366     -365.96492      309.20201      274.10777      960.18531      0.99696118
   1923000  -303.96253      55.369744     -359.33228      294.84765     -1066.6786      960.18531      0.99696118
   1924000  -318.22112      55.467375     -373.68849      295.36754      715.45399      960.18531      0.99696118
   1925000  -311.00839      58.305275     -369.31367      310.47955     -1731.5877      960.18531      0.99696118
   1926000  -304.73634      55.122315     -359.85865      293.53007      2199.4222      960.18531      0.99696118
   1927000  -293.72664      60.983155     -354.7098       324.73944      1260.7115      960.18531      0.99696118
   1928000  -309.52101      59.074295     -368.5953       314.57463      441.40647      960.18531      0.99696118
   1929000  -308.20088      66.421597     -374.62248      353.69951     -4278.6787      960.18531      0.99696118
   1930000  -320.38109      52.398273     -372.77936      279.02436      855.09214      960.18531      0.99696118
   1931000  -310.92212      57.388221     -368.31034      305.59617      973.96984      960.18531      0.99696118
   1932000  -304.5102       70.982989     -375.49319      377.98924      5456.4415      960.18531      0.99696118
   1933000  -329.93169      58.664839     -388.59653      312.39425      456.79596      960.18531      0.99696118
   1934000  -318.98235      57.19431      -376.17666      304.56359     -1671.3966      960.18531      0.99696118
   1935000  -313.0625       61.050914     -374.11342      325.10026     -461.49628      960.18531      0.99696118
   1936000  -298.34409      60.840257     -359.18434      323.9785       4802.9254      960.18531      0.99696118
   1937000  -317.57999      57.941204     -375.52119      308.54084      1984.7538      960.18531      0.99696118
   1938000  -300.43021      51.778223     -352.20843      275.72255      2794.3365      960.18531      0.99696118
   1939000  -304.04364      56.247301     -360.29094      299.5207      -1584.4605      960.18531      0.99696118
   1940000  -322.18676      52.281677     -374.46843      278.40348     -1406.472       960.18531      0.99696118
   1941000  -325.70505      49.317207     -375.02226      262.61748      254.42555      960.18531      0.99696118
   1942000  -301.3005       64.198804     -365.4993       341.86299     -165.00534      960.18531      0.99696118
   1943000  -326.00474      48.834537     -374.83928      260.04722     -2291.7852      960.18531      0.99696118
   1944000  -319.80936      54.821745     -374.63111      291.92951      102.16017      960.18531      0.99696118
   1945000  -314.9903       56.588389     -371.57869      301.33701     -2962.5403      960.18531      0.99696118
   1946000  -319.98751      53.732381     -373.7199       286.12858     -384.41526      960.18531      0.99696118
   1947000  -317.44061      53.521106     -370.96171      285.00352     -2840.4778      960.18531      0.99696118
   1948000  -319.59594      53.02065      -372.61659      282.33856     -279.07746      960.18531      0.99696118
   1949000  -319.02512      59.97266      -378.99778      319.35849     -942.99654      960.18531      0.99696118
   1950000  -303.60926      64.193448     -367.80271      341.83447      1097.6185      960.18531      0.99696118
   1951000  -330.99538      54.510379     -385.50576      290.27147      231.77094      960.18531      0.99696118
   1952000  -317.00968      54.858868     -371.86855      292.1272      -938.26777      960.18531      0.99696118
   1953000  -299.84855      57.942861     -357.79141      308.54967      1116.3914      960.18531      0.99696118
   1954000  -325.22944      53.098083     -378.32753      282.7509      -450.01999      960.18531      0.99696118
   1955000  -333.24922      49.217248     -382.46647      262.08519     -2221.893       960.18531      0.99696118
   1956000  -307.95407      60.49131      -368.44538      322.12033     -3064.9483      960.18531      0.99696118
   1957000  -315.33005      55.907037     -371.23708      297.70877     -3099.4247      960.18531      0.99696118
   1958000  -303.2484       55.413245     -358.66164      295.07929     -3803.0723      960.18531      0.99696118
   1959000  -320.80811      50.683744     -371.49186      269.89438     -3481.5121      960.18531      0.99696118
   1960000  -325.73824      51.729415     -377.46765      275.46265     -4591.6363      960.18531      0.99696118
   1961000  -314.08232      53.38173      -367.46405      284.26134     -2389.916       960.18531      0.99696118
   1962000  -309.33068      61.330377     -370.66105      326.58842      1884.2311      960.18531      0.99696118
   1963000  -329.59698      48.006757     -377.60374      255.63924      1623.0319      960.18531      0.99696118
   1964000  -313.53881      66.088152     -379.62696      351.92389     -1016.3254      960.18531      0.99696118
   1965000  -321.49756      52.370604     -373.86816      278.87702     -4540.6917      960.18531      0.99696118
   1966000  -326.28858      52.217458     -378.50604      278.06151      2088.141       960.18531      0.99696118
   1967000  -310.85993      60.650622     -371.51055      322.96868     -1914.851       960.18531      0.99696118
   1968000  -318.52363      51.977818     -370.50145      276.78541     -394.9382       960.18531      0.99696118
   1969000  -308.83627      52.243991     -361.08026      278.2028      -1636.1843      960.18531      0.99696118
   1970000  -327.0423       49.746561     -376.78886      264.90381      1374.818       960.18531      0.99696118
   1971000  -318.80267      54.248103     -373.05078      288.87483     -368.39616      960.18531      0.99696118
   1972000  -332.39359      43.105889     -375.49948      229.54179     -607.506        960.18531      0.99696118
   1973000  -319.81739      59.456159     -379.27355      316.60809     -369.65271      960.18531      0.99696118
   1974000  -318.80802      55.086895     -373.89491      293.34146     -392.73115      960.18531      0.99696118
   1975000  -311.553        62.017344     -373.57034      330.24657     -464.25752      960.18531      0.99696118
   1976000  -303.6452       61.780454     -365.42566      328.98511      6660.0037      960.18531      0.99696118
   1977000  -313.09237      56.77553      -369.8679       302.33355     -1627.3289      960.18531      0.99696118
   1978000  -323.49189      40.255924     -363.74781      214.36553     -3473.7506      960.18531      0.99696118
   1979000  -312.11174      54.637442     -366.74918      290.94809     -970.39376      960.18531      0.99696118
   1980000  -319.03356      60.023411     -379.05697      319.62874     -3804.0072      960.18531      0.99696118
   1981000  -322.21218      60.470587     -382.68277      322.00998      5962.8209      960.18531      0.99696118
   1982000  -321.61021      48.099393     -369.7096       256.13253     -552.26089      960.18531      0.99696118
   1983000  -327.41934      45.879244     -373.29859      244.31009      837.65997      960.18531      0.99696118
   1984000  -331.38583      58.532352     -389.91819      311.68875      3129.4581      960.18531      0.99696118
   1985000  -319.3041       56.989        -376.2931       303.4703       7029.3326      960.18531      0.99696118
   1986000  -312.07506      59.932635     -372.00769      319.14535      1612.0082      960.18531      0.99696118
   1987000  -320.08722      53.850111     -373.93733      286.75549      606.77063      960.18531      0.99696118
   1988000  -324.03049      54.31222      -378.34271      289.21626      349.59399      960.18531      0.99696118
   1989000  -314.38552      62.828548     -377.21407      334.56628      2440.5819      960.18531      0.99696118
   1990000  -310.88997      54.60296      -365.49293      290.76447      4270.1054      960.18531      0.99696118
   1991000  -323.79902      51.224423     -375.02344      272.77353     -2137.9099      960.18531      0.99696118
   1992000  -306.3112       67.437847     -373.74904      359.11111     -3723.369       960.18531      0.99696118
   1993000  -293.58507      58.215856     -351.80093      310.00339      2024.649       960.18531      0.99696118
   1994000  -315.91049      53.112886     -369.02338      282.82972     -1946.5824      960.18531      0.99696118
   1995000  -300.51699      59.086322     -359.60331      314.63868     -21.787478      960.18531      0.99696118
   1996000  -323.6331       51.588778     -375.22187      274.71375     -1174.5158      960.18531      0.99696118
   1997000  -339.29401      46.583618     -385.87762      248.06093     -1333.6233      960.18531      0.99696118
   1998000  -324.75018      58.31451      -383.06469      310.52872      2717.179       960.18531      0.99696118
   1999000  -305.92038      56.537056     -362.45744      301.06366     -635.01494      960.18531      0.99696118
   2000000  -315.23016      58.523049     -373.75321      311.63921     -3191.0251      960.18531      0.99696118
   2001000  -297.88062      58.06028      -355.9409       309.17493     -103.58632      960.18531      0.99696118
   2002000  -314.18145      51.370837     -365.55229      273.5532      -3245.9643      960.18531      0.99696118
   2003000  -295.4057       55.270044     -350.67575      294.31674      2767.0713      960.18531      0.99696118
   2004000  -313.02985      54.748952     -367.7788       291.54189      5451.8296      960.18531      0.99696118
   2005000  -305.99458      59.697978     -365.69256      317.89578     -1855.516       960.18531      0.99696118
   2006000  -309.59519      64.703082     -374.29827      344.54831     -885.16602      960.18531      0.99696118
   2007000  -309.29612      53.060483     -362.35661      282.55068      308.83229      960.18531      0.99696118
   2008000  -300.10715      58.072218     -358.17937      309.23851      1422.3015      960.18531      0.99696118
   2009000  -313.3662       57.421976     -370.78817      305.77592     -1920.1159      960.18531      0.99696118
   2010000  -323.96506      50.44434      -374.4094       268.61953      2329.6081      960.18531      0.99696118
   2011000  -314.73091      53.102357     -367.83327      282.77366      4665.0662      960.18531      0.99696118
   2012000  -321.52377      48.319241     -369.84301      257.30324      2285.7735      960.18531      0.99696118
   2013000  -318.05241      54.180117     -372.23253      288.5128      -1194.7199      960.18531      0.99696118
   2014000  -310.51363      53.420724     -363.93436      284.46898      1219.5687      960.18531      0.99696118
   2015000  -329.29794      46.165116     -375.46306      245.83238     -5301.6387      960.18531      0.99696118
   2016000  -316.92115      60.063322     -376.98447      319.84127      2464.3456      960.18531      0.99696118
   2017000  -311.56964      56.973902     -368.54354      303.3899      -685.54308      960.18531      0.99696118
   2018000  -309.56638      58.402022     -367.9684       310.99473      534.2602       960.18531      0.99696118
   2019000  -314.05982      55.52527      -369.58509      295.67583     -1504.674       960.18531      0.99696118
   2020000  -331.96077      46.08462      -378.04539      245.40373     -160.66979      960.18531      0.99696118
   2021000  -321.87367      50.666914     -372.54059      269.80475     -841.39728      960.18531      0.99696118
   2022000  -324.02576      48.667434     -372.69319      259.15739      2585.479       960.18531      0.99696118
   2023000  -307.22557      64.871755     -372.09733      345.4465      -403.32108      960.18531      0.99696118
   2024000  -322.18415      57.240349     -379.4245       304.80874     -2897.5716      960.18531      0.99696118
   2025000  -318.54096      52.36661      -370.90757      278.85575      2489.1         960.18531      0.99696118
   2026000  -326.77821      56.70356      -383.48177      301.95031      2007.9925      960.18531      0.99696118
   2027000  -303.42101      48.571401     -351.99241      258.64601     -2387.6898      960.18531      0.99696118
   2028000  -326.40812      59.963606     -386.37173      319.31027      3426.2176      960.18531      0.99696118
   2029000  -317.19595      58.44257      -375.63852      311.21065      4800.2797      960.18531      0.99696118
   2030000  -317.04358      59.624396     -376.66797      317.50396      793.1664       960.18531      0.99696118
   2031000  -306.71561      57.3436       -364.05921      305.35856      713.74016      960.18531      0.99696118
   2032000  -303.42737      60.829031     -364.2564       323.91872      879.64804      960.18531      0.99696118
   2033000  -317.58106      53.407327     -370.98839      284.39764     -1759.2681      960.18531      0.99696118
   2034000  -313.18915      62.858984     -376.04813      334.72836     -1884.993       960.18531      0.99696118
   2035000  -302.66856      58.840465     -361.50902      313.32947     -993.83965      960.18531      0.99696118
   2036000  -293.07209      58.504624     -351.57671      311.54109     -316.1537       960.18531      0.99696118
   2037000  -305.43622      59.242082     -364.67831      315.46811     -2504.7867      960.18531      0.99696118
   2038000  -310.87883      58.02361      -368.90244      308.97966     -461.56222      960.18531      0.99696118
   2039000  -294.49005      63.220177     -357.71023      336.65174     -730.23064      960.18531      0.99696118
   2040000  -303.94627      61.020839     -364.96711      324.94011      1964.206       960.18531      0.99696118
   2041000  -298.22251      62.400849     -360.62336      332.28876     -3710.0163      960.18531      0.99696118
   2042000  -322.00897      53.514308     -375.52328      284.96732      627.58781      960.18531      0.99696118
   2043000  -313.20549      53.853663     -367.05915      286.77441      552.15036      960.18531      0.99696118
   2044000  -336.80786      48.204786     -385.01264      256.69376      205.28452      960.18531      0.99696118
   2045000  -319.76222      38.954871     -358.71709      207.43733     -4399.3253      960.18531      0.99696118
   2046000  -318.96991      54.60471      -373.57463      290.77379     -3467.4413      960.18531      0.99696118
   2047000  -312.35347      65.591711     -377.94519      349.28031     -2001.6939      960.18531      0.99696118
   2048000  -311.96187      50.19914      -362.16101      267.31383     -715.23019      960.18531      0.99696118
   2049000  -310.43667      55.358263     -365.79493      294.78651     -182.13401      960.18531      0.99696118
   2050000  -321.22192      53.009331     -374.23125      282.27829     -1563.3585      960.18531      0.99696118
   2051000  -307.36848      62.307955     -369.67644      331.79409      980.30758      960.18531      0.99696118
   2052000  -311.16296      56.501751     -367.66471      300.87566      1421.6832      960.18531      0.99696118
   2053000  -318.64096      52.506421     -371.14738      279.60026     -2164.2213      960.18531      0.99696118
   2054000  -311.34804      53.632535     -364.98058      285.59689      535.78709      960.18531      0.99696118
   2055000  -328.35104      51.638246     -379.98929      274.97717     -546.35053      960.18531      0.99696118
   2056000  -311.57266      48.411696     -359.98436      257.79557     -433.60348      960.18531      0.99696118
   2057000  -331.50936      50.353851     -381.86322      268.13767     -1370.0485      960.18531      0.99696118
   2058000  -304.52435      60.928714     -365.45307      324.44954     -235.91904      960.18531      0.99696118
   2059000  -317.82577      60.056339     -377.88211      319.80408     -843.26304      960.18531      0.99696118
   2060000  -325.57359      51.225804     -376.79939      272.78089     -2761.7384      960.18531      0.99696118
   2061000  -323.90352      51.777598     -375.68112      275.71923     -1667.5705      960.18531      0.99696118
   2062000  -328.88221      54.221735     -383.10395      288.73442     -3078.0371      960.18531      0.99696118
   2063000  -309.55578      57.208008     -366.76378      304.63652      923.3306       960.18531      0.99696118
   2064000  -320.44237      55.467948     -375.91032      295.37059      1358.5598      960.18531      0.99696118
   2065000  -324.11613      51.025086     -375.14121      271.71205      662.03964      960.18531      0.99696118
   2066000  -293.06817      68.388688     -361.45686      364.17441      4305.605       960.18531      0.99696118
   2067000  -305.02563      64.93356      -369.95919      345.77561      392.1681       960.18531      0.99696118
   2068000  -324.94051      48.800835     -373.74134      259.86776     -1323.3292      960.18531      0.99696118
   2069000  -305.20325      56.306252     -361.5095       299.83461     -2030.3025      960.18531      0.99696118
   2070000  -319.3307       50.707297     -370.038        270.0198      -206.05941      960.18531      0.99696118
   2071000  -300.73839      68.804816     -369.54321      366.39031      2824.1484      960.18531      0.99696118
   2072000  -317.85636      46.971085     -364.82745      250.12421     -1931.7596      960.18531      0.99696118
   2073000  -301.35052      62.847564     -364.19808      334.66755      573.89505      960.18531      0.99696118
   2074000  -301.44894      51.313911     -352.76285      273.25006     -1154.9701      960.18531      0.99696118
   2075000  -317.72287      51.853098     -369.57596      276.12126     -3078.317       960.18531      0.99696118
   2076000  -301.89176      52.04923      -353.94099      277.16568     -2626.3977      960.18531      0.99696118
   2077000  -309.65497      52.432532     -362.08751      279.20679      1868.1708      960.18531      0.99696118
   2078000  -319.06868      50.060183     -369.12886      266.57387     -266.48486      960.18531      0.99696118
   2079000  -321.15845      52.917743     -374.07619      281.79057      641.64102      960.18531      0.99696118
   2080000  -306.43762      67.400668     -373.83828      358.91313      1012.8804      960.18531      0.99696118
   2081000  -325.56572      45.635101     -371.20082      243.01001     -2353.7891      960.18531      0.99696118
   2082000  -316.99865      52.274744     -369.27339      278.36656     -1093.4934      960.18531      0.99696118
   2083000  -299.64413      60.367598     -360.01173      321.46156      320.22774      960.18531      0.99696118
   2084000  -327.65224      56.191971     -383.84421      299.22606     -3745.4962      960.18531      0.99696118
   2085000  -319.37736      62.822657     -382.20002      334.53491      273.90035      960.18531      0.99696118
   2086000  -315.41101      49.652981     -365.06399      264.40549     -2903.8851      960.18531      0.99696118
   2087000  -315.30024      60.79437      -376.09461      323.73415      1050.8951      960.18531      0.99696118
   2088000  -308.85937      56.16909      -365.02846      299.10422     -3853.1583      960.18531      0.99696118
   2089000  -311.41164      55.809724     -367.22136      297.19057      1660.0958      960.18531      0.99696118
   2090000  -314.08847      49.561992     -363.65046      263.92097     -396.87952      960.18531      0.99696118
   2091000  -335.82756      47.71055      -383.53811      254.06192     -5247.7885      960.18531      0.99696118
   2092000  -314.51585      61.394971     -375.91082      326.93239      1698.1632      960.18531      0.99696118
   2093000  -318.59205      50.319327     -368.91137      267.95383      5138.1734      960.18531      0.99696118
   2094000  -312.61516      56.538615     -369.15378      301.07196     -6.202115       960.18531      0.99696118
   2095000  -312.64711      56.625665     -369.27277      301.53551     -3833.2478      960.18531      0.99696118
   2096000  -302.49356      63.899639     -366.3932       340.26991     -89.716806      960.18531      0.99696118
   2097000  -335.05278      51.293741     -386.34652      273.14265      422.21216      960.18531      0.99696118
   2098000  -314.65294      48.613593     -363.26654      258.87068     -300.03201      960.18531      0.99696118
   2099000  -319.56512      52.154134     -371.71925      277.7243      -1606.4685      960.18531      0.99696118
   2100000  -319.81953      60.82802      -380.64755      323.91333     -248.63744      960.18531      0.99696118
   2101000  -320.58259      50.035248     -370.61784      266.44109     -3329.8187      960.18531      0.99696118
   2102000  -314.45037      48.487655     -362.93802      258.20005      551.65968      960.18531      0.99696118
   2103000  -324.48033      54.537977     -379.0183       290.41843      953.43658      960.18531      0.99696118
   2104000  -308.7369       56.645786     -365.38268      301.64266      1756.2676      960.18531      0.99696118
   2105000  -322.30222      56.766929     -379.06915      302.28775     -680.69142      960.18531      0.99696118
   2106000  -332.32599      55.641621     -387.96761      296.29541      1082.0149      960.18531      0.99696118
   2107000  -315.47632      50.914884     -366.39121      271.12521      3101.0343      960.18531      0.99696118
   2108000  -298.13107      63.143028     -361.2741       336.24091     -1293.4011      960.18531      0.99696118
   2109000  -318.13366      52.04757      -370.18123      277.15684     -188.14834      960.18531      0.99696118
   2110000  -303.06837      65.406494     -368.47486      348.29402     -1838.2472      960.18531      0.99696118
   2111000  -319.72676      49.483834     -369.21059      263.50478     -2711.1714      960.18531      0.99696118
   2112000  -314.68393      52.55952      -367.24345      279.88301     -198.87976      960.18531      0.99696118
   2113000  -304.54494      55.748054     -360.29299      296.86217      1773.1724      960.18531      0.99696118
   2114000  -299.92845      57.219249     -357.1477       304.69639      1603.2977      960.18531      0.99696118
   2115000  -318.68914      59.412256     -378.10139      316.37429     -2878.3134      960.18531      0.99696118
   2116000  -300.79173      66.086294     -366.87802      351.914       -3693.9897      960.18531      0.99696118
   2117000  -323.50014      51.149274     -374.64942      272.37336      1848.2533      960.18531      0.99696118
   2118000  -296.85838      63.61573      -360.47411      338.75808      1531.0316      960.18531      0.99696118
   2119000  -307.07733      54.294325     -361.37165      289.12096      975.59324      960.18531      0.99696118
   2120000  -309.10736      51.456661     -360.56402      274.01021     -294.1634       960.18531      0.99696118
   2121000  -321.93477      50.268665     -372.20343      267.68405     -2892.5808      960.18531      0.99696118
   2122000  -308.62388      58.008247     -366.63213      308.89785     -2943.1135      960.18531      0.99696118
   2123000  -318.06235      61.466472     -379.52882      327.31314      18.675177      960.18531      0.99696118
   2124000  -291.82874      66.478124     -358.30686      354.00052     -2381.1324      960.18531      0.99696118
   2125000  -311.07084      54.720913     -365.79175      291.39258     -1507.3619      960.18531      0.99696118
   2126000  -320.51475      56.813556     -377.32831      302.53604      2369.57        960.18531      0.99696118
   2127000  -315.34228      53.707558     -369.04984      285.99639     -2418.0444      960.18531      0.99696118
   2128000  -303.79881      60.157158     -363.95596      320.34095     -744.98156      960.18531      0.99696118
   2129000  -343.34031      43.666903     -387.00721      232.52922     -2955.3848      960.18531      0.99696118
   2130000  -313.08176      54.719751     -367.80151      291.38639     -2538.8229      960.18531      0.99696118
   2131000  -310.46136      58.517714     -368.97907      311.6108       2012.5264      960.18531      0.99696118
   2132000  -316.75866      52.665682     -369.42434      280.44833      1551.8184      960.18531      0.99696118
   2133000  -310.44457      62.334989     -372.77956      331.93805      1009.9583      960.18531      0.99696118
   2134000  -307.74272      61.311244     -369.05397      326.48653     -269.28794      960.18531      0.99696118
   2135000  -304.39069      51.585262     -355.97595      274.69502     -674.84596      960.18531      0.99696118
   2136000  -307.64961      65.259611     -372.90922      347.51186      1739.2383      960.18531      0.99696118
   2137000  -324.59995      54.821335     -379.42128      291.92733      1127.1892      960.18531      0.99696118
   2138000  -304.5248       63.162066     -367.68686      336.34229      1842.7913      960.18531      0.99696118
   2139000  -317.8114       54.587296     -372.39869      290.68106      649.48484      960.18531      0.99696118
   2140000  -311.23032      55.916882     -367.1472       297.76119     -251.78785      960.18531      0.99696118
   2141000  -305.35812      53.785686     -359.14381      286.41243      3826.1858      960.18531      0.99696118
   2142000  -309.51538      50.368456     -359.88383      268.21545      399.03405      960.18531      0.99696118
   2143000  -316.00028      58.379619     -374.3799       310.87543      433.46842      960.18531      0.99696118
   2144000  -311.08624      61.764886     -372.85113      328.90221     -453.28728      960.18531      0.99696118
   2145000  -310.67897      54.551918     -365.23089      290.49267     -3865.5959      960.18531      0.99696118
   2146000  -297.55437      62.56365      -360.11802      333.15568     -1803.7726      960.18531      0.99696118
   2147000  -327.88599      48.045015     -375.93101      255.84297     -178.25821      960.18531      0.99696118
   2148000  -298.29567      54.72457      -353.02024      291.41205      1229.1794      960.18531      0.99696118
   2149000  -308.45161      58.211638     -366.66325      309.98092     -1204.2372      960.18531      0.99696118
   2150000  -328.90133      57.750517     -386.65185      307.52543     -3081.9211      960.18531      0.99696118
   2151000  -314.76261      57.303346     -372.06595      305.14421     -42.992516      960.18531      0.99696118
   2152000  -307.98293      53.736102     -361.71903      286.14839      1562.1313      960.18531      0.99696118
   2153000  -319.1139       51.299225     -370.41312      273.17185     -2241.741       960.18531      0.99696118
   2154000  -321.06365      49.707917     -370.77157      264.69803      2674.5113      960.18531      0.99696118
   2155000  -301.54064      71.476635     -373.01728      380.61793      106.87006      960.18531      0.99696118
   2156000  -311.5163       51.922816     -363.43912      276.49252     -3403.6871      960.18531      0.99696118
   2157000  -312.93899      62.752982     -375.69197      334.16389      624.75292      960.18531      0.99696118
   2158000  -315.88105      54.332039     -370.21309      289.3218      -3904.701       960.18531      0.99696118
   2159000  -309.52938      54.772762     -364.30214      291.66868      1273.3043      960.18531      0.99696118
   2160000  -342.56282      43.338139     -385.90096      230.77853     -1526.4936      960.18531      0.99696118
   2161000  -316.09038      50.147675     -366.23806      267.03978     -1486.4408      960.18531      0.99696118
   2162000  -316.08686      57.847824     -373.93469      308.04359      4776.2489      960.18531      0.99696118
   2163000  -309.41066      54.680562     -364.09122      291.17771      1696.7983      960.18531      0.99696118
   2164000  -309.49906      59.10602      -368.60508      314.74357      1759.9145      960.18531      0.99696118
   2165000  -316.88433      55.038693     -371.92302      293.08478     -2549.6058      960.18531      0.99696118
   2166000  -324.99155      56.954659     -381.9462       303.28742      2683.333       960.18531      0.99696118
   2167000  -316.34475      59.759541     -376.10429      318.22361     -923.58381      960.18531      0.99696118
   2168000  -313.64243      52.291896     -365.93432      278.45789     -3020.9648      960.18531      0.99696118
   2169000  -309.93411      56.061853     -365.99597      298.53317      3218.4156      960.18531      0.99696118
   2170000  -325.00564      49.793018     -374.79865      265.1512       1284.916       960.18531      0.99696118
   2171000  -320.84428      54.349364     -375.19364      289.41405      3483.6034      960.18531      0.99696118
   2172000  -302.80431      50.305915     -353.11022      267.88241     -1458.0886      960.18531      0.99696118
   2173000  -325.99955      51.840887     -377.84044      276.05624      1843.266       960.18531      0.99696118
   2174000  -310.58744      60.218182     -370.80563      320.6659      -5798.3927      960.18531      0.99696118
   2175000  -317.51504      48.562067     -366.07711      258.5963       549.0715       960.18531      0.99696118
   2176000  -322.17738      49.548166     -371.72555      263.84735     -955.92274      960.18531      0.99696118
   2177000  -305.03732      60.972044     -366.00937      324.68027      523.14822      960.18531      0.99696118
   2178000  -322.50291      49.118806     -371.62171      261.56098     -299.08892      960.18531      0.99696118
   2179000  -308.78553      54.602365     -363.3879       290.7613       544.95398      960.18531      0.99696118
   2180000  -320.77855      57.280712     -378.05926      305.02368     -1736.8637      960.18531      0.99696118
   2181000  -293.31338      67.782789     -361.09617      360.94795     -907.05878      960.18531      0.99696118
   2182000  -332.52941      48.526207     -381.05562      258.40535      2334.765       960.18531      0.99696118
   2183000  -320.70209      49.697554     -370.39964      264.64285     -3457.7299      960.18531      0.99696118
   2184000  -325.01723      50.912734     -375.92996      271.11376     -2148.6791      960.18531      0.99696118
   2185000  -315.60785      61.624327     -377.23217      328.15372      1026.6941      960.18531      0.99696118
   2186000  -288.1234       61.548219     -349.67162      327.74844     -1291.0546      960.18531      0.99696118
   2187000  -314.23329      61.266847     -375.50014      326.25012      3318.2396      960.18531      0.99696118
   2188000  -313.73176      58.562732     -372.29449      311.85052     -2294.1888      960.18531      0.99696118
   2189000  -307.20286      52.242689     -359.44555      278.19587      2832.7997      960.18531      0.99696118
   2190000  -300.14786      66.12308      -366.27094      352.10989     -421.94225      960.18531      0.99696118
   2191000  -306.08635      64.015278     -370.10162      340.8857      -602.91324      960.18531      0.99696118
   2192000  -320.11505      52.658683     -372.77373      280.41106      5032.8454      960.18531      0.99696118
   2193000  -325.12293      46.151343     -371.27427      245.75903     -1450.4176      960.18531      0.99696118
   2194000  -321.27794      58.146854     -379.42479      309.63595      1920.0032      960.18531      0.99696118
   2195000  -312.07474      51.995571     -364.07032      276.87995      2637.6212      960.18531      0.99696118
   2196000  -316.51225      61.114338     -377.62658      325.438        1409.948       960.18531      0.99696118
   2197000  -326.08664      47.31382      -373.40046      251.9493       812.92763      960.18531      0.99696118
   2198000  -298.84772      59.67521      -358.52293      317.77454     -362.75161      960.18531      0.99696118
   2199000  -309.9007       54.382904     -364.28361      289.59266      2922.459       960.18531      0.99696118
   2200000  -307.84968      57.138267     -364.98795      304.26515      670.02948      960.18531      0.99696118
   2201000  -306.50424      59.842715     -366.34696      318.66652     -2729.0032      960.18531      0.99696118
   2202000  -327.41809      54.546928     -381.96502      290.46609     -1249.6837      960.18531      0.99696118
   2203000  -314.43303      55.363631     -369.79666      294.8151      -654.95005      960.18531      0.99696118
   2204000  -301.67512      56.40715      -358.08227      300.3719      -2314.4378      960.18531      0.99696118
   2205000  -330.66894      51.381216     -382.05016      273.60847     -2697.2403      960.18531      0.99696118
   2206000  -315.74318      59.387719     -375.1309       316.24364     -236.29112      960.18531      0.99696118
   2207000  -313.01528      49.546383     -362.56166      263.83785      4104.3523      960.18531      0.99696118
   2208000  -311.31376      50.632696     -361.94646      269.62255     -1369.8024      960.18531      0.99696118
   2209000  -305.07783      57.839524     -362.91735      307.99939      838.67154      960.18531      0.99696118
   2210000  -298.6651       65.897538     -364.56264      350.90886      2704.3191      960.18531      0.99696118
   2211000  -298.7792       59.295709     -358.07491      315.75368      3217.4213      960.18531      0.99696118
   2212000  -320.32286      49.522776     -369.84563      263.71214      2206.17        960.18531      0.99696118
   2213000  -302.95561      52.534716     -355.49033      279.75093     -475.15913      960.18531      0.99696118
   2214000  -293.20331      60.261305     -353.46462      320.89554      1357.681       960.18531      0.99696118
   2215000  -317.24117      52.616048     -369.85722      280.18403     -2885.4352      960.18531      0.99696118
   2216000  -327.97644      54.827067     -382.8035       291.95785      1594.3695      960.18531      0.99696118
   2217000  -308.81807      54.290948     -363.10902      289.10298     -348.32517      960.18531      0.99696118
   2218000  -311.51698      53.53931      -365.05629      285.10046     -2730.6117      960.18531      0.99696118
   2219000  -319.43038      63.068953     -382.49933      335.84646     -265.39571      960.18531      0.99696118
   2220000  -316.1655       52.232912     -368.39842      278.1438      -1163.1457      960.18531      0.99696118
   2221000  -320.23592      58.827963     -379.06388      313.2629       268.06281      960.18531      0.99696118
   2222000  -328.04317      48.444491     -376.48766      257.9702      -3656.7231      960.18531      0.99696118
   2223000  -307.49388      54.914473     -362.40835      292.4233       1011.9957      960.18531      0.99696118
   2224000  -312.04684      59.152316     -371.19916      314.9901      -399.64065      960.18531      0.99696118
   2225000  -321.26978      57.50869      -378.77847      306.23768      274.66116      960.18531      0.99696118
   2226000  -315.86721      52.238231     -368.10544      278.17213      1058.9164      960.18531      0.99696118
   2227000  -330.16351      47.134985     -377.29849      250.997       -1556.137       960.18531      0.99696118
   2228000  -339.04802      49.602123     -388.65014      264.13467     -677.69812      960.18531      0.99696118
   2229000  -322.2169       57.298542     -379.51545      305.11862      4287.6213      960.18531      0.99696118
   2230000  -320.22863      47.621094     -367.84973      253.58556      475.00656      960.18531      0.99696118
   2231000  -309.93514      51.666352     -361.60149      275.12683      2066.1018      960.18531      0.99696118
   2232000  -328.92277      57.549992     -386.47276      306.45761     -1626.9361      960.18531      0.99696118
   2233000  -306.79915      47.515041     -354.31419      253.02082      5178.3497      960.18531      0.99696118
   2234000  -317.20965      55.446929     -372.65658      295.25866      1364.1774      960.18531      0.99696118
   2235000  -321.47456      48.407262     -369.88183      257.77196     -1735.9982      960.18531      0.99696118
   2236000  -310.25983      56.701332     -366.96116      301.93844     -3975.0525      960.18531      0.99696118
   2237000  -328.96227      42.164511     -371.12678      224.52889     -891.9312       960.18531      0.99696118
   2238000  -314.5669       71.151164     -385.71806      378.88478      2175.176       960.18531      0.99696118
   2239000  -313.3434       59.307857     -372.65126      315.81837      1801.7825      960.18531      0.99696118
   2240000  -305.67554      55.7079       -361.38344      296.64835     -360.57567      960.18531      0.99696118
   2241000  -331.46275      56.388197     -387.85095      300.27098     -2938.2978      960.18531      0.99696118
   2242000  -323.88559      50.290983     -374.17657      267.8029      -456.27338      960.18531      0.99696118
   2243000  -324.03707      55.817374     -379.85445      297.23131     -1985.4486      960.18531      0.99696118
   2244000  -308.40242      58.609928     -367.01235      312.10185      2313.841       960.18531      0.99696118
   2245000  -316.5158       58.949319     -375.46512      313.90913      537.15059      960.18531      0.99696118
   2246000  -317.02313      49.434047     -366.45718      263.23966     -963.86369      960.18531      0.99696118
   2247000  -325.6479       52.995408     -378.6433       282.20415     -1757.3141      960.18531      0.99696118
   2248000  -296.80045      76.919157     -373.71961      409.59973      3633.8258      960.18531      0.99696118
   2249000  -327.94478      42.196997     -370.14178      224.70187     -2611.164       960.18531      0.99696118
   2250000  -303.78121      57.356702     -361.13791      305.42833     -2329.8693      960.18531      0.99696118
   2251000  -308.49634      55.863222     -364.35956      297.47545      2878.345       960.18531      0.99696118
   2252000  -289.37204      68.992389     -358.36443      367.38915      1932.4552      960.18531      0.99696118
   2253000  -307.58801      59.320693     -366.9087       315.88672      1739.5497      960.18531      0.99696118
   2254000  -308.11557      49.766775     -357.88234      265.01145      770.1083       960.18531      0.99696118
   2255000  -315.53843      52.81013      -368.34856      281.21753      503.88344      960.18531      0.99696118
   2256000  -310.51926      58.351068     -368.87033      310.7234      -1919.3585      960.18531      0.99696118
   2257000  -329.97063      47.514257     -377.48488      253.01664      3203.6475      960.18531      0.99696118
   2258000  -319.70809      55.002422     -374.71052      292.89163     -3456.8441      960.18531      0.99696118
   2259000  -308.10172      57.293034     -365.39476      305.0893       667.9486       960.18531      0.99696118
   2260000  -305.9158       63.229304     -369.1451       336.70033      1560.4619      960.18531      0.99696118
   2261000  -322.51491      53.341715     -375.85663      284.04825     -1941.6685      960.18531      0.99696118
   2262000  -300.67454      58.020187     -358.69473      308.96144     -2363.8931      960.18531      0.99696118
   2263000  -297.0984       51.374083     -348.47249      273.57048     -3404.6308      960.18531      0.99696118
   2264000  -290.35873      59.23357      -349.5923       315.42278     -775.40755      960.18531      0.99696118
   2265000  -313.12705      52.817662     -365.94471      281.25764     -2466.6172      960.18531      0.99696118
   2266000  -324.06165      57.466223     -381.52787      306.01154      1372.3884      960.18531      0.99696118
   2267000  -322.63424      45.663433     -368.29767      243.16088      198.57931      960.18531      0.99696118
   2268000  -295.83072      51.422662     -347.25338      273.82917     -1924.2144      960.18531      0.99696118
   2269000  -312.56241      65.407878     -377.97029      348.30139      905.07444      960.18531      0.99696118
   2270000  -322.12153      55.92718      -378.04871      297.81603     -1670.1735      960.18531      0.99696118
   2271000  -325.22387      50.999613     -376.22348      271.5764       831.37122      960.18531      0.99696118
   2272000  -311.89022      57.213326     -369.10355      304.66484     -571.91434      960.18531      0.99696118
   2273000  -312.07201      53.323497     -365.39551      283.95124      1536.04        960.18531      0.99696118
   2274000  -323.09247      50.210192     -373.30266      267.37268     -1016.7375      960.18531      0.99696118
   2275000  -298.84373      58.00186      -356.84559      308.86384     -5543.1944      960.18531      0.99696118
   2276000  -309.94164      58.421029     -368.36267      311.09594     -1014.6673      960.18531      0.99696118
   2277000  -319.68423      46.169572     -365.8538       245.85611     -2838.0975      960.18531      0.99696118
   2278000  -296.42055      50.169395     -346.58994      267.15543     -1466.0107      960.18531      0.99696118
   2279000  -321.28566      53.130521     -374.41619      282.92363      611.32124      960.18531      0.99696118
   2280000  -313.67957      53.50761      -367.18718      284.93166      19.322459      960.18531      0.99696118
   2281000  -311.44297      52.976107     -364.41908      282.10137     -601.66803      960.18531      0.99696118
   2282000  -307.97293      60.186283     -368.15921      320.49604     -553.30065      960.18531      0.99696118
   2283000  -332.5778       46.355402     -378.9332       246.84566      3302.546       960.18531      0.99696118
   2284000  -306.18002      56.524364     -362.70438      300.99607      969.91644      960.18531      0.99696118
   2285000  -303.61797      54.985795     -358.60377      292.80309     -1787.7019      960.18531      0.99696118
   2286000  -323.35802      55.899742     -379.25777      297.66992      2709.9721      960.18531      0.99696118
   2287000  -312.52523      59.432622     -371.95786      316.48275      1663.8545      960.18531      0.99696118
   2288000  -312.20869      56.401705     -368.61039      300.34291     -2670.3887      960.18531      0.99696118
   2289000  -304.42826      59.670757     -364.09902      317.75083     -1197.3598      960.18531      0.99696118
   2290000  -324.84466      50.964065     -375.80873      271.3871      -601.796        960.18531      0.99696118
   2291000  -298.15027      54.158614     -352.30889      288.3983      -4469.0956      960.18531      0.99696118
   2292000  -306.24018      55.803767     -362.04395      297.15885     -2175.0014      960.18531      0.99696118
   2293000  -331.61274      48.409983     -380.02273      257.78645     -700.13765      960.18531      0.99696118
   2294000  -302.1701       58.533187     -360.70329      311.69319     -1596.5784      960.18531      0.99696118
   2295000  -325.56354      51.54914      -377.11268      274.50267      597.95566      960.18531      0.99696118
   2296000  -306.93866      63.486519     -370.42518      338.07003      3652.8885      960.18531      0.99696118
   2297000  -327.45908      52.882747     -380.34183      281.60422     -1720.4419      960.18531      0.99696118
   2298000  -327.45528      58.43501      -385.89029      311.17039     -815.07165      960.18531      0.99696118
   2299000  -323.21189      63.926343     -387.13823      340.41211      1561.4959      960.18531      0.99696118
   2300000  -320.25793      57.165562     -377.42349      304.4105       413.3266       960.18531      0.99696118
   2301000  -311.05556      52.12279      -363.17835      277.5574      -3242.1279      960.18531      0.99696118
   2302000  -304.67236      58.591184     -363.26355      312.00203     -2019.9017      960.18531      0.99696118
   2303000  -321.56628      56.686419     -378.25269      301.85903      852.05814      960.18531      0.99696118
   2304000  -302.334        60.17375      -362.50775      320.4293      -1732.8149      960.18531      0.99696118
   2305000  -320.49022      56.824799     -377.31502      302.59591     -2163.2982      960.18531      0.99696118
   2306000  -313.10038      55.433764     -368.53415      295.18856     -2303.0309      960.18531      0.99696118
   2307000  -290.82042      74.576596     -365.39702      397.12544      1771.2161      960.18531      0.99696118
   2308000  -304.25492      57.59047      -361.84539      306.67316     -608.6071       960.18531      0.99696118
   2309000  -319.82897      58.787769     -378.61674      313.04886     -2973.358       960.18531      0.99696118
   2310000  -329.87086      52.322528     -382.19339      278.62101      1909.2466      960.18531      0.99696118
   2311000  -308.58661      52.970147     -361.55676      282.06963      1481.2669      960.18531      0.99696118
   2312000  -305.42832      57.192769     -362.62109      304.55538     -36.118104      960.18531      0.99696118
   2313000  -308.7876       58.617868     -367.40547      312.14413     -15.095146      960.18531      0.99696118
   2314000  -312.75025      52.717272     -365.46752      280.72305     -22.544956      960.18531      0.99696118
   2315000  -310.36758      60.044678     -370.41225      319.74199     -1632.7475      960.18531      0.99696118
   2316000  -330.74196      51.100759     -381.84272      272.11501      757.03514      960.18531      0.99696118
   2317000  -322.71627      59.249642     -381.96591      315.50836      2901.5926      960.18531      0.99696118
   2318000  -307.16133      56.035894     -363.19723      298.39494     -984.62485      960.18531      0.99696118
   2319000  -308.19024      58.811211     -367.00145      313.17369     -436.61546      960.18531      0.99696118
   2320000  -316.56714      58.220173     -374.78732      310.02637     -3127.5276      960.18531      0.99696118
   2321000  -327.85312      41.595418     -369.44854      221.49842     -3322.9149      960.18531      0.99696118
   2322000  -316.52987      47.544603     -364.07447      253.17824     -1391.3752      960.18531      0.99696118
   2323000  -322.6449       55.458001     -378.1029       295.31762     -4068.3522      960.18531      0.99696118
   2324000  -321.94799      59.965968     -381.91396      319.32285     -1254.0852      960.18531      0.99696118
   2325000  -309.89834      51.887456     -361.78579      276.30423     -1109.8028      960.18531      0.99696118
   2326000  -310.7225       52.657134     -363.37964      280.40282      1481.1221      960.18531      0.99696118
   2327000  -321.79687      62.834288     -384.63116      334.59685     -796.35211      960.18531      0.99696118
   2328000  -299.7393       54.281896     -354.02119      289.05478      4611.3662      960.18531      0.99696118
   2329000  -311.25443      56.658404     -367.91283      301.70985     -2448.2089      960.18531      0.99696118
   2330000  -316.61618      47.392343     -364.00853      252.36744      258.01077      960.18531      0.99696118
   2331000  -297.35588      59.081981     -356.43786      314.61556      2750.727       960.18531      0.99696118
   2332000  -326.2419       46.084657     -372.32656      245.40393     -3228.8109      960.18531      0.99696118
   2333000  -322.40962      51.718019     -374.12764      275.40196     -3107.9842      960.18531      0.99696118
   2334000  -321.48126      44.417254     -365.89851      236.52489     -3525.9809      960.18531      0.99696118
   2335000  -305.11251      58.944833     -364.05734      313.88524      2381.0028      960.18531      0.99696118
   2336000  -327.52393      45.847759     -373.37169      244.14243     -639.45862      960.18531      0.99696118
   2337000  -321.52485      45.983641     -367.50849      244.86601     -26.125948      960.18531      0.99696118
   2338000  -326.54376      50.337714     -376.88147      268.05174      3182.3137      960.18531      0.99696118
   2339000  -314.67211      51.327532     -365.99964      273.32259     -2001.3951      960.18531      0.99696118
   2340000  -329.17713      57.237033     -386.41416      304.79109      2873.2039      960.18531      0.99696118
   2341000  -315.76413      56.642941     -372.40707      301.62751      1302.781       960.18531      0.99696118
   2342000  -300.92503      59.275285     -360.20032      315.64492      3963.4027      960.18531      0.99696118
   2343000  -323.00598      48.217004     -371.22299      256.75882     -2042.3658      960.18531      0.99696118
   2344000  -317.82901      45.255075     -363.08409      240.98635     -2328.4591      960.18531      0.99696118
   2345000  -318.28071      58.931006     -377.21172      313.81161      1453.627       960.18531      0.99696118
   2346000  -334.31723      51.391418     -385.70864      273.66279     -2181.0622      960.18531      0.99696118
   2347000  -310.89542      48.242267     -359.13769      256.89334      1534.3643      960.18531      0.99696118
   2348000  -321.60165      52.928178     -374.52983      281.84614     -2249.1527      960.18531      0.99696118
   2349000  -313.5641       63.955731     -377.51983      340.56861     -1002.5015      960.18531      0.99696118
   2350000  -325.4829       55.984556     -381.46745      298.12156     -2487.5303      960.18531      0.99696118
   2351000  -317.75618      55.441639     -373.19782      295.23049      413.35729      960.18531      0.99696118
   2352000  -307.868        61.983234     -369.85123      330.06493      779.96523      960.18531      0.99696118
   2353000  -305.12157      51.610393     -356.73196      274.82885      1708.2153      960.18531      0.99696118
   2354000  -321.87821      44.934127     -366.81234      239.27728      33.873695      960.18531      0.99696118
   2355000  -303.05613      56.015416     -359.07155      298.28589      526.35084      960.18531      0.99696118
   2356000  -321.57668      50.834512     -372.41119      270.69723     -3074.678       960.18531      0.99696118
   2357000  -326.60947      51.093945     -377.70342      272.07872      138.95368      960.18531      0.99696118
   2358000  -331.62748      51.822345     -383.44982      275.9575      -265.62051      960.18531      0.99696118
   2359000  -305.89604      58.49149      -364.38753      311.47116     -1484.5325      960.18531      0.99696118
   2360000  -285.84892      67.665882     -353.5148       360.32542     -336.51491      960.18531      0.99696118
   2361000  -307.88554      50.632635     -358.51818      269.62222     -4704.6343      960.18531      0.99696118
   2362000  -326.55273      45.827328     -372.38006      244.03363      1614.3633      960.18531      0.99696118
   2363000  -304.53279      52.741434     -357.27423      280.85171      1965.9818      960.18531      0.99696118
   2364000  -330.96509      56.747372     -387.71246      302.18361     -643.28364      960.18531      0.99696118
   2365000  -312.91495      56.065608     -368.98056      298.55317      1333.5105      960.18531      0.99696118
   2366000  -313.58969      60.402132     -373.99182      321.64546      331.87766      960.18531      0.99696118
   2367000  -315.02214      62.752593     -377.77473      334.16182      3351.2211      960.18531      0.99696118
   2368000  -294.02999      76.09794      -370.12793      405.2267       1483.5912      960.18531      0.99696118
   2369000  -320.5008       56.826861     -377.32766      302.60689      871.84387      960.18531      0.99696118
   2370000  -328.47587      51.987677     -380.46355      276.83791     -2928.1094      960.18531      0.99696118
   2371000  -325.41885      56.323119     -381.74197      299.92443     -129.7718       960.18531      0.99696118
   2372000  -320.73819      53.662325     -374.40052      285.75552     -3877.0421      960.18531      0.99696118
   2373000  -331.62977      43.931399     -375.56117      233.93768     -1013.7275      960.18531      0.99696118
   2374000  -301.15664      66.181976     -367.33862      352.42351      1235.3627      960.18531      0.99696118
   2375000  -327.8345       52.530443     -380.36494      279.72818     -1792.1097      960.18531      0.99696118
   2376000  -320.02979      59.735631     -379.76542      318.09629     -1910.2574      960.18531      0.99696118
   2377000  -322.16147      44.950062     -367.11153      239.36213     -3604.973       960.18531      0.99696118
   2378000  -293.76719      64.141083     -357.90828      341.55562     -896.61308      960.18531      0.99696118
   2379000  -310.10968      66.779738     -376.88942      355.60664      95.73403       960.18531      0.99696118
   2380000  -318.43971      56.362676     -374.80238      300.13508      4358.1453      960.18531      0.99696118
   2381000  -313.05801      53.997913     -367.05592      287.54255      3147.7553      960.18531      0.99696118
   2382000  -293.99546      59.952786     -353.94825      319.25266      904.34034      960.18531      0.99696118
   2383000  -323.07639      50.151176     -373.22756      267.05842      2788.248       960.18531      0.99696118
   2384000  -326.10715      56.483183     -382.59034      300.77678      2588.6315      960.18531      0.99696118
   2385000  -321.5757       54.987647     -376.56335      292.81295     -962.68646      960.18531      0.99696118
   2386000  -309.51277      71.35298      -380.86575      379.95946      1561.3777      960.18531      0.99696118
   2387000  -303.80998      66.821495     -370.63147      355.829       -613.60461      960.18531      0.99696118
   2388000  -329.80071      52.133238     -381.93395      277.61303     -500.42529      960.18531      0.99696118
   2389000  -304.37281      57.29616      -361.66897      305.10594      2534.8059      960.18531      0.99696118
   2390000  -316.92792      61.647361     -378.57528      328.27638     -3092.3422      960.18531      0.99696118
   2391000  -327.27214      51.468848     -378.74099      274.07511     -2914.7101      960.18531      0.99696118
   2392000  -323.79947      60.207025     -384.0065       320.6065      -2711.9591      960.18531      0.99696118
   2393000  -323.46151      47.341794     -370.8033       252.09827     -1484.3333      960.18531      0.99696118
   2394000  -314.29975      56.448693     -370.74845      300.59312     -3034.2689      960.18531      0.99696118
   2395000  -319.16128      49.115636     -368.27691      261.5441       3198.9771      960.18531      0.99696118
   2396000  -329.84214      53.586159     -383.4283       285.34993     -71.013033      960.18531      0.99696118
   2397000  -313.3013       53.062609     -366.36391      282.56199      3263.2113      960.18531      0.99696118
   2398000  -305.91869      57.985622     -363.90431      308.77737      682.35782      960.18531      0.99696118
   2399000  -321.1164       51.12874      -372.24514      272.26401     -3667.6528      960.18531      0.99696118
   2400000  -326.01417      52.72545      -378.73962      280.7666      -228.477        960.18531      0.99696118
   2401000  -322.04042      48.720777     -370.76119      259.44145      1086.0793      960.18531      0.99696118
   2402000  -307.97201      58.302676     -366.27469      310.46571      159.98266      960.18531      0.99696118
   2403000  -315.21301      58.479533     -373.69255      311.40749      550.9015       960.18531      0.99696118
   2404000  -298.28018      58.615495     -356.89568      312.13149      4311.0384      960.18531      0.99696118
   2405000  -318.12156      53.07909      -371.20065      282.64976      2154.845       960.18531      0.99696118
   2406000  -289.05894      67.796129     -356.85507      361.01899      1299.0836      960.18531      0.99696118
   2407000  -313.13883      68.781475     -381.92031      366.26602     -1282.1625      960.18531      0.99696118
   2408000  -308.79092      59.594456     -368.38537      317.34452      4605.0503      960.18531      0.99696118
   2409000  -326.32589      50.559883     -376.88578      269.23481     -6494.4433      960.18531      0.99696118
   2410000  -323.97278      54.173521     -378.1463       288.47768     -939.81331      960.18531      0.99696118
   2411000  -333.16782      45.836805     -379.00463      244.0841       2584.2087      960.18531      0.99696118
   2412000  -318.21697      54.054577     -372.27155      287.84429      1291.9837      960.18531      0.99696118
   2413000  -330.85912      53.273177     -384.13229      283.68328      470.17179      960.18531      0.99696118
   2414000  -304.03822      67.742825     -371.78104      360.73514     -2206.8688      960.18531      0.99696118
   2415000  -288.63614      71.102113     -359.73825      378.62358     -2569.781       960.18531      0.99696118
   2416000  -325.40174      51.245869     -376.64761      272.88773     -75.300013      960.18531      0.99696118
   2417000  -323.58781      53.744712     -377.33252      286.19424      1299.1699      960.18531      0.99696118
   2418000  -302.47856      50.495437     -352.974        268.89163     -834.153        960.18531      0.99696118
   2419000  -312.20607      53.559898     -365.76597      285.21009     -4034.5871      960.18531      0.99696118
   2420000  -332.72727      45.865793     -378.59306      244.23846      279.25982      960.18531      0.99696118
   2421000  -309.32824      64.403841     -373.73208      342.95482      1996.3488      960.18531      0.99696118
   2422000  -319.90565      56.543563     -376.44921      301.09831     -486.15777      960.18531      0.99696118
   2423000  -293.60146      66.022446     -359.62391      351.57401      1591.5957      960.18531      0.99696118
   2424000  -309.09496      55.621091     -364.71605      296.18608      759.43012      960.18531      0.99696118
   2425000  -334.31504      47.280141     -381.59518      251.76996     -198.87293      960.18531      0.99696118
   2426000  -310.07557      59.244385     -369.31996      315.48037     -2228.2404      960.18531      0.99696118
   2427000  -310.23898      63.853145     -374.09212      340.02233      175.19096      960.18531      0.99696118
   2428000  -322.35077      56.56742      -378.91819      301.22535     -416.38447      960.18531      0.99696118
   2429000  -313.88931      53.488858     -367.37816      284.8318      -2224.5447      960.18531      0.99696118
   2430000  -308.65862      61.755434     -370.41405      328.85188     -1117.8989      960.18531      0.99696118
   2431000  -307.39905      64.602556     -372.0016       344.013       -231.94009      960.18531      0.99696118
   2432000  -324.94296      46.616967     -371.55992      248.23851     -1271.6026      960.18531      0.99696118
   2433000  -294.53992      60.233701     -354.77362      320.74855     -1653.8084      960.18531      0.99696118
   2434000  -301.99495      51.94261      -353.93756      276.59792     -1881.59        960.18531      0.99696118
   2435000  -318.20767      51.180269     -369.38794      272.53841      1953.9073      960.18531      0.99696118
   2436000  -329.82337      49.836545     -379.65991      265.38298      592.6766       960.18531      0.99696118
   2437000  -314.4935       56.312779     -370.80628      299.86937      565.87256      960.18531      0.99696118
   2438000  -336.28066      47.725192     -384.00585      254.13989     -442.21031      960.18531      0.99696118
   2439000  -308.60853      56.655844     -365.26437      301.69622      1230.816       960.18531      0.99696118
   2440000  -321.71154      55.580261     -377.2918       295.96866     -1823.7979      960.18531      0.99696118
   2441000  -327.71511      51.550118     -379.26522      274.50788      1595.2289      960.18531      0.99696118
   2442000  -305.82043      62.928159     -368.74859      335.09672      510.07251      960.18531      0.99696118
   2443000  -313.72392      54.720534     -368.44445      291.39056      10.116736      960.18531      0.99696118
   2444000  -294.82017      56.715812     -351.53599      302.01555     -1587.6201      960.18531      0.99696118
   2445000  -318.43762      50.624654     -369.06227      269.57972     -1979.2492      960.18531      0.99696118
   2446000  -316.36941      62.452734     -378.82215      332.56505      1755.959       960.18531      0.99696118
   2447000  -325.58619      58.915361     -384.50155      313.7283      -2537.7585      960.18531      0.99696118
   2448000  -302.06342      53.201607     -355.26503      283.30217     -3099.8202      960.18531      0.99696118
   2449000  -315.07521      49.530024     -364.60524      263.75074     -2107.6907      960.18531      0.99696118
   2450000  -314.5283       50.715496     -365.2438       270.06346     -3005.3931      960.18531      0.99696118
   2451000  -326.52726      49.118521     -375.64578      261.55946      1399.3502      960.18531      0.99696118
   2452000  -310.07113      53.130412     -363.20154      282.92305     -3011.9747      960.18531      0.99696118
   2453000  -314.47498      52.605973     -367.08095      280.13038     -276.8898       960.18531      0.99696118
   2454000  -306.43991      57.985196     -364.4251       308.7751      -848.91339      960.18531      0.99696118
   2455000  -316.54023      52.769078     -369.30931      280.99892      2541.9114      960.18531      0.99696118
   2456000  -309.02151      54.233956     -363.25547      288.7995       737.32776      960.18531      0.99696118
   2457000  -301.55251      66.977197     -368.52971      356.65812     -1571.7426      960.18531      0.99696118
   2458000  -298.697        57.753032     -356.45004      307.53882      4578.0172      960.18531      0.99696118
   2459000  -306.45502      64.119581     -370.5746       341.44112     -1579.4358      960.18531      0.99696118
   2460000  -310.97933      56.583067     -367.5624       301.30867      3017.7779      960.18531      0.99696118
   2461000  -311.85294      63.309642     -375.16258      337.12814      1743.0131      960.18531      0.99696118
   2462000  -324.4246       53.406448     -377.83105      284.39296     -1425.1276      960.18531      0.99696118
   2463000  -326.04735      55.196314     -381.24367      293.92412      1199.3156      960.18531      0.99696118
   2464000  -330.73546      46.745089     -377.48055      248.92077      1614.7736      960.18531      0.99696118
   2465000  -316.74155      54.292921     -371.03447      289.11349     -1333.7735      960.18531      0.99696118
   2466000  -312.34481      48.485201     -360.83001      258.18698     -1225.1907      960.18531      0.99696118
   2467000  -315.01608      53.232498     -368.24858      283.46667     -3136.8313      960.18531      0.99696118
   2468000  -311.86138      65.079701     -376.94108      346.55383     -341.51252      960.18531      0.99696118
   2469000  -316.24645      47.673467     -363.91992      253.86445     -1595.4105      960.18531      0.99696118
   2470000  -308.09348      51.079205     -359.17268      272.00023     -4254.7975      960.18531      0.99696118
   2471000  -319.19913      54.557015     -373.75615      290.51981     -848.99849      960.18531      0.99696118
   2472000  -322.57282      45.495528     -368.06834      242.26678     -3564.1611      960.18531      0.99696118
   2473000  -306.31972      61.064121     -367.38384      325.17059      1634.9489      960.18531      0.99696118
   2474000  -310.82284      57.788713     -368.61155      307.72882      337.45284      960.18531      0.99696118
   2475000  -319.31727      52.435207     -371.75248      279.22104     -2045.3892      960.18531      0.99696118
   2476000  -315.56082      55.60219      -371.16301      296.08544     -554.28917      960.18531      0.99696118
   2477000  -328.26307      51.248793     -379.51186      272.9033       2064.3583      960.18531      0.99696118
   2478000  -307.1706       62.198685     -369.36928      331.21222      4177.6798      960.18531      0.99696118
   2479000  -309.39774      53.230188     -362.62793      283.45437     -1957.4193      960.18531      0.99696118
   2480000  -314.52265      56.814748     -371.3374       302.54239      923.88844      960.18531      0.99696118
   2481000  -319.247        51.905505     -371.15251      276.40034     -966.45899      960.18531      0.99696118
   2482000  -308.57521      59.305382     -367.88059      315.80519      903.93109      960.18531      0.99696118
   2483000  -335.49915      50.149913     -385.64906      267.05169     -1776.0296      960.18531      0.99696118
   2484000  -318.99025      61.749357     -380.7396       328.81952     -818.03225      960.18531      0.99696118
   2485000  -310.75995      61.599478     -372.35943      328.0214       783.23546      960.18531      0.99696118
   2486000  -327.31545      52.809744     -380.12519      281.21547     -215.3193       960.18531      0.99696118
   2487000  -312.71717      61.945951     -374.66312      329.86639     -3950.8389      960.18531      0.99696118
   2488000  -307.26319      51.342157     -358.60534      273.40047      2665.9518      960.18531      0.99696118
   2489000  -324.00424      61.113925     -385.11816      325.4358       912.72958      960.18531      0.99696118
   2490000  -331.61408      59.751683     -391.36577      318.18177     -3614.6902      960.18531      0.99696118
   2491000  -314.18802      61.240992     -375.42901      326.11244      2682.7734      960.18531      0.99696118
   2492000  -301.48285      54.902516     -356.38536      292.35963      2891.1338      960.18531      0.99696118
   2493000  -327.38337      59.50488      -386.88825      316.86752     -2092.5907      960.18531      0.99696118
   2494000  -302.43699      59.435407     -361.8724       316.49758      2822.8043      960.18531      0.99696118
   2495000  -316.18783      49.456464     -365.64429      263.35903      2683.7651      960.18531      0.99696118
   2496000  -325.13668      59.93779      -385.07447      319.1728      -34.381015      960.18531      0.99696118
   2497000  -309.74753      58.923226     -368.67076      313.77018     -1973.4439      960.18531      0.99696118
   2498000  -307.94829      60.142638     -368.09093      320.26363     -909.79067      960.18531      0.99696118
   2499000  -292.07204      57.076781     -349.14882      303.93773      296.35085      960.18531      0.99696118
   2500000  -316.86433      54.055458     -370.91979      287.84898      4016.2674      960.18531      0.99696118
   2501000  -321.96943      50.16752      -372.13695      267.14545     -1030.188       960.18531      0.99696118
   2502000  -301.4927       62.885847     -364.37855      334.8714      -259.30271      960.18531      0.99696118
   2503000  -312.2235       58.020024     -370.24353      308.96057     -884.7421       960.18531      0.99696118
   2504000  -332.81894      53.286782     -386.10572      283.75573      4045.2576      960.18531      0.99696118
   2505000  -311.25084      56.045554     -367.29639      298.44638     -16.437897      960.18531      0.99696118
   2506000  -301.95524      63.930978     -365.88622      340.4368      -2995.9309      960.18531      0.99696118
   2507000  -319.38349      50.504724     -369.88822      268.94108     -1448.3715      960.18531      0.99696118
   2508000  -317.3145       50.395016     -367.70951      268.35688      2986.2862      960.18531      0.99696118
   2509000  -316.69396      51.989257     -368.68322      276.84632     -327.01907      960.18531      0.99696118
   2510000  -313.66152      58.465811     -372.12733      311.33441     -1790.2859      960.18531      0.99696118
   2511000  -319.19316      69.088531     -388.28169      367.90112      4743.5181      960.18531      0.99696118
   2512000  -341.26853      46.832487     -388.10102      249.38617     -1445.3678      960.18531      0.99696118
   2513000  -314.656        57.79942      -372.45542      307.78584      2940.4713      960.18531      0.99696118
   2514000  -328.5652       55.245723     -383.81092      294.18723      1983.7946      960.18531      0.99696118
   2515000  -306.18327      52.99615      -359.17942      282.20809      613.11081      960.18531      0.99696118
   2516000  -326.07129      61.288211     -387.3595       326.36388      2473.8192      960.18531      0.99696118
   2517000  -341.75058      51.953789     -393.70437      276.65745      465.46216      960.18531      0.99696118
   2518000  -315.50021      61.899967     -377.40017      329.62153      512.39286      960.18531      0.99696118
   2519000  -300.12878      71.220729     -371.34951      379.25522     -856.5791       960.18531      0.99696118
   2520000  -305.2709       57.2673       -362.5382       304.95226     -691.63981      960.18531      0.99696118
   2521000  -303.54204      65.095683     -368.63773      346.63893      1084.7166      960.18531      0.99696118
   2522000  -304.92121      61.224179     -366.14539      326.02291     -693.10892      960.18531      0.99696118
   2523000  -332.1292       58.2689       -390.3981       310.28585      944.10248      960.18531      0.99696118
   2524000  -324.70127      59.570752     -384.27203      317.2183      -389.14102      960.18531      0.99696118
   2525000  -311.97446      53.284934     -365.25939      283.74589     -482.48676      960.18531      0.99696118
   2526000  -294.84279      63.864831     -358.70762      340.08456     -572.88623      960.18531      0.99696118
   2527000  -302.19829      61.577156     -363.77545      327.90254      4928.2101      960.18531      0.99696118
   2528000  -331.71717      46.581834     -378.299        248.05143     -902.99754      960.18531      0.99696118
   2529000  -325.44915      49.454522     -374.90367      263.34869      4721.6317      960.18531      0.99696118
   2530000  -304.45833      54.681465     -359.1398       291.18252      2416.7493      960.18531      0.99696118
   2531000  -308.02659      59.532742     -367.55934      317.01589      239.65865      960.18531      0.99696118
   2532000  -309.1661       57.918232     -367.08434      308.41852      956.17394      960.18531      0.99696118
   2533000  -300.68123      49.290276     -349.97151      262.47406     -1092.3466      960.18531      0.99696118
   2534000  -315.65407      53.522821     -369.17689      285.01265      277.19412      960.18531      0.99696118
   2535000  -331.8415       57.29221      -389.13372      305.08491     -85.3949        960.18531      0.99696118
   2536000  -309.31056      51.410393     -360.72095      273.76383      2057.1223      960.18531      0.99696118
   2537000  -294.41743      61.73802      -356.15545      328.75915      1965.0671      960.18531      0.99696118
   2538000  -317.52448      49.401378     -366.92586      263.06569     -3351.4879      960.18531      0.99696118
   2539000  -321.08662      57.702492     -378.78911      307.26969     -178.71589      960.18531      0.99696118
   2540000  -318.46271      51.409552     -369.87226      273.75936      78.761101      960.18531      0.99696118
   2541000  -328.53357      48.068165     -376.60174      255.96624     -2449.3194      960.18531      0.99696118
   2542000  -316.62797      56.313829     -372.9418       299.87496     -765.74032      960.18531      0.99696118
   2543000  -323.28053      59.871614     -383.15214      318.82041     -1081.1275      960.18531      0.99696118
   2544000  -304.27362      47.793426     -352.06705      254.50324     -1998.0992      960.18531      0.99696118
   2545000  -333.25738      37.059949     -370.31733      197.34674     -1851.0303      960.18531      0.99696118
   2546000  -309.25421      67.353098     -376.60731      358.65982      1445.6437      960.18531      0.99696118
   2547000  -328.22737      49.745013     -377.97238      264.89557     -2914.5217      960.18531      0.99696118
   2548000  -310.97539      59.216597     -370.19199      315.3324       983.85678      960.18531      0.99696118
   2549000  -301.8781       63.3636       -365.2417       337.41547     -334.63028      960.18531      0.99696118
   2550000  -314.68916      48.9851       -363.67426      260.84898      2367.3579      960.18531      0.99696118
   2551000  -320.76879      55.923647     -376.69244      297.79722     -3082.865       960.18531      0.99696118
   2552000  -325.07087      55.406575     -380.47745      295.04377      1656.4609      960.18531      0.99696118
   2553000  -320.61419      50.536042     -371.15023      269.10785     -1336.526       960.18531      0.99696118
   2554000  -312.1937       51.374732     -363.56843      273.57394      4978.5342      960.18531      0.99696118
   2555000  -320.94124      57.533638     -378.47488      306.37053     -1261.8921      960.18531      0.99696118
   2556000  -325.84158      42.999165     -368.84075      228.97348     -2541.3466      960.18531      0.99696118
   2557000  -302.98768      62.664274     -365.65196      333.69151      4876.9251      960.18531      0.99696118
   2558000  -319.47174      54.469637     -373.94137      290.05451      1559.5112      960.18531      0.99696118
   2559000  -305.17387      59.498336     -364.6722       316.83268      4460.6777      960.18531      0.99696118
   2560000  -315.05337      49.063708     -364.11708      261.26758      401.58917      960.18531      0.99696118
   2561000  -316.50722      57.392572     -373.89979      305.61934     -1096.0824      960.18531      0.99696118
   2562000  -295.75692      59.468202     -355.22513      316.67221     -2007.1859      960.18531      0.99696118
   2563000  -305.55362      57.939082     -363.49271      308.52954      232.10062      960.18531      0.99696118
   2564000  -324.66537      52.16826      -376.83363      277.79953     -2967.3963      960.18531      0.99696118
   2565000  -306.25248      58.449198     -364.70167      311.24595     -60.616557      960.18531      0.99696118
   2566000  -293.04767      55.941025     -348.98869      297.88976      314.79831      960.18531      0.99696118
   2567000  -303.28714      56.021622     -359.30876      298.31894      599.37358      960.18531      0.99696118
   2568000  -317.99983      56.662903     -374.66273      301.73381      909.5288       960.18531      0.99696118
   2569000  -305.41602      61.250192     -366.66622      326.16143      1237.6205      960.18531      0.99696118
   2570000  -319.01779      61.578698     -380.59649      327.91075     -946.31895      960.18531      0.99696118
   2571000  -320.86392      50.530031     -371.39395      269.07584     -2467.8757      960.18531      0.99696118
   2572000  -316.11763      64.959503     -381.07713      345.91376      1556.3467      960.18531      0.99696118
   2573000  -314.40577      57.789692     -372.19546      307.73403      1430.0566      960.18531      0.99696118
   2574000  -311.32524      48.2172       -359.54244      256.75986     -239.40195      960.18531      0.99696118
   2575000  -318.57839      49.243389     -367.82178      262.22439      1137.8117      960.18531      0.99696118
   2576000  -299.44899      51.151288     -350.60028      272.38408     -1011.976       960.18531      0.99696118
   2577000  -321.39524      64.190028     -385.58527      341.81626     -1418.163       960.18531      0.99696118
   2578000  -306.13354      64.827584     -370.96113      345.21129     -2393.5922      960.18531      0.99696118
   2579000  -328.54148      49.065802     -377.60728      261.27873     -2634.3248      960.18531      0.99696118
   2580000  -306.53492      61.716012     -368.25093      328.64196      1746.7287      960.18531      0.99696118
   2581000  -291.91624      57.354839     -349.27108      305.41841     -247.65435      960.18531      0.99696118
   2582000  -319.19664      49.271655     -368.4683       262.37491     -1917.8549      960.18531      0.99696118
   2583000  -329.33171      42.137992     -371.4697       224.38767      1575.9353      960.18531      0.99696118
   2584000  -312.51675      53.878711     -366.39547      286.90779      396.09678      960.18531      0.99696118
   2585000  -291.81839      65.655434     -357.47382      349.61965      585.60409      960.18531      0.99696118
   2586000  -313.40512      55.111717     -368.51684      293.47363     -700.54656      960.18531      0.99696118
   2587000  -310.15007      47.822625     -357.97269      254.65872     -2900.2303      960.18531      0.99696118
   2588000  -300.41059      59.342993     -359.75358      316.00546     -1665.2405      960.18531      0.99696118
   2589000  -282.19905      64.754379     -346.95343      344.82146      1227.4548      960.18531      0.99696118
   2590000  -293.11115      69.429968     -362.54112      369.71929      3668.4677      960.18531      0.99696118
   2591000  -315.48409      59.854963     -375.33905      318.73174      4636.0389      960.18531      0.99696118
   2592000  -313.48474      50.629422     -364.11416      269.60511     -731.61707      960.18531      0.99696118
   2593000  -311.70485      55.223923     -366.92877      294.07114     -1928.616       960.18531      0.99696118
   2594000  -306.17337      56.388679     -362.56205      300.27354      427.71267      960.18531      0.99696118
   2595000  -333.21568      40.390783     -373.60646      215.08366      434.67056      960.18531      0.99696118
   2596000  -308.6358       61.268592     -369.90439      326.25941     -412.03794      960.18531      0.99696118
   2597000  -308.14822      63.1486       -371.29682      336.27058      357.75126      960.18531      0.99696118
   2598000  -323.75521      53.951084     -377.7063       287.29319      1454.4186      960.18531      0.99696118
   2599000  -313.724        68.442641     -382.16664      364.46171     -3909.4293      960.18531      0.99696118
   2600000  -306.13195      67.433273     -373.56522      359.08676     -320.94215      960.18531      0.99696118
   2601000  -312.71283      54.969432     -367.68226      292.71595     -4729.1231      960.18531      0.99696118
   2602000  -309.1564       51.263176     -360.41958      272.97989      193.93251      960.18531      0.99696118
   2603000  -326.54559      55.756        -382.30159      296.90449     -1986.6108      960.18531      0.99696118
   2604000  -303.29143      61.642307     -364.93373      328.24947      562.32164      960.18531      0.99696118
   2605000  -309.74147      52.081474     -361.82294      277.33739      3247.5183      960.18531      0.99696118
   2606000  -326.74291      51.794576     -378.53748      275.80963      193.3233       960.18531      0.99696118
   2607000  -312.29946      65.765702     -378.06516      350.20683     -215.56478      960.18531      0.99696118
   2608000  -314.03467      68.076498     -382.11117      362.51197      606.17997      960.18531      0.99696118
   2609000  -308.82622      52.419047     -361.24526      279.13498     -3340.6413      960.18531      0.99696118
   2610000  -306.89407      57.249045     -364.14312      304.85505      3095.645       960.18531      0.99696118
   2611000  -311.48346      56.834828     -368.31828      302.64932      608.58716      960.18531      0.99696118
   2612000  -312.24007      49.957418     -362.19749      266.02664     -2949.1418      960.18531      0.99696118
   2613000  -292.34722      67.00281      -359.35003      356.79451      1112.65        960.18531      0.99696118
   2614000  -319.44046      49.971989     -369.41245      266.10424     -2374.1537      960.18531      0.99696118
   2615000  -308.82425      60.113527     -368.93778      320.10861     -1300.3783      960.18531      0.99696118
   2616000  -318.91935      48.105478     -367.02483      256.16494     -2189.2546      960.18531      0.99696118
   2617000  -313.36103      60.378121     -373.73915      321.51759      5650.8211      960.18531      0.99696118
   2618000  -317.67999      52.113741     -369.79373      277.50921     -4409.5536      960.18531      0.99696118
   2619000  -313.12893      62.757259     -375.88619      334.18666      307.57389      960.18531      0.99696118
   2620000  -320.25067      51.609664     -371.86034      274.82497      931.22138      960.18531      0.99696118
   2621000  -304.0797       52.233974     -356.31368      278.14946      1455.6937      960.18531      0.99696118
   2622000  -305.74059      62.747833     -368.48842      334.13647     -2066.2949      960.18531      0.99696118
   2623000  -320.53215      57.455335     -377.98748      305.95356     -331.5278       960.18531      0.99696118
   2624000  -313.04212      56.594755     -369.63687      301.37091     -3834.7374      960.18531      0.99696118
   2625000  -325.56339      55.224848     -380.78824      294.07606      1525.3938      960.18531      0.99696118
   2626000  -309.65753      56.118241     -365.77577      298.83344     -3111.8098      960.18531      0.99696118
   2627000  -314.50116      45.517853     -360.01901      242.38566     -2189.963       960.18531      0.99696118
   2628000  -299.45354      60.57198      -360.02552      322.5499       360.97501      960.18531      0.99696118
   2629000  -309.61783      62.794913     -372.41274      334.38717     -4585.2374      960.18531      0.99696118
   2630000  -324.55728      54.966832     -379.52411      292.70211     -882.52097      960.18531      0.99696118
   2631000  -335.65252      45.655355     -381.30788      243.11786     -2313.1172      960.18531      0.99696118
   2632000  -326.00647      49.998546     -376.00502      266.24565      273.97609      960.18531      0.99696118
   2633000  -306.70971      53.537015     -360.24672      285.08824      1225.4225      960.18531      0.99696118
   2634000  -299.26756      54.353796     -353.62136      289.43765     -1658.8537      960.18531      0.99696118
   2635000  -317.14326      51.797114     -368.94037      275.82315      2070.0832      960.18531      0.99696118
   2636000  -314.42966      51.944495     -366.37415      276.60796      1226.3354      960.18531      0.99696118
   2637000  -309.53644      57.608452     -367.14489      306.76892     -576.24551      960.18531      0.99696118
   2638000  -310.86797      59.84976      -370.71773      318.70403      2330.4923      960.18531      0.99696118
   2639000  -318.83579      54.213114     -373.04891      288.68851     -364.18018      960.18531      0.99696118
   2640000  -307.07389      62.471306     -369.54519      332.66394      3997.5433      960.18531      0.99696118
   2641000  -314.85774      60.08434      -374.94208      319.95319      338.55085      960.18531      0.99696118
   2642000  -319.21973      53.839674     -373.0594       286.69992     -4505.9916      960.18531      0.99696118
   2643000  -308.76054      60.652777     -369.41331      322.98016     -508.2531       960.18531      0.99696118
   2644000  -315.87994      52.144273     -368.02421      277.6718       3213.3597      960.18531      0.99696118
   2645000  -318.57633      58.313179     -376.88951      310.52163      1285.8512      960.18531      0.99696118
   2646000  -294.05734      63.579348     -357.63669      338.56435     -3694.6467      960.18531      0.99696118
   2647000  -307.2868       61.333316     -368.62011      326.60407     -3433.4086      960.18531      0.99696118
   2648000  -329.27104      55.494037     -384.76508      295.50951     -4803.4947      960.18531      0.99696118
   2649000  -303.36736      62.0093       -365.37666      330.20373     -1105.3524      960.18531      0.99696118
   2650000  -295.53919      48.709046     -344.24824      259.37898     -478.90125      960.18531      0.99696118
   2651000  -312.41289      65.911017     -378.32391      350.98064     -181.96468      960.18531      0.99696118
   2652000  -340.02032      50.474063     -390.49439      268.77781      933.35321      960.18531      0.99696118
   2653000  -324.21563      48.018533     -372.23416      255.70195     -3521.2537      960.18531      0.99696118
   2654000  -309.12034      58.382251     -367.50259      310.88945      216.43455      960.18531      0.99696118
   2655000  -300.33113      62.545626     -362.87676      333.0597      -3650.2138      960.18531      0.99696118
   2656000  -312.82451      55.061571     -367.88608      293.2066       59.407366      960.18531      0.99696118
   2657000  -322.57148      54.347834     -376.91932      289.4059       363.54529      960.18531      0.99696118
   2658000  -333.90638      51.226549     -385.13293      272.78485     -3647.9803      960.18531      0.99696118
   2659000  -301.34087      62.430891     -363.77176      332.44873     -67.556045      960.18531      0.99696118
   2660000  -311.53031      50.946505     -362.47682      271.2936       2147.8505      960.18531      0.99696118
   2661000  -318.70708      49.375661     -368.08274      262.92875     -2160.2472      960.18531      0.99696118
   2662000  -323.24751      53.663205     -376.91071      285.76021      1250.6773      960.18531      0.99696118
   2663000  -288.2302       64.570102     -352.80031      343.84018      1363.6144      960.18531      0.99696118
   2664000  -303.54991      55.485766     -359.03567      295.46547     -334.84864      960.18531      0.99696118
   2665000  -306.5979       54.149439     -360.74734      288.34944      1096.4447      960.18531      0.99696118
   2666000  -316.70964      60.966324     -377.67596      324.64981      2637.6963      960.18531      0.99696118
   2667000  -308.97121      55.422009     -364.39321      295.12596     -558.34561      960.18531      0.99696118
   2668000  -302.14837      56.839879     -358.98825      302.67621      47.133768      960.18531      0.99696118
   2669000  -314.24851      51.942952     -366.19146      276.59974     -3200.4199      960.18531      0.99696118
   2670000  -321.87513      58.645607     -380.52074      312.29184      628.69227      960.18531      0.99696118
   2671000  -307.52625      63.680588     -371.20684      339.10345      2475.273       960.18531      0.99696118
   2672000  -319.38797      57.813746     -377.20171      307.86212      335.75127      960.18531      0.99696118
   2673000  -318.20754      56.927073     -375.13461      303.14053     -4095.2144      960.18531      0.99696118
   2674000  -334.46603      46.153946     -380.61997      245.7729       41.064906      960.18531      0.99696118
   2675000  -305.74569      69.050308     -374.796        367.69758     -625.0559       960.18531      0.99696118
   2676000  -316.85244      53.148425     -370.00086      283.01897     -1469.2144      960.18531      0.99696118
   2677000  -310.61053      53.93065      -364.54118      287.18437      953.20004      960.18531      0.99696118
   2678000  -292.31204      62.905753     -355.2178       334.9774       2025.9306      960.18531      0.99696118
   2679000  -324.4208       48.67598      -373.09678      259.2029      -2450.3607      960.18531      0.99696118
   2680000  -331.54575      41.580406     -373.12616      221.41849     -1528.5633      960.18531      0.99696118
   2681000  -315.08827      54.99093      -370.0792       292.83043      323.77015      960.18531      0.99696118
   2682000  -307.35846      60.815524     -368.17399      323.8468       3525.6076      960.18531      0.99696118
   2683000  -317.51119      51.861248     -369.37244      276.16467      5449.6276      960.18531      0.99696118
   2684000  -306.14026      61.663529     -367.80379      328.36248     -1955.8172      960.18531      0.99696118
   2685000  -308.88048      54.988251     -363.86873      292.81617     -1113.5479      960.18531      0.99696118
   2686000  -323.99322      46.047596     -370.04082      245.20657      234.59098      960.18531      0.99696118
   2687000  -305.62111      58.771151     -364.39227      312.96037      2324.7447      960.18531      0.99696118
   2688000  -312.47968      57.725966     -370.20564      307.39469     -259.46752      960.18531      0.99696118
   2689000  -298.34749      66.188334     -364.53582      352.45737      264.89614      960.18531      0.99696118
   2690000  -321.40965      47.965722     -369.37537      255.42073     -1967.3453      960.18531      0.99696118
   2691000  -309.31605      57.629415     -366.94547      306.88055      2298.8335      960.18531      0.99696118
   2692000  -322.29526      52.911715     -375.20697      281.75847     -171.1342       960.18531      0.99696118
   2693000  -321.95066      57.831848     -379.78251      307.95851     -1900.0201      960.18531      0.99696118
   2694000  -294.07609      65.106099     -359.18219      346.6944       3692.744       960.18531      0.99696118
   2695000  -308.62412      57.275328     -365.89944      304.99501     -784.72887      960.18531      0.99696118
   2696000  -319.85961      62.965942     -382.82555      335.29791     -1607.3936      960.18531      0.99696118
   2697000  -337.52646      40.722343     -378.2488       216.84924     -778.73895      960.18531      0.99696118
   2698000  -323.76058      53.328743     -377.08932      283.97918     -1503.7905      960.18531      0.99696118
   2699000  -315.90652      55.296659     -371.20318      294.45846     -336.89736      960.18531      0.99696118
   2700000  -321.11211      56.65355      -377.76566      301.684        192.05847      960.18531      0.99696118
   2701000  -332.77707      53.238548     -386.01562      283.49888     -3752.5876      960.18531      0.99696118
   2702000  -318.19468      63.636545     -381.83123      338.86892     -3402.2306      960.18531      0.99696118
   2703000  -344.20702      38.132033     -382.33906      203.05566     -2421.6818      960.18531      0.99696118
   2704000  -319.85041      56.366541     -376.21695      300.15566      216.65402      960.18531      0.99696118
   2705000  -330.96865      50.414832     -381.38348      268.4624      -2424.3473      960.18531      0.99696118
   2706000  -338.97042      46.601782     -385.5722       248.15765     -3149.6017      960.18531      0.99696118
   2707000  -325.38586      51.407065     -376.79293      273.74611      3335.6794      960.18531      0.99696118
   2708000  -313.21862      60.177356     -373.39597      320.44851      2730.2815      960.18531      0.99696118
   2709000  -319.71356      56.352744     -376.0663       300.08219      1928.537       960.18531      0.99696118
   2710000  -314.09826      45.443479     -359.54174      241.98961     -2269.0872      960.18531      0.99696118
   2711000  -306.38984      52.259561     -358.6494       278.28571      1373.4541      960.18531      0.99696118
   2712000  -330.35728      58.640058     -388.99734      312.26229     -1748.4396      960.18531      0.99696118
   2713000  -344.24577      50.33247      -394.57824      268.02382     -914.93198      960.18531      0.99696118
   2714000  -318.55376      56.677624     -375.23139      301.8122       3651.5536      960.18531      0.99696118
   2715000  -299.65581      65.646847     -365.30266      349.57392      963.10946      960.18531      0.99696118
   2716000  -319.08868      50.24146      -369.33014      267.53918      1247.2679      960.18531      0.99696118
   2717000  -298.73091      57.105254     -355.83616      304.08935     -660.87921      960.18531      0.99696118
   2718000  -325.73008      52.294506     -378.02459      278.4718      -33.758412      960.18531      0.99696118
   2719000  -290.22203      65.138412     -355.36045      346.86647      767.49526      960.18531      0.99696118
   2720000  -309.3595       61.293453     -370.65295      326.3918       688.44734      960.18531      0.99696118
   2721000  -312.74159      55.726376     -368.46797      296.74673      2833.3168      960.18531      0.99696118
   2722000  -320.15822      49.077785     -369.236        261.34254      941.91631      960.18531      0.99696118
   2723000  -337.6846       61.232733     -398.91733      326.06846     -1707.1469      960.18531      0.99696118
   2724000  -305.71131      58.920181     -364.63149      313.75397     -1285.7244      960.18531      0.99696118
   2725000  -324.08832      51.574566     -375.66288      274.63806     -37.613579      960.18531      0.99696118
   2726000  -323.23009      45.397201     -368.62729      241.74318     -1932.7675      960.18531      0.99696118
   2727000  -307.40883      57.021404     -364.43023      303.64285      189.19877      960.18531      0.99696118
   2728000  -328.89112      53.302447     -382.19357      283.83915     -945.32798      960.18531      0.99696118
   2729000  -326.89529      50.529208     -377.4245       269.07146      1485.7472      960.18531      0.99696118
   2730000  -319.28168      66.015061     -385.29674      351.53468     -1609.816       960.18531      0.99696118
   2731000  -320.65195      53.043735     -373.69569      282.46149      612.28579      960.18531      0.99696118
   2732000  -332.50186      57.853785     -390.35564      308.07533      2102.1584      960.18531      0.99696118
   2733000  -313.20261      63.65205      -376.85466      338.95149      831.91772      960.18531      0.99696118
   2734000  -333.36838      47.050407     -380.41879      250.54661     -4065.3751      960.18531      0.99696118
   2735000  -307.32973      54.98132      -362.31105      292.77926      2833.2122      960.18531      0.99696118
   2736000  -323.91605      52.08157      -375.99762      277.3379      -3999.977       960.18531      0.99696118
   2737000  -312.52403      59.919681     -372.44371      319.07637     -3056.5994      960.18531      0.99696118
   2738000  -292.36282      60.355699     -352.71852      321.3982      -5425.4316      960.18531      0.99696118
   2739000  -312.3882       57.390003     -369.77821      305.60566     -3057.7574      960.18531      0.99696118
   2740000  -306.40562      62.307978     -368.7136       331.79421     -1859.8633      960.18531      0.99696118
   2741000  -315.7689       52.238392     -368.00729      278.17298      1120.1204      960.18531      0.99696118
   2742000  -318.9145       53.552442     -372.46694      285.17039      493.13867      960.18531      0.99696118
   2743000  -306.08359      59.304049     -365.38763      315.79808     -2376.2379      960.18531      0.99696118
   2744000  -306.03944      58.499997     -364.53944      311.51645      1110.2728      960.18531      0.99696118
   2745000  -297.85875      62.343956     -360.20271      331.9858       3866.8095      960.18531      0.99696118
   2746000  -295.54395      67.76591      -363.30986      360.85807      198.74289      960.18531      0.99696118
   2747000  -313.19721      52.897135     -366.09435      281.68083     -5496.7706      960.18531      0.99696118
   2748000  -321.14325      44.038877     -365.18213      234.51001     -626.00517      960.18531      0.99696118
   2749000  -288.68009      70.084982     -358.76508      373.20728     -437.11269      960.18531      0.99696118
   2750000  -293.94447      58.088389     -352.03286      309.32462      1296.4541      960.18531      0.99696118
   2751000  -329.2505       55.329519     -384.58002      294.63345     -2190.8377      960.18531      0.99696118
   2752000  -324.80233      54.323172     -379.1255       289.27458     -2473.5196      960.18531      0.99696118
   2753000  -315.89169      58.577459     -374.46915      311.92894      4526.8236      960.18531      0.99696118
   2754000  -326.96356      49.478042     -376.4416       263.47393      3690.6715      960.18531      0.99696118
   2755000  -321.18568      57.261501     -378.44718      304.92138      619.10292      960.18531      0.99696118
   2756000  -324.43658      53.128697     -377.56528      282.91392     -1572.059       960.18531      0.99696118
   2757000  -311.81613      57.911251     -369.72738      308.38135     -413.39776      960.18531      0.99696118
   2758000  -340.66433      48.429235     -389.09356      257.88896      2402.8165      960.18531      0.99696118
   2759000  -316.9931       53.011164     -370.00426      282.28805     -1204.5763      960.18531      0.99696118
   2760000  -323.4485       51.388985     -374.83748      273.64983     -346.0328       960.18531      0.99696118
   2761000  -301.14096      63.805516     -364.94647      339.7687       841.38249      960.18531      0.99696118
   2762000  -310.7514       54.213683     -364.96509      288.69154     -1537.041       960.18531      0.99696118
   2763000  -325.70182      56.995582     -382.6974       303.50534     -239.84909      960.18531      0.99696118
   2764000  -315.05169      63.71204      -378.76373      339.27094     -1177.0477      960.18531      0.99696118
   2765000  -319.44488      53.518701     -372.96359      284.99072      1921.7669      960.18531      0.99696118
   2766000  -338.86818      48.993931     -387.86211      260.89601      691.90418      960.18531      0.99696118
   2767000  -322.2169       55.499697     -377.7166       295.53966      1388.8047      960.18531      0.99696118
   2768000  -311.09251      60.071356     -371.16387      319.88405     -1908.7227      960.18531      0.99696118
   2769000  -328.71947      59.000781     -387.72025      314.18317      1284.284       960.18531      0.99696118
   2770000  -309.00645      59.453611     -368.46006      316.59451     -277.68973      960.18531      0.99696118
   2771000  -312.1763       54.285693     -366.46199      289.075       -380.27847      960.18531      0.99696118
   2772000  -325.0321       54.572838     -379.60494      290.60407     -1346.886       960.18531      0.99696118
   2773000  -323.32447      56.275016     -379.59948      299.66828      4194.6195      960.18531      0.99696118
   2774000  -320.49296      55.094461     -375.58743      293.38175     -2180.4219      960.18531      0.99696118
   2775000  -330.68388      50.756372     -381.44025      270.28113     -643.14178      960.18531      0.99696118
   2776000  -303.36348      54.905834     -358.26931      292.37729      282.22622      960.18531      0.99696118
   2777000  -312.06859      62.718457     -374.78705      333.98004     -413.91101      960.18531      0.99696118
   2778000  -327.46088      52.46152      -379.9224       279.36116     -1166.3903      960.18531      0.99696118
   2779000  -322.36528      58.58456      -380.94984      311.96676      1772.0073      960.18531      0.99696118
   2780000  -301.71684      62.180097     -363.89694      331.11324     -1304.8917      960.18531      0.99696118
   2781000  -324.51465      58.327293     -382.84194      310.59679      973.47474      960.18531      0.99696118
   2782000  -304.66911      64.258385     -368.92749      342.18026      423.00828      960.18531      0.99696118
   2783000  -319.74512      63.312953     -383.05807      337.14577     -1975.1237      960.18531      0.99696118
   2784000  -325.87177      52.271202     -378.14297      278.3477      -2209.5689      960.18531      0.99696118
   2785000  -322.07127      56.145186     -378.21646      298.97693     -69.228379      960.18531      0.99696118
   2786000  -316.78346      54.013109     -370.79657      287.62347      2357.6885      960.18531      0.99696118
   2787000  -293.94391      51.920868     -345.86478      276.48214      1757.8692      960.18531      0.99696118
   2788000  -311.62162      60.512303     -372.13392      322.23212     -211.29767      960.18531      0.99696118
   2789000  -297.57711      64.148128     -361.72524      341.59313     -1536.9801      960.18531      0.99696118
   2790000  -312.49117      63.887354     -376.37853      340.2045       593.68229      960.18531      0.99696118
   2791000  -300.53592      65.04998      -365.5859       346.39556      2718.9807      960.18531      0.99696118
   2792000  -311.01543      49.170019     -360.18545      261.83369     -639.44163      960.18531      0.99696118
   2793000  -314.32315      51.444534     -365.76768      273.94564      1417.9854      960.18531      0.99696118
   2794000  -318.81639      56.704889     -375.52128      301.95738      2489.5937      960.18531      0.99696118
   2795000  -330.28953      57.32717      -387.6167       305.27107     -4029.8483      960.18531      0.99696118
   2796000  -321.55253      50.393234     -371.94576      268.34739      3075.6352      960.18531      0.99696118
   2797000  -304.5781       60.393621     -364.97172      321.60013      573.81612      960.18531      0.99696118
   2798000  -318.27577      60.056986     -378.33275      319.80753     -1910.0215      960.18531      0.99696118
   2799000  -303.76975      52.701203     -356.47095      280.63749     -1150.1505      960.18531      0.99696118
   2800000  -314.90028      55.522142     -370.42243      295.65918     -758.9968       960.18531      0.99696118
   2801000  -309.28005      59.661651     -368.9417       317.70234     -868.32318      960.18531      0.99696118
   2802000  -319.1853       48.311471     -367.49678      257.26186     -2436.7219      960.18531      0.99696118
   2803000  -297.5029       67.023582     -364.52648      356.90512     -775.61192      960.18531      0.99696118
   2804000  -318.06952      56.893588     -374.96311      302.96222      1564.0452      960.18531      0.99696118
   2805000  -306.91545      61.19086      -368.10631      325.84548     -761.87931      960.18531      0.99696118
   2806000  -313.34962      51.389295     -364.73892      273.65149      819.48249      960.18531      0.99696118
   2807000  -310.33225      51.133623     -361.46587      272.29002      601.28878      960.18531      0.99696118
   2808000  -327.92305      49.572957     -377.49601      263.97936     -721.14741      960.18531      0.99696118
   2809000  -312.31899      54.258182     -366.57717      288.9285       962.99949      960.18531      0.99696118
   2810000  -316.03244      50.754637     -366.78708      270.27189      1887.5961      960.18531      0.99696118
   2811000  -331.3117       45.135161     -376.44686      240.3478       845.85046      960.18531      0.99696118
   2812000  -312.22896      55.949684     -368.17864      297.93586     -2278.9108      960.18531      0.99696118
   2813000  -334.9526       55.674006     -390.6266       296.46786      1969.5609      960.18531      0.99696118
   2814000  -311.74119      63.851844     -375.59303      340.01541     -2238.6485      960.18531      0.99696118
   2815000  -324.16391      49.179783     -373.34369      261.88568     -1285.4782      960.18531      0.99696118
   2816000  -311.19532      57.360364     -368.55568      305.44783      1057.6756      960.18531      0.99696118
   2817000  -310.73433      56.913491     -367.64782      303.0682      -734.41915      960.18531      0.99696118
   2818000  -321.66749      41.311478     -362.97897      219.98643      1093.5677      960.18531      0.99696118
   2819000  -317.67393      51.188463     -368.8624       272.58204     -124.91126      960.18531      0.99696118
   2820000  -311.29627      56.784554     -368.08083      302.38161     -5021.3058      960.18531      0.99696118
   2821000  -308.6985       56.548069     -365.24657      301.12231     -91.205924      960.18531      0.99696118
   2822000  -315.18598      54.955136     -370.14112      292.63983     -3014.0177      960.18531      0.99696118
   2823000  -295.56123      66.633424     -362.19465      354.8275      -530.31463      960.18531      0.99696118
   2824000  -320.27522      60.406133     -380.68135      321.66676     -378.75012      960.18531      0.99696118
   2825000  -303.33289      63.734063     -367.06695      339.38821      1320.7132      960.18531      0.99696118
   2826000  -309.14028      58.256259     -367.39654      310.21854      1489.2867      960.18531      0.99696118
   2827000  -299.38411      69.855492     -369.2396       371.98524     -992.93783      960.18531      0.99696118
   2828000  -319.61882      49.534562     -369.15338      263.77491     -1621.2339      960.18531      0.99696118
   2829000  -303.19787      65.711865     -368.90973      349.92014     -3080.3883      960.18531      0.99696118
   2830000  -320.23144      57.005567     -377.23701      303.55851     -714.14166      960.18531      0.99696118
   2831000  -324.3717       53.004131     -377.37583      282.2506       2167.9764      960.18531      0.99696118
   2832000  -310.45723      53.357303     -363.81454      284.13126      536.5959       960.18531      0.99696118
   2833000  -321.07278      62.065387     -383.13817      330.5024       3149.0943      960.18531      0.99696118
   2834000  -310.46232      63.769937     -374.23226      339.57925      844.97065      960.18531      0.99696118
   2835000  -307.39742      57.16912      -364.56654      304.42945      909.20088      960.18531      0.99696118
   2836000  -307.81303      59.627049     -367.44008      317.51808     -529.37881      960.18531      0.99696118
   2837000  -304.93893      52.020993     -356.95992      277.01532     -739.29812      960.18531      0.99696118
   2838000  -320.41659      53.043049     -373.45964      282.45784     -229.84748      960.18531      0.99696118
   2839000  -305.21703      57.893878     -363.1109       308.28883     -2099.3917      960.18531      0.99696118
   2840000  -297.0336       77.322803     -374.35641      411.74918      1399.1086      960.18531      0.99696118
   2841000  -308.38257      56.755895     -365.13847      302.229        486.07422      960.18531      0.99696118
   2842000  -317.02403      62.619343     -379.64338      333.45225     -1511.7865      960.18531      0.99696118
   2843000  -329.27771      51.576183     -380.85389      274.64668      1687.2351      960.18531      0.99696118
   2844000  -313.70669      57.982535     -371.68923      308.76094      2814.3211      960.18531      0.99696118
   2845000  -314.71925      55.78017      -370.49942      297.03319     -1579.5975      960.18531      0.99696118
   2846000  -324.71717      51.178602     -375.89577      272.52953     -2479.7134      960.18531      0.99696118
   2847000  -313.18281      53.468073     -366.65088      284.72112     -5501.4023      960.18531      0.99696118
   2848000  -300.63825      62.925201     -363.56345      335.08097      1527.2207      960.18531      0.99696118
   2849000  -322.3337       55.628176     -377.96188      296.22381     -4772.5969      960.18531      0.99696118
   2850000  -304.81024      63.137749     -367.94799      336.2128      -449.81735      960.18531      0.99696118
   2851000  -320.90018      51.026993     -371.92717      271.7222       2534.741       960.18531      0.99696118
   2852000  -297.53881      60.865671     -358.40448      324.11383     -2125.2495      960.18531      0.99696118
   2853000  -318.1787       50.57265      -368.75135      269.30279      1367.1183      960.18531      0.99696118
   2854000  -307.31472      56.563669     -363.87839      301.20538      220.38787      960.18531      0.99696118
   2855000  -301.7638       59.869527     -361.63333      318.8093       607.5858       960.18531      0.99696118
   2856000  -302.68591      59.146261     -361.83217      314.95786     -3612.3815      960.18531      0.99696118
   2857000  -320.90187      60.019084     -380.92095      319.60569     -1897.8495      960.18531      0.99696118
   2858000  -315.01409      60.178985     -375.19307      320.45718     -1786.9262      960.18531      0.99696118
   2859000  -326.97674      47.044761     -374.0215       250.51654     -2056.598       960.18531      0.99696118
   2860000  -299.13655      67.617974     -366.75453      360.0703       62.998841      960.18531      0.99696118
   2861000  -331.01112      53.216601     -384.22772      283.38202      2344.7378      960.18531      0.99696118
   2862000  -321.97693      54.799348     -376.77628      291.81025      2838.5366      960.18531      0.99696118
   2863000  -339.69843      50.397625     -390.09606      268.37077     -1547.2397      960.18531      0.99696118
   2864000  -331.1991       59.174696     -390.3738       315.10927     -2385.705       960.18531      0.99696118
   2865000  -327.54556      54.271959     -381.81751      289.00186     -2310.2296      960.18531      0.99696118
   2866000  -320.36615      60.148942     -380.51509      320.2972      -1482.2608      960.18531      0.99696118
   2867000  -325.22851      47.801362     -373.02987      254.5455       1777.8028      960.18531      0.99696118
   2868000  -322.99598      59.247943     -382.24393      315.49932     -528.70155      960.18531      0.99696118
   2869000  -315.13063      64.627129     -379.75776      344.14385      2256.4695      960.18531      0.99696118
   2870000  -300.99947      56.760092     -357.75956      302.25134      736.52738      960.18531      0.99696118
   2871000  -319.76091      52.109751     -371.87066      277.48796     -3425.1599      960.18531      0.99696118
   2872000  -297.17339      55.442015     -352.61541      295.23249      1225.9729      960.18531      0.99696118
   2873000  -321.08119      50.441711     -371.5229       268.60554     -5105.9701      960.18531      0.99696118
   2874000  -331.12608      41.943036     -373.06911      223.34952     -3335.7632      960.18531      0.99696118
   2875000  -309.90461      64.221886     -374.12649      341.9859      -2948.8134      960.18531      0.99696118
   2876000  -318.85997      50.03378      -368.89376      266.43328      1809.4428      960.18531      0.99696118
   2877000  -315.96309      56.257962     -372.22106      299.57747      187.59214      960.18531      0.99696118
   2878000  -333.53299      54.369093     -387.90209      289.51911     -1158.7722      960.18531      0.99696118
   2879000  -305.56528      62.05414      -367.61942      330.44251     -3829.3235      960.18531      0.99696118
   2880000  -308.43918      53.339034     -361.77821      284.03397      1379.8932      960.18531      0.99696118
   2881000  -322.2417       47.494108     -369.73581      252.90935     -2002.6517      960.18531      0.99696118
   2882000  -296.71404      56.498071     -353.21211      300.85607      319.07728      960.18531      0.99696118
   2883000  -319.42654      51.517784     -370.94432      274.3357      -4829.3042      960.18531      0.99696118
   2884000  -311.82164      54.355647     -366.17729      289.44751     -1787.2444      960.18531      0.99696118
   2885000  -322.55348      54.587299     -377.14078      290.68107     -1953.2874      960.18531      0.99696118
   2886000  -294.19778      65.283785     -359.48157      347.64059     -2288.2622      960.18531      0.99696118
   2887000  -307.09992      64.819233     -371.91915      345.16681      4444.782       960.18531      0.99696118
   2888000  -313.54077      52.297029     -365.83779      278.48523     -540.19462      960.18531      0.99696118
   2889000  -308.59325      64.612269     -373.20552      344.06472      5541.9332      960.18531      0.99696118
   2890000  -310.44906      55.419523     -365.86858      295.11272     -201.85793      960.18531      0.99696118
   2891000  -312.87606      48.694888     -361.57095      259.30358      2688.8401      960.18531      0.99696118
   2892000  -315.79746      63.744512     -379.54197      339.44385     -256.81522      960.18531      0.99696118
   2893000  -318.79387      57.405002     -376.19887      305.68553     -836.25222      960.18531      0.99696118
   2894000  -332.22614      57.633457     -389.85959      306.90207      1600.0937      960.18531      0.99696118
   2895000  -310.17529      61.737984     -371.91327      328.75896      837.45981      960.18531      0.99696118
   2896000  -301.83115      67.251854     -369.08301      358.12069     -693.40689      960.18531      0.99696118
   2897000  -301.13959      53.811959     -354.95155      286.55233      786.33489      960.18531      0.99696118
   2898000  -324.3277       54.487539     -378.81524      290.14984      76.430853      960.18531      0.99696118
   2899000  -324.10179      49.86571      -373.9675       265.53829      1496.3157      960.18531      0.99696118
   2900000  -335.40053      43.318198     -378.71873      230.67235     -4559.1973      960.18531      0.99696118
   2901000  -311.04816      61.136089     -372.18425      325.55383      662.8465       960.18531      0.99696118
   2902000  -327.51259      54.249596     -381.76218      288.88278      544.19002      960.18531      0.99696118
   2903000  -306.73918      55.704787     -362.44396      296.63177     -848.50732      960.18531      0.99696118
   2904000  -305.44363      54.304564     -359.7482       289.17549     -201.57184      960.18531      0.99696118
   2905000  -313.33743      54.723532     -368.06096      291.40653     -701.13364      960.18531      0.99696118
   2906000  -319.11973      58.708285     -377.82801      312.6256      -3391.7559      960.18531      0.99696118
   2907000  -308.00733      61.867929     -369.87526      329.45092      4521.6419      960.18531      0.99696118
   2908000  -307.81379      50.964772     -358.77856      271.39087     -1267.6119      960.18531      0.99696118
   2909000  -303.97686      57.557383     -361.53424      306.49697     -4111.6839      960.18531      0.99696118
   2910000  -315.52158      53.513415     -369.035        284.96257      2166.9422      960.18531      0.99696118
   2911000  -308.14852      58.939565     -367.08809      313.85719      3692.6342      960.18531      0.99696118
   2912000  -308.2496       60.002764     -368.25237      319.51879      389.71599      960.18531      0.99696118
   2913000  -316.65033      60.281461     -376.93179      321.00287      799.21897      960.18531      0.99696118
   2914000  -310.71704      57.209031     -367.92607      304.64197      4004.8988      960.18531      0.99696118
   2915000  -310.22087      58.708787     -368.92966      312.62827      4003.4095      960.18531      0.99696118
   2916000  -291.22384      60.617248     -351.84109      322.79096      4289.8197      960.18531      0.99696118
   2917000  -322.11141      47.379997     -369.49141      252.3017       906.78157      960.18531      0.99696118
   2918000  -312.34395      60.274818     -372.61877      320.9675       2433.777       960.18531      0.99696118
   2919000  -310.36713      53.163368     -363.5305       283.09854     -1325.3193      960.18531      0.99696118
   2920000  -301.13075      70.670593     -371.80134      376.3257      -3280.1641      960.18531      0.99696118
   2921000  -319.80816      60.575515     -380.38368      322.56873      721.4983       960.18531      0.99696118
   2922000  -307.20043      66.325252     -373.52568      353.18647      593.00657      960.18531      0.99696118
   2923000  -299.94785      58.108701     -358.05655      309.43278      2367.6829      960.18531      0.99696118
   2924000  -330.38235      57.036738     -387.41908      303.7245      -2919.2773      960.18531      0.99696118
   2925000  -327.99874      53.008939     -381.00768      282.2762      -78.011832      960.18531      0.99696118
   2926000  -317.37961      50.259785     -367.6394       267.63677     -925.44673      960.18531      0.99696118
   2927000  -317.44708      53.88232      -371.3294       286.92701     -1609.1746      960.18531      0.99696118
   2928000  -316.82806      49.14062      -365.96868      261.67714      999.11782      960.18531      0.99696118
   2929000  -312.01294      50.835699     -362.84864      270.70355      264.00629      960.18531      0.99696118
   2930000  -306.76859      61.415077     -368.18367      327.03945      76.823434      960.18531      0.99696118
   2931000  -324.92802      52.757509     -377.68553      280.93732     -416.47141      960.18531      0.99696118
   2932000  -324.28437      55.843212     -380.12758      297.36889     -1631.0523      960.18531      0.99696118
   2933000  -301.67022      60.964029     -362.63425      324.63759     -561.44547      960.18531      0.99696118
   2934000  -315.4046       58.578724     -373.98332      311.93568     -1085.3594      960.18531      0.99696118
   2935000  -316.10688      57.7442       -373.85108      307.49179      1228.0218      960.18531      0.99696118
   2936000  -311.34716      56.325207     -367.67237      299.93555      2468.2949      960.18531      0.99696118
   2937000  -324.31554      46.50799      -370.82353      247.65821      1838.3136      960.18531      0.99696118
   2938000  -309.79461      54.900901     -364.69551      292.35103     -132.79157      960.18531      0.99696118
   2939000  -312.53947      53.989248     -366.52871      287.49641      1853.2887      960.18531      0.99696118
   2940000  -320.70862      58.41173      -379.12035      311.04643      889.1897       960.18531      0.99696118
   2941000  -300.15328      58.9758       -359.12908      314.05014      691.07229      960.18531      0.99696118
   2942000  -311.83953      65.541466     -377.38099      349.01276     -330.1091       960.18531      0.99696118
   2943000  -305.90105      50.491984     -356.39303      268.87324     -87.930047      960.18531      0.99696118
   2944000  -318.73139      59.164843     -377.89623      315.0568       1118.9318      960.18531      0.99696118
   2945000  -314.29598      49.341843     -363.63782      262.74866     -387.41872      960.18531      0.99696118
   2946000  -297.04673      61.594872     -358.6416       327.99687     -2546.1135      960.18531      0.99696118
   2947000  -329.79577      46.056593     -375.85237      245.25448      2508.9606      960.18531      0.99696118
   2948000  -317.45272      58.214103     -375.66682      309.99405      3251.0148      960.18531      0.99696118
   2949000  -317.61733      51.133818     -368.75115      272.29105      5071.2554      960.18531      0.99696118
   2950000  -317.00506      54.14123      -371.14629      288.30572     -763.05569      960.18531      0.99696118
   2951000  -332.04646      50.910714     -382.95717      271.10301     -1626.026       960.18531      0.99696118
   2952000  -312.34253      50.245288     -362.58782      267.55957     -601.92752      960.18531      0.99696118
   2953000  -316.34722      48.70414      -365.05136      259.35285      1081.8331      960.18531      0.99696118
   2954000  -311.27867      54.589063     -365.86773      290.69047      3612.141       960.18531      0.99696118
   2955000  -308.1157       57.176696     -365.29239      304.46979     -1457.8429      960.18531      0.99696118
   2956000  -322.28752      47.188037     -369.47556      251.2795      -355.93151      960.18531      0.99696118
   2957000  -308.36857      53.551242     -361.91981      285.164        2542.4764      960.18531      0.99696118
   2958000  -319.38698      50.999964     -370.38695      271.57827      1302.3134      960.18531      0.99696118
   2959000  -309.38045      57.123197     -366.50364      304.1849      -168.43054      960.18531      0.99696118
   2960000  -310.90201      54.653718     -365.55572      291.03476     -1147.984       960.18531      0.99696118
   2961000  -319.36915      56.974052     -376.3432       303.3907       48.909924      960.18531      0.99696118
   2962000  -323.34514      49.879679     -373.22482      265.61268      1435.3527      960.18531      0.99696118
   2963000  -322.47543      46.051677     -368.52711      245.2283      -2320.2363      960.18531      0.99696118
   2964000  -308.08902      50.861516     -358.95054      270.84103     -1817.4634      960.18531      0.99696118
   2965000  -303.18937      60.521605     -363.71098      322.28165     -862.55778      960.18531      0.99696118
   2966000  -315.47307      57.584191     -373.05726      306.63973      2288.8251      960.18531      0.99696118
   2967000  -338.22821      47.297022     -385.52523      251.85986     -1438.5862      960.18531      0.99696118
   2968000  -318.0312       53.937656     -371.96886      287.22168      1407.3625      960.18531      0.99696118
   2969000  -312.71808      58.37017      -371.08825      310.82512     -1465.1708      960.18531      0.99696118
   2970000  -292.80245      59.460817     -352.26327      316.63289     -1857.9456      960.18531      0.99696118
   2971000  -308.351        65.043068     -373.39407      346.35875      2940.1653      960.18531      0.99696118
   2972000  -322.79381      45.863541     -368.65735      244.22647      399.94518      960.18531      0.99696118
   2973000  -294.61137      63.092137     -357.70351      335.96991     -2231.1765      960.18531      0.99696118
   2974000  -324.25593      50.719664     -374.97559      270.08565      5593.7767      960.18531      0.99696118
   2975000  -303.69145      71.020763     -374.71221      378.19038     -191.39147      960.18531      0.99696118
   2976000  -316.23391      57.369638     -373.60354      305.49722     -68.921856      960.18531      0.99696118
   2977000  -314.80104      57.783561     -372.5846       307.70139      556.63904      960.18531      0.99696118
   2978000  -305.42312      64.536321     -369.95944      343.66029     -233.17649      960.18531      0.99696118
   2979000  -310.32982      57.990986     -368.3208       308.80594      6097.0598      960.18531      0.99696118
   2980000  -322.23485      51.171057     -373.40591      272.48935      2049.3489      960.18531      0.99696118
   2981000  -308.28962      51.24078      -359.5304       272.86063     -2066.5932      960.18531      0.99696118
   2982000  -301.88199      68.915122     -370.79711      366.9777      -5059.6481      960.18531      0.99696118
   2983000  -329.33623      46.83191      -376.16814      249.3831       809.47352      960.18531      0.99696118
   2984000  -311.17393      52.965142     -364.13907      282.04298     -1995.9531      960.18531      0.99696118
   2985000  -321.18242      46.823992     -368.00641      249.34094     -2025.0187      960.18531      0.99696118
   2986000  -310.19718      58.960292     -369.15747      313.96756     -3826.7345      960.18531      0.99696118
   2987000  -313.97292      52.276507     -366.24943      278.37595      621.80308      960.18531      0.99696118
   2988000  -332.65996      42.518111     -375.17807      226.41183      102.1474       960.18531      0.99696118
   2989000  -334.07091      56.45448      -390.52539      300.62394     -4530.2928      960.18531      0.99696118
   2990000  -327.17612      50.032576     -377.20869      266.42686     -1874.9575      960.18531      0.99696118
   2991000  -303.90649      59.965368     -363.87186      319.31965      2465.6866      960.18531      0.99696118
   2992000  -313.32652      50.622938     -363.94946      269.57058      4176.7967      960.18531      0.99696118
   2993000  -322.55707      52.103101     -374.66018      277.45255     -2168.4994      960.18531      0.99696118
   2994000  -318.53484      51.545335     -370.08018      274.48241      1240.6315      960.18531      0.99696118
   2995000  -310.49975      61.979663     -372.47941      330.04591     -1350.885       960.18531      0.99696118
   2996000  -322.36513      50.887017     -373.25215      270.97682      1301.6126      960.18531      0.99696118
   2997000  -318.38554      48.619176     -367.00471      258.90041     -1303.9926      960.18531      0.99696118
   2998000  -310.03611      59.428764     -369.46488      316.46221      193.91472      960.18531      0.99696118
   2999000  -327.42018      51.484088     -378.90426      274.15626     -1954.8692      960.18531      0.99696118
   3000000  -301.95172      55.422427     -357.37415      295.12819      1061.9017      960.18531      0.99696118
Loop time of 865.356 on 1 procs for 2000000 steps with 96 atoms

Performance: 199.687 ns/day, 0.120 hours/ns, 2311.188 timesteps/s
99.7% CPU use with 1 MPI tasks x 1 OpenMP threads

MPI task timing breakdown:
Section |  min time  |  avg time  |  max time  |%varavg| %total
---------------------------------------------------------------
Pair    | 677.83     | 677.83     | 677.83     |   0.0 | 78.33
Bond    | 0.10777    | 0.10777    | 0.10777    |   0.0 |  0.01
Kspace  | 116.68     | 116.68     | 116.68     |   0.0 | 13.48
Neigh   | 32.468     | 32.468     | 32.468     |   0.0 |  3.75
Comm    | 22.996     | 22.996     | 22.996     |   0.0 |  2.66
Output  | 0.26252    | 0.26252    | 0.26252    |   0.0 |  0.03
Modify  | 11.701     | 11.701     | 11.701     |   0.0 |  1.35
Other   |            | 3.309      |            |       |  0.38

Nlocal:             96 ave          96 max          96 min
Histogram: 1 0 0 0 0 0 0 0 0 0
Nghost:           3889 ave        3889 max        3889 min
Histogram: 1 0 0 0 0 0 0 0 0 0
Neighs:          34687 ave       34687 max       34687 min
Histogram: 1 0 0 0 0 0 0 0 0 0

Total # of neighbors = 34687
Ave neighs/atom = 361.32292
Ave special neighs/atom = 2
Neighbor list builds = 45910
Dangerous builds = 0

# write data file
write_data data.after_prod.lmp
System init for write_data ...
PPPM initialization ...
  using 12-bit tables for long-range coulomb (src/kspace.cpp:342)
  G vector (1/distance) = 0.30847861
  grid = 9 9 9
  stencil order = 5
  estimated absolute RMS force accuracy = 0.0027675926
  estimated relative force accuracy = 8.334523e-06
  using double precision FFTW3
  3d grid and FFT values/proc = 4096 729
Generated 1 of 1 mixed pair_coeff terms from geometric mixing rule

# clean up
undump dPROD
unfix fTHERMO
unfix fMOM
unfix fSHAKE
Total wall time: 0:21:38
