LAMMPS (23 Jun 2022 - Update 4)
  using 1 OpenMP thread(s) per MPI task
# created by fftool

# System settings
units real
boundary p p p  # Periodic boundary conditions

# definition of atoms, bonds, angles
atom_style full
bond_style harmonic
angle_style harmonic

# definition of pair potentials
special_bonds lj/coul 0.0 0.0 0.5
pair_style lj/cut/coul/long 10.0 10.0
pair_modify mix geometric tail yes
kspace_style pppm 1.0e-5

# read data file
read_data data.lmp
Reading data file ...
  orthogonal box = (0 0 0) to (9.865483 9.865483 9.865483)
  1 by 1 by 1 MPI processor grid
  reading atoms ...
  96 atoms
  scanning bonds ...
  1 = max bonds/atom
  scanning angles ...
  1 = max angles/atom
  reading bonds ...
  64 bonds
  reading angles ...
  32 angles
Finding 1-2 1-3 1-4 neighbors ...
  special bond factors lj:    0        0        0.5
  special bond factors coul:  0        0        0.5
     2 = max # of 1-2 neighbors
     1 = max # of 1-3 neighbors
     1 = max # of 1-4 neighbors
     2 = max # of special neighbors
  special bonds CPU = 0.000 seconds
  read_data CPU = 0.004 seconds

# definition of LJ parameters
pair_coeff    1    1     0.000000     0.000000  # Hw Hw
pair_coeff    2    2     0.162985     3.178841  # Ow-Ow

############################################

# remove energy hotspots
minimize 1.0e-4 1.0e-6 100 1000
WARNING: Using 'neigh_modify every 1 delay 0 check yes' setting during minimization (src/min.cpp:187)
PPPM initialization ...
  using 12-bit tables for long-range coulomb (src/kspace.cpp:342)
  G vector (1/distance) = 0.30847861
  grid = 9 9 9
  stencil order = 5
  estimated absolute RMS force accuracy = 0.0027675926
  estimated relative force accuracy = 8.334523e-06
  using double precision FFTW3
  3d grid and FFT values/proc = 4096 729
Generated 1 of 1 mixed pair_coeff terms from geometric mixing rule
Neighbor list info ...
  update every 1 steps, delay 0 steps, check yes
  max neighbors/atom: 2000, page size: 100000
  master list distance cutoff = 12
  ghost atom cutoff = 12
  binsize = 6, bins = 2 2 2
  1 neighbor lists, perpetual/occasional/extra = 1 0 0
  (1) pair lj/cut/coul/long, perpetual
      attributes: half, newton on
      pair build: half/bin/newton
      stencil: half/bin/3d
      bin: standard
Per MPI rank memory allocation (min/avg/max) = 8.322 | 8.322 | 8.322 Mbytes
   Step          Temp          E_pair         E_mol          TotEng         Press
         0   0              187284         5.8484392e-09  187284         53571288
       100   0             -481.80845      40.120405     -441.68804     -6067.9973
Loop time of 0.107051 on 1 procs for 100 steps with 96 atoms

99.6% CPU use with 1 MPI tasks x 1 OpenMP threads

Minimization stats:
  Stopping criterion = max iterations
  Energy initial, next-to-last, final =
      187284.001036664   -440.75206500737  -441.688040944219
  Force two-norm initial, final = 2841906.3 23.675553
  Force max component initial, final = 1856157.9 5.1999748
  Final line search alpha, max atom move = 0.012788846 0.066501678
  Iterations, force evaluations = 100 175

MPI task timing breakdown:
Section |  min time  |  avg time  |  max time  |%varavg| %total
---------------------------------------------------------------
Pair    | 0.090583   | 0.090583   | 0.090583   |   0.0 | 84.62
Bond    | 0.00034138 | 0.00034138 | 0.00034138 |   0.0 |  0.32
Kspace  | 0.010592   | 0.010592   | 0.010592   |   0.0 |  9.89
Neigh   | 0.0028511  | 0.0028511  | 0.0028511  |   0.0 |  2.66
Comm    | 0.0020903  | 0.0020903  | 0.0020903  |   0.0 |  1.95
Output  | 1.1967e-05 | 1.1967e-05 | 1.1967e-05 |   0.0 |  0.01
Modify  | 0          | 0          | 0          |   0.0 |  0.00
Other   |            | 0.0005808  |            |       |  0.54

Nlocal:             96 ave          96 max          96 min
Histogram: 1 0 0 0 0 0 0 0 0 0
Nghost:           3817 ave        3817 max        3817 min
Histogram: 1 0 0 0 0 0 0 0 0 0
Neighs:          34773 ave       34773 max       34773 min
Histogram: 1 0 0 0 0 0 0 0 0 0

Total # of neighbors = 34773
Ave neighs/atom = 362.21875
Ave special neighs/atom = 2
Neighbor list builds = 4
Dangerous builds = 0
reset_timestep 0

# constrain water bonds and angles
fix fSHAKE all shake 0.0001 20 0 b 1 a 1
       0 = # of size 2 clusters
       0 = # of size 3 clusters
       0 = # of size 4 clusters
      32 = # of frozen angles
  find clusters CPU = 0.000 seconds

# remove Center of Mass movement every 100 steps
fix fMOM all momentum 100 linear 1 1 1

# define the neighbor list
neighbor 2.0 bin

# IMPORTANT: timestep and temperature and pressure
timestep 1.0
variable vTK equal 298.15
variable vPBAR equal 1.0

# randomize velocities
velocity all create ${vTK} 89375
velocity all create 298.15 89375

# thermostat (solving the ODE)
fix fTHERMO all nvt temp ${vTK} ${vTK} 100
fix fTHERMO all nvt temp 298.15 ${vTK} 100
fix fTHERMO all nvt temp 298.15 298.15 100

# print settings
thermo 1000
thermo_style custom step etotal ke pe temp press vol density
# trajectory output
dump dEQUI all custom 1000 equi.lammpstrj id element xu yu zu
dump_modify dEQUI element H O sort id

# equilibration
# 1 ns
run 1000000
PPPM initialization ...
  using 12-bit tables for long-range coulomb (src/kspace.cpp:342)
  G vector (1/distance) = 0.30847861
  grid = 9 9 9
  stencil order = 5
  estimated absolute RMS force accuracy = 0.0027675926
  estimated relative force accuracy = 8.334523e-06
  using double precision FFTW3
  3d grid and FFT values/proc = 4096 729
Generated 1 of 1 mixed pair_coeff terms from geometric mixing rule
Per MPI rank memory allocation (min/avg/max) = 9.33 | 9.33 | 9.33 Mbytes
   Step         TotEng         KinEng         PotEng          Temp          Press          Volume        Density
         0  -425.81855      55.989897     -481.80845      298.15         3901.9389      960.18531      0.99696118
      1000  -308.9517       50.853901     -359.8056       270.80048     -1282.2892      960.18531      0.99696118
      2000  -316.41448      60.544755     -376.95924      322.40493     -783.68281      960.18531      0.99696118
      3000  -325.40355      55.025832     -380.42938      293.01629     -1302.8053      960.18531      0.99696118
      4000  -309.87423      59.513731     -369.38796      316.91466     -3490.6718      960.18531      0.99696118
      5000  -321.43167      49.134079     -370.56575      261.64231     -1586.6565      960.18531      0.99696118
      6000  -341.423        49.228747     -390.65175      262.14642      270.39407      960.18531      0.99696118
      7000  -327.82872      57.67318      -385.5019       307.1136      -1222.495       960.18531      0.99696118
      8000  -325.27383      62.0602       -387.33403      330.47478      3371.4273      960.18531      0.99696118
      9000  -315.62306      57.43879      -373.06185      305.86546      1716.2213      960.18531      0.99696118
     10000  -306.13071      55.775591     -361.9063       297.00881      1918.7882      960.18531      0.99696118
     11000  -309.21566      62.509076     -371.72473      332.86507      1302.4694      960.18531      0.99696118
     12000  -317.22302      51.702146     -368.92517      275.31744      1280.9157      960.18531      0.99696118
     13000  -323.47856      52.536804     -376.01536      279.76205     -3615.8733      960.18531      0.99696118
     14000  -300.73343      64.240422     -364.97385      342.08461     -87.689011      960.18531      0.99696118
     15000  -308.45095      59.412678     -367.86363      316.37654      463.55207      960.18531      0.99696118
     16000  -309.49652      61.245551     -370.74207      326.13672      55.677401      960.18531      0.99696118
     17000  -326.35669      49.51683      -375.87352      263.68048     -343.39734      960.18531      0.99696118
     18000  -317.96287      47.040767     -365.00364      250.49528      6081.1699      960.18531      0.99696118
     19000  -310.19934      62.331701     -372.53104      331.92054     -1020.3235      960.18531      0.99696118
     20000  -319.66415      55.480812     -375.14496      295.43909      3506.3674      960.18531      0.99696118
     21000  -320.83886      52.548259     -373.38712      279.82305      300.72553      960.18531      0.99696118
     22000  -301.83229      53.405631     -355.23792      284.38861     -2702.9202      960.18531      0.99696118
     23000  -309.9767       61.394038     -371.37074      326.92742      597.48062      960.18531      0.99696118
     24000  -319.54261      58.123131     -377.66574      309.50962     -1542.4168      960.18531      0.99696118
     25000  -315.47304      69.857677     -385.33072      371.99687     -1327.5865      960.18531      0.99696118
     26000  -308.12489      59.348751     -367.47364      316.03613      2686.6134      960.18531      0.99696118
     27000  -320.24238      61.417673     -381.66006      327.05328     -3505.1064      960.18531      0.99696118
     28000  -312.83416      52.469834     -365.30399      279.40543     -2878.4601      960.18531      0.99696118
     29000  -305.87025      55.410719     -361.28097      295.06584      37.910471      960.18531      0.99696118
     30000  -311.88095      55.319986     -367.20093      294.58268     -3969.5287      960.18531      0.99696118
     31000  -317.87802      51.160026     -369.03804      272.43061     -1668.6509      960.18531      0.99696118
     32000  -327.95159      51.354813     -379.3064       273.46787      692.6226       960.18531      0.99696118
     33000  -326.43163      54.99371      -381.42534      292.84524      791.43655      960.18531      0.99696118
     34000  -310.22885      58.430016     -368.65887      311.1438       3415.0973      960.18531      0.99696118
     35000  -324.44859      55.130589     -379.57918      293.57413     -2037.6021      960.18531      0.99696118
     36000  -312.16238      57.670372     -369.83275      307.09864     -92.418551      960.18531      0.99696118
     37000  -316.64401      66.711687     -383.35569      355.24426      1813.011       960.18531      0.99696118
     38000  -298.20598      64.385755     -362.59173      342.85851     -2773.9147      960.18531      0.99696118
     39000  -314.4002       49.175223     -363.57542      261.8614       1219.4758      960.18531      0.99696118
     40000  -324.58622      55.690729     -380.27695      296.55691     -1241.318       960.18531      0.99696118
     41000  -322.98557      48.865982     -371.85156      260.21467      22.777661      960.18531      0.99696118
     42000  -307.46402      59.697706     -367.16172      317.89434      421.55856      960.18531      0.99696118
     43000  -327.08382      53.40053      -380.48435      284.36145      2902.8809      960.18531      0.99696118
     44000  -315.35615      49.442823     -364.79897      263.28639     -2826.1903      960.18531      0.99696118
     45000  -310.0079       64.330543     -374.33844      342.56451      1305.8183      960.18531      0.99696118
     46000  -315.60871      55.235542     -370.84425      294.13301      909.05961      960.18531      0.99696118
     47000  -325.21601      47.488109     -372.70412      252.87741      2042.4342      960.18531      0.99696118
     48000  -315.42027      54.195398     -369.61567      288.59417     -2221.6524      960.18531      0.99696118
     49000  -307.42548      56.21313      -363.63861      299.33874     -315.3206       960.18531      0.99696118
     50000  -331.45865      56.804634     -388.26328      302.48853      892.15536      960.18531      0.99696118
     51000  -309.62415      60.871371     -370.49552      324.14418     -2241.228       960.18531      0.99696118
     52000  -316.72778      52.342368     -369.07015      278.72666      2884.0312      960.18531      0.99696118
     53000  -303.57376      56.422416     -359.99617      300.45319     -2158.9955      960.18531      0.99696118
     54000  -316.46475      50.439714     -366.90446      268.5949      -3379.0131      960.18531      0.99696118
     55000  -299.11181      54.699405     -353.81122      291.27805      573.66383      960.18531      0.99696118
     56000  -307.41358      65.900939     -373.31452      350.92697      1991.0743      960.18531      0.99696118
     57000  -312.42668      57.686248     -370.11293      307.18318      2843.6995      960.18531      0.99696118
     58000  -313.97466      58.927302     -372.90196      313.79188      2628.3788      960.18531      0.99696118
     59000  -323.36438      57.009385     -380.37377      303.57884     -379.64341      960.18531      0.99696118
     60000  -306.22677      65.712415     -371.93918      349.92307     -359.22558      960.18531      0.99696118
     61000  -313.21193      52.217524     -365.42946      278.06186     -698.78822      960.18531      0.99696118
     62000  -333.83609      45.265101     -379.10119      241.03973     -2581.3775      960.18531      0.99696118
     63000  -316.1487       57.403163     -373.55187      305.67574      550.09977      960.18531      0.99696118
     64000  -312.53893      50.75786      -363.29679      270.28905      1515.2459      960.18531      0.99696118
     65000  -320.56391      56.118922     -376.68283      298.83707     -851.8775       960.18531      0.99696118
     66000  -301.71748      60.513179     -362.23066      322.23679      914.82193      960.18531      0.99696118
     67000  -294.60363      67.087041     -361.69067      357.24305      685.59813      960.18531      0.99696118
     68000  -305.40468      57.257115     -362.66179      304.89803      300.58367      960.18531      0.99696118
     69000  -310.28654      58.068867     -368.35541      309.22066      2499.6347      960.18531      0.99696118
     70000  -332.3236       52.729498     -385.05309      280.78816     -3149.3601      960.18531      0.99696118
     71000  -311.45818      58.112851     -369.57103      309.45488     -1037.2261      960.18531      0.99696118
     72000  -330.70698      53.719564     -384.42654      286.06032      2568.7306      960.18531      0.99696118
     73000  -316.27085      57.880739     -374.15159      308.21887      3606.2432      960.18531      0.99696118
     74000  -325.14992      57.172116     -382.32204      304.4454       2578.1697      960.18531      0.99696118
     75000  -308.85258      58.190428     -367.04301      309.86798     -881.69472      960.18531      0.99696118
     76000  -314.35711      51.168749     -365.52586      272.47706      1571.3014      960.18531      0.99696118
     77000  -305.70026      67.920336     -373.62059      361.6804       3125.3145      960.18531      0.99696118
     78000  -320.31898      57.174721     -377.4937       304.45927      1500.4749      960.18531      0.99696118
     79000  -307.53195      52.858284     -360.39024      281.47395     -1875.7304      960.18531      0.99696118
     80000  -303.18601      59.428666     -362.61468      316.46168     -2145.0605      960.18531      0.99696118
     81000  -290.40931      67.170745     -357.58005      357.68878      2826.2611      960.18531      0.99696118
     82000  -307.01268      52.810903     -359.82359      281.22164      3309.9922      960.18531      0.99696118
     83000  -295.85076      62.836665     -358.68743      334.60951      3695.4313      960.18531      0.99696118
     84000  -313.41615      57.703253     -371.1194       307.27374     -435.92174      960.18531      0.99696118
     85000  -328.77299      53.155739     -381.92873      283.05792     -1333.249       960.18531      0.99696118
     86000  -317.45435      60.055051     -377.5094       319.79722      4840.974       960.18531      0.99696118
     87000  -320.7962       53.497263     -374.29346      284.87656      2402.1251      960.18531      0.99696118
     88000  -294.23929      64.497078     -358.73637      343.45132      59.832684      960.18531      0.99696118
     89000  -339.68444      35.907168     -375.59161      191.20811     -911.70789      960.18531      0.99696118
     90000  -321.81165      55.803281     -377.61494      297.15626     -413.54364      960.18531      0.99696118
     91000  -326.06407      51.983197     -378.04727      276.81405      1561.4148      960.18531      0.99696118
     92000  -327.46937      57.324388     -384.79376      305.25626      1339.8044      960.18531      0.99696118
     93000  -321.86953      56.448858     -378.31838      300.594       -1528.1309      960.18531      0.99696118
     94000  -321.5337       53.970791     -375.50449      287.39813      2259.0455      960.18531      0.99696118
     95000  -312.1351       63.121323     -375.25642      336.12533      866.6715       960.18531      0.99696118
     96000  -325.40378      50.722339     -376.12612      270.0999       164.55629      960.18531      0.99696118
     97000  -327.74517      50.278692     -378.02386      267.73745      800.80127      960.18531      0.99696118
     98000  -314.50348      63.416995     -377.92048      337.6998       2683.3631      960.18531      0.99696118
     99000  -321.09609      60.064436     -381.16053      319.8472      -368.05984      960.18531      0.99696118
    100000  -314.77814      62.506654     -377.28479      332.85218     -727.31039      960.18531      0.99696118
    101000  -317.60554      53.943147     -371.54869      287.25092     -493.36392      960.18531      0.99696118
    102000  -316.22478      56.669834     -372.89462      301.77071      477.58705      960.18531      0.99696118
    103000  -336.56494      58.521698     -395.08663      311.63201     -4817.6556      960.18531      0.99696118
    104000  -339.22268      51.194814     -390.41749      272.61586     -274.09634      960.18531      0.99696118
    105000  -329.37713      49.781266     -379.1584       265.08862     -1610.4799      960.18531      0.99696118
    106000  -322.57645      64.060901     -386.63735      341.12865      3217.0757      960.18531      0.99696118
    107000  -338.48269      48.232311     -386.71501      256.84033      2816.1226      960.18531      0.99696118
    108000  -314.02682      62.407124     -376.43395      332.32217     -528.34648      960.18531      0.99696118
    109000  -326.22194      55.180953     -381.4029       293.84232     -1591.0059      960.18531      0.99696118
    110000  -308.2509       65.777722     -374.02862      350.27084      1518.2025      960.18531      0.99696118
    111000  -314.52988      53.73429      -368.26418      286.13874     -5405.2328      960.18531      0.99696118
    112000  -312.42815      43.3075       -355.73565      230.61538      4524.572       960.18531      0.99696118
    113000  -319.20048      52.380084     -371.58057      278.9275      -4044.2135      960.18531      0.99696118
    114000  -315.80701      53.387862     -369.19487      284.29399     -764.19571      960.18531      0.99696118
    115000  -313.34435      49.305395     -362.64975      262.55457      2163.7194      960.18531      0.99696118
    116000  -318.07324      54.192719     -372.26596      288.57991      1913.3752      960.18531      0.99696118
    117000  -325.87124      47.483448     -373.35469      252.85259      2583.6822      960.18531      0.99696118
    118000  -331.80901      51.398249     -383.20726      273.69916      1019.515       960.18531      0.99696118
    119000  -322.46182      47.677659     -370.13947      253.88677      368.40826      960.18531      0.99696118
    120000  -310.99304      53.503052     -364.49609      284.90739     -3.1395724      960.18531      0.99696118
    121000  -311.60469      60.438881     -372.04357      321.84114      131.24415      960.18531      0.99696118
    122000  -312.04728      57.908896     -369.95618      308.3688       4849.9849      960.18531      0.99696118
    123000  -293.88474      62.447742     -356.33248      332.53847      3755.2049      960.18531      0.99696118
    124000  -292.69646      67.300846     -359.99731      358.38157     -2659.9674      960.18531      0.99696118
    125000  -307.9614       59.719455     -367.68085      318.01015      697.55221      960.18531      0.99696118
    126000  -317.43043      52.750776     -370.18121      280.90146      3336.611       960.18531      0.99696118
    127000  -342.75348      44.196071     -386.94955      235.34708      2610.107       960.18531      0.99696118
    128000  -331.84025      49.331625     -381.17188      262.69425     -4677.0538      960.18531      0.99696118
    129000  -327.16932      48.140708     -375.31003      256.35254     -1621.1566      960.18531      0.99696118
    130000  -326.02667      53.419217     -379.44589      284.46095      1228.7635      960.18531      0.99696118
    131000  -317.06633      55.772818     -372.83914      296.99404      977.71305      960.18531      0.99696118
    132000  -325.8439       58.607601     -384.4515       312.08945     -3534.1204      960.18531      0.99696118
    133000  -305.21144      69.980008     -375.19145      372.6483      -1397.3152      960.18531      0.99696118
    134000  -332.2331       55.015439     -387.24854      292.96095     -1924.2709      960.18531      0.99696118
    135000  -327.48242      61.725442     -389.20786      328.69217     -2490.5772      960.18531      0.99696118
    136000  -324.6757       49.112796     -373.78849      261.52897      471.30726      960.18531      0.99696118
    137000  -321.97892      50.513541     -372.49247      268.98803     -945.44482      960.18531      0.99696118
    138000  -329.80231      50.186797     -379.98911      267.2481      -1700.6654      960.18531      0.99696118
    139000  -332.37361      50.377782     -382.75139      268.26511     -2716.828       960.18531      0.99696118
    140000  -324.93873      61.272037     -386.21077      326.27776      779.06697      960.18531      0.99696118
    141000  -334.8744       50.67199      -385.54639      269.83179      3459.3036      960.18531      0.99696118
    142000  -341.77455      46.938355     -388.71291      249.94993      4231.7606      960.18531      0.99696118
    143000  -314.89443      63.51355      -378.40798      338.21396      867.08043      960.18531      0.99696118
    144000  -319.07652      57.637231     -376.71375      306.92217      4580.8131      960.18531      0.99696118
    145000  -330.38085      47.511968     -377.89282      253.00445      2797.2079      960.18531      0.99696118
    146000  -325.70147      52.391268     -378.09274      278.98706      2443.7507      960.18531      0.99696118
    147000  -308.33725      57.05197      -365.38922      303.80561     -563.16939      960.18531      0.99696118
    148000  -321.52718      64.624009     -386.15119      344.12723      4677.7889      960.18531      0.99696118
    149000  -316.94351      65.733393     -382.6769       350.03478      2404.5622      960.18531      0.99696118
    150000  -319.83285      60.505535     -380.33839      322.19608     -2737.546       960.18531      0.99696118
    151000  -310.94203      62.581503     -373.52354      333.25075      43.791448      960.18531      0.99696118
    152000  -317.80435      47.104075     -364.90843      250.8324      -751.07226      960.18531      0.99696118
    153000  -305.61917      55.266409     -360.88558      294.29738     -1032.4144      960.18531      0.99696118
    154000  -312.14453      55.052577     -367.1971       293.15871     -1194.6273      960.18531      0.99696118
    155000  -323.8554       46.008099     -369.8635       244.99625      3779.4198      960.18531      0.99696118
    156000  -308.78735      51.901515     -360.68887      276.37909      1608.5282      960.18531      0.99696118
    157000  -297.54584      58.531883     -356.07772      311.68625     -2792.744       960.18531      0.99696118
    158000  -315.545        51.403876     -366.94887      273.72913      1058.4783      960.18531      0.99696118
    159000  -299.52943      64.100407     -363.62984      341.33902     -1753.033       960.18531      0.99696118
    160000  -319.16515      58.914771     -378.07993      313.72516     -2081.6499      960.18531      0.99696118
    161000  -315.39367      58.249466     -373.64314      310.18236      820.92638      960.18531      0.99696118
    162000  -321.25917      53.986965     -375.24614      287.48425     -465.85091      960.18531      0.99696118
    163000  -316.51167      52.405835     -368.9175       279.06463     -1359.4541      960.18531      0.99696118
    164000  -295.12503      65.344286     -360.46931      347.96276     -83.053059      960.18531      0.99696118
    165000  -315.87694      55.20403      -371.08097      293.96521     -1569.5328      960.18531      0.99696118
    166000  -322.66578      53.222519     -375.8883       283.41353     -169.08463      960.18531      0.99696118
    167000  -308.63007      48.57176      -357.20183      258.64792      985.62408      960.18531      0.99696118
    168000  -307.1216       59.263441     -366.38504      315.58185      1509.7898      960.18531      0.99696118
    169000  -324.70678      48.137754     -372.84453      256.33681      1241.1273      960.18531      0.99696118
    170000  -317.76844      58.546945     -376.31538      311.76646     -1803.1257      960.18531      0.99696118
    171000  -318.98775      56.978788     -375.96654      303.41591     -385.86145      960.18531      0.99696118
    172000  -329.7766       49.017484     -378.79409      261.02143     -2421.2391      960.18531      0.99696118
    173000  -321.50508      60.491164     -381.99624      322.11955     -1254.5462      960.18531      0.99696118
    174000  -319.92443      53.51415      -373.43859      284.96648      3754.8798      960.18531      0.99696118
    175000  -317.32237      55.799104     -373.12147      297.13402      3011.0196      960.18531      0.99696118
    176000  -321.55759      55.98993      -377.54752      298.15018     -2513.8418      960.18531      0.99696118
    177000  -302.86001      66.94069      -369.8007       356.46372      369.07259      960.18531      0.99696118
    178000  -334.06188      42.360558     -376.42244      225.57285     -608.44509      960.18531      0.99696118
    179000  -305.74748      65.834467     -371.58194      350.57301     -567.20321      960.18531      0.99696118
    180000  -337.74257      51.557067     -389.29963      274.54488      3143.5666      960.18531      0.99696118
    181000  -312.56672      65.122639     -377.68936      346.78247     -1634.4177      960.18531      0.99696118
    182000  -307.74763      57.707486     -365.45512      307.29628      193.94788      960.18531      0.99696118
    183000  -310.92822      55.116984     -366.04521      293.50168      1824.6887      960.18531      0.99696118
    184000  -310.83606      57.88668      -368.72274      308.2505       1686.3063      960.18531      0.99696118
    185000  -336.58025      44.549805     -381.13005      237.23074      2779.6621      960.18531      0.99696118
    186000  -319.17255      63.633418     -382.80597      338.85227      771.26006      960.18531      0.99696118
    187000  -333.06605      48.975182     -382.04123      260.79617      216.50692      960.18531      0.99696118
    188000  -340.85079      54.9279       -395.77869      292.4948       908.69597      960.18531      0.99696118
    189000  -330.94722      62.312531     -393.25975      331.81846      657.24392      960.18531      0.99696118
    190000  -304.51918      71.414517     -375.9337       380.28715      2957.2986      960.18531      0.99696118
    191000  -336.96292      59.630939     -396.59386      317.5388      -440.49602      960.18531      0.99696118
    192000  -320.36423      65.511911     -385.87614      348.85537      2474.6754      960.18531      0.99696118
    193000  -320.7399       51.615733     -372.35563      274.85728      267.45617      960.18531      0.99696118
    194000  -296.33754      69.35065      -365.68819      369.29692     -182.53729      960.18531      0.99696118
    195000  -329.87165      50.074882     -379.94654      266.65215      1707.8412      960.18531      0.99696118
    196000  -319.92338      57.378716     -377.3021       305.54556      1312.0081      960.18531      0.99696118
    197000  -316.81161      52.828488     -369.6401       281.31529     -460.58245      960.18531      0.99696118
    198000  -330.3412       46.034864     -376.37606      245.13878      99.965126      960.18531      0.99696118
    199000  -296.9524       57.396978     -354.34937      305.64281      1179.4727      960.18531      0.99696118
    200000  -313.39038      54.339656     -367.73004      289.36236      1950.2984      960.18531      0.99696118
    201000  -315.45134      58.346609     -373.79795      310.69965     -631.33514      960.18531      0.99696118
    202000  -312.84843      59.686014     -372.53444      317.83207      1101.7101      960.18531      0.99696118
    203000  -301.53825      63.282497     -364.82074      336.98359     -651.32619      960.18531      0.99696118
    204000  -303.10632      53.481555     -356.58787      284.79291     -1092.7832      960.18531      0.99696118
    205000  -297.26282      51.224845     -348.48767      272.77578      3876.4786      960.18531      0.99696118
    206000  -331.81756      42.613458     -374.43102      226.91955      1435.6069      960.18531      0.99696118
    207000  -294.97811      54.232702     -349.21081      288.79282     -1441.7227      960.18531      0.99696118
    208000  -297.54017      58.640061     -356.18023      312.26231      576.27994      960.18531      0.99696118
    209000  -307.81039      56.124897     -363.93529      298.86889     -932.15362      960.18531      0.99696118
    210000  -323.1342       50.899679     -374.03388      271.04425     -2655.9408      960.18531      0.99696118
    211000  -319.38377      57.807064     -377.19084      307.82654      637.77822      960.18531      0.99696118
    212000  -315.68051      54.730853     -370.41136      291.44551     -2480.179       960.18531      0.99696118
    213000  -313.99647      59.462553     -373.45902      316.64213      2051.5958      960.18531      0.99696118
    214000  -327.3941       55.263311     -382.65741      294.28089      761.11698      960.18531      0.99696118
    215000  -302.51925      52.66961      -355.18886      280.46925      4042.3889      960.18531      0.99696118
    216000  -317.81915      63.490223     -381.30937      338.08975      508.61055      960.18531      0.99696118
    217000  -311.52153      59.043713     -370.56525      314.41178     -4594.325       960.18531      0.99696118
    218000  -311.08509      46.721077     -357.80616      248.79291     -1094.8339      960.18531      0.99696118
    219000  -328.69389      47.858316     -376.5522       254.84878      3585.2213      960.18531      0.99696118
    220000  -336.45231      52.460645     -388.91296      279.3565       1654.1358      960.18531      0.99696118
    221000  -300.86192      64.036205     -364.89813      340.99714      694.93056      960.18531      0.99696118
    222000  -311.83387      63.152928     -374.9868       336.29363      7989.9718      960.18531      0.99696118
    223000  -307.50634      57.374063     -364.8804       305.52078      2085.999       960.18531      0.99696118
    224000  -301.37902      64.537743     -365.91676      343.66786     -2822.9682      960.18531      0.99696118
    225000  -300.50697      59.18286      -359.68983      315.15275     -1455.7521      960.18531      0.99696118
    226000  -315.76372      51.079636     -366.84335      272.00253     -2793.8296      960.18531      0.99696118
    227000  -301.89182      60.067679     -361.95949      319.86447      3973.2204      960.18531      0.99696118
    228000  -338.85161      49.71605      -388.56766      264.74134     -137.8164       960.18531      0.99696118
    229000  -284.47277      62.361468     -346.83424      332.07905      1360.9552      960.18531      0.99696118
    230000  -321.85421      50.644555     -372.49876      269.6857      -2478.2767      960.18531      0.99696118
    231000  -316.89469      58.041615     -374.9363       309.07554     -1412.203       960.18531      0.99696118
    232000  -322.24418      60.893646     -383.13783      324.2628       2413.609       960.18531      0.99696118
    233000  -319.86037      48.686196     -368.54656      259.2573      -1699.8576      960.18531      0.99696118
    234000  -305.42049      60.383215     -365.80371      321.54472     -1810.8043      960.18531      0.99696118
    235000  -309.43978      59.951414     -369.39119      319.24535     -3094.5037      960.18531      0.99696118
    236000  -307.67756      70.552758     -378.23032      375.69823      2588.5758      960.18531      0.99696118
    237000  -318.60691      47.925905     -366.53282      255.2087       1654.7434      960.18531      0.99696118
    238000  -330.65102      57.102541     -387.75356      304.07491      279.63722      960.18531      0.99696118
    239000  -307.03021      62.967744     -369.99796      335.30751      4692.5386      960.18531      0.99696118
    240000  -320.78221      55.741376     -376.52359      296.82661     -1892.3149      960.18531      0.99696118
    241000  -324.39165      54.33531      -378.72696      289.33922      2499.028       960.18531      0.99696118
    242000  -309.48582      55.977145     -365.46296      298.0821      -56.984368      960.18531      0.99696118
    243000  -303.44511      59.39088      -362.83599      316.26047      1228.8273      960.18531      0.99696118
    244000  -308.81538      56.583594     -365.39897      301.31148      3257.5125      960.18531      0.99696118
    245000  -317.11439      56.821689     -373.93608      302.57935      1840.7483      960.18531      0.99696118
    246000  -305.89197      56.469784     -362.36175      300.70543      13.986434      960.18531      0.99696118
    247000  -318.43265      48.742524     -367.17517      259.55725     -1165.3141      960.18531      0.99696118
    248000  -289.19337      61.201548     -350.39492      325.9024       2010.0515      960.18531      0.99696118
    249000  -320.60084      49.955927     -370.55676      266.0187      -4517.5461      960.18531      0.99696118
    250000  -309.21898      57.412684     -366.63166      305.72644      340.31232      960.18531      0.99696118
    251000  -299.37017      64.096904     -363.46707      341.32037     -1340.1164      960.18531      0.99696118
    252000  -315.68678      55.544097     -371.23088      295.77609     -651.46529      960.18531      0.99696118
    253000  -312.55364      54.190482     -366.74412      288.56799      292.40172      960.18531      0.99696118
    254000  -298.21326      63.145561     -361.35882      336.2544       5879.3907      960.18531      0.99696118
    255000  -308.10609      49.475452     -357.58154      263.46014     -1274.6048      960.18531      0.99696118
    256000  -331.08297      56.58213      -387.6651       301.30368     -181.32967      960.18531      0.99696118
    257000  -332.13921      57.356237     -389.49545      305.42586      4917.4407      960.18531      0.99696118
    258000  -319.04036      51.433688     -370.47405      273.88788     -2617.345       960.18531      0.99696118
    259000  -313.05124      55.425175     -368.47642      295.14282      356.01221      960.18531      0.99696118
    260000  -339.56527      49.58762      -389.15289      264.05744     -735.21542      960.18531      0.99696118
    261000  -315.35501      52.570058     -367.92507      279.93913     -336.14189      960.18531      0.99696118
    262000  -315.4128       58.914071     -374.32687      313.72143      1869.4465      960.18531      0.99696118
    263000  -327.46301      52.665225     -380.12823      280.4459       406.3126       960.18531      0.99696118
    264000  -314.53803      56.265699     -370.80373      299.61867      1037.1411      960.18531      0.99696118
    265000  -333.96357      43.767211     -377.73079      233.06337     -2496.8104      960.18531      0.99696118
    266000  -314.53585      59.111322     -373.64717      314.7718      -1415.8156      960.18531      0.99696118
    267000  -311.54248      50.99006      -362.53254      271.52553     -293.31246      960.18531      0.99696118
    268000  -329.8996       55.932871     -385.83247      297.84634     -4722.1325      960.18531      0.99696118
    269000  -324.16732      47.975662     -372.14298      255.47366      883.94275      960.18531      0.99696118
    270000  -319.48599      53.201444     -372.68743      283.3013      -1845.1141      960.18531      0.99696118
    271000  -308.11648      48.732505     -356.84898      259.5039       1047.3751      960.18531      0.99696118
    272000  -325.88437      44.090657     -369.97503      234.78574      48.985576      960.18531      0.99696118
    273000  -329.02613      46.509194     -375.53532      247.66461     -984.08464      960.18531      0.99696118
    274000  -325.83675      54.562431     -380.39918      290.54865     -838.80319      960.18531      0.99696118
    275000  -340.06564      55.864198     -395.92984      297.48065      1865.7264      960.18531      0.99696118
    276000  -330.51759      56.858956     -387.37655      302.7778       44.053319      960.18531      0.99696118
    277000  -345.75326      38.110959     -383.86422      202.94344     -4741.3894      960.18531      0.99696118
    278000  -311.83882      52.70374      -364.54256      280.65099      483.67643      960.18531      0.99696118
    279000  -323.31916      49.99591      -373.31507      266.23162      1162.1819      960.18531      0.99696118
    280000  -317.65849      56.516163     -374.17466      300.95241      1908.6837      960.18531      0.99696118
    281000  -304.88546      61.907219     -366.79268      329.66015      905.74243      960.18531      0.99696118
    282000  -317.94398      51.558655     -369.50264      274.55334     -159.81088      960.18531      0.99696118
    283000  -319.2016       51.997385     -371.19899      276.88961      1655.1307      960.18531      0.99696118
    284000  -340.78551      42.856515     -383.64202      228.21385      862.57114      960.18531      0.99696118
    285000  -330.53089      54.052712     -384.5836       287.83436     -16.765769      960.18531      0.99696118
    286000  -313.73031      64.392332     -378.12264      342.89354     -3490.5444      960.18531      0.99696118
    287000  -311.67372      53.656749     -365.33047      285.72583      2605.1743      960.18531      0.99696118
    288000  -323.32131      51.048353     -374.36967      271.83595      829.64644      960.18531      0.99696118
    289000  -326.33708      58.05279      -384.38987      309.13505     -371.00863      960.18531      0.99696118
    290000  -333.56586      47.897855     -381.46371      255.05933     -2806.1588      960.18531      0.99696118
    291000  -325.91284      51.051664     -376.9645       271.85358     -3399.8231      960.18531      0.99696118
    292000  -335.91457      58.073965     -393.98854      309.24781     -2435.8023      960.18531      0.99696118
    293000  -316.91446      61.592406     -378.50687      327.98374      3355.4215      960.18531      0.99696118
    294000  -308.13145      57.070375     -365.20183      303.90362      91.155115      960.18531      0.99696118
    295000  -293.83696      68.121152     -361.95812      362.74976      2540.4981      960.18531      0.99696118
    296000  -312.44379      51.055854     -363.49965      271.87589     -988.54057      960.18531      0.99696118
    297000  -298.8325       58.526234     -357.35873      311.65617     -3128.9415      960.18531      0.99696118
    298000  -316.41149      60.588448     -376.99993      322.6376       1602.679       960.18531      0.99696118
    299000  -301.2317       54.673194     -355.90489      291.13847     -712.29191      960.18531      0.99696118
    300000  -314.87403      58.24317      -373.1172       310.14883     -2562.6017      960.18531      0.99696118
    301000  -304.64024      60.696168     -365.33641      323.21121      887.89532      960.18531      0.99696118
    302000  -324.36948      44.094546     -368.46402      234.80645      3430.6724      960.18531      0.99696118
    303000  -318.94975      56.041059     -374.99081      298.42244     -2293.4199      960.18531      0.99696118
    304000  -335.06232      47.204131     -382.26645      251.3652       386.27965      960.18531      0.99696118
    305000  -322.47833      57.48011      -379.95844      306.08549      1291.4883      960.18531      0.99696118
    306000  -309.38926      53.056524     -362.44579      282.52959      651.9657       960.18531      0.99696118
    307000  -324.31146      57.700998     -382.01246      307.26173     -156.23515      960.18531      0.99696118
    308000  -316.39531      58.090845     -374.48616      309.33769     -2785.5975      960.18531      0.99696118
    309000  -331.63856      48.85578      -380.49434      260.16034     -3174.9795      960.18531      0.99696118
    310000  -306.60246      65.609341     -372.2118       349.37419      804.08418      960.18531      0.99696118
    311000  -332.26989      48.65888      -380.92877      259.11184     -2186.1805      960.18531      0.99696118
    312000  -327.8753       54.113033     -381.98834      288.15558      754.28984      960.18531      0.99696118
    313000  -315.6939       63.236886     -378.93079      336.74071     -2678.1312      960.18531      0.99696118
    314000  -328.17917      55.769728     -383.9489       296.97759     -2081.4008      960.18531      0.99696118
    315000  -317.25529      65.83966      -383.09495      350.60066      305.59107      960.18531      0.99696118
    316000  -308.28224      59.443046     -367.72529      316.53826      2451.3463      960.18531      0.99696118
    317000  -289.00952      77.135398     -366.14492      410.75123      2008.0024      960.18531      0.99696118
    318000  -318.67542      55.186097     -373.86152      293.86971     -1787.9451      960.18531      0.99696118
    319000  -306.80519      60.979747     -367.78494      324.72129     -2018.0359      960.18531      0.99696118
    320000  -311.58957      58.598029     -370.18759      312.03848     -2737.3124      960.18531      0.99696118
    321000  -326.70226      52.416565     -379.11883      279.12177      122.539        960.18531      0.99696118
    322000  -328.7285       52.283582     -381.01208      278.41363     -2179.7039      960.18531      0.99696118
    323000  -329.79609      54.168418     -383.96451      288.4505       1958.3887      960.18531      0.99696118
    324000  -304.68208      56.871174     -361.55326      302.84286      377.99618      960.18531      0.99696118
    325000  -300.05144      57.560074     -357.61152      306.5113      -964.47749      960.18531      0.99696118
    326000  -316.83892      54.115443     -370.95437      288.16841      1493.3517      960.18531      0.99696118
    327000  -331.85362      46.466827     -378.32045      247.43901     -3814.5056      960.18531      0.99696118
    328000  -314.51402      50.699521     -365.21354      269.97839     -4839.8136      960.18531      0.99696118
    329000  -317.32257      55.405933     -372.7285       295.04035     -211.73049      960.18531      0.99696118
    330000  -317.49214      62.504572     -379.99672      332.84109     -1598.2611      960.18531      0.99696118
    331000  -307.17008      66.536561     -373.70664      354.3117      -2355.531       960.18531      0.99696118
    332000  -324.66417      55.099843     -379.76401      293.41041     -887.08757      960.18531      0.99696118
    333000  -316.36305      54.795603     -371.15865      291.79031     -448.7857       960.18531      0.99696118
    334000  -328.93496      48.490367     -377.42533      258.2145       500.75386      960.18531      0.99696118
    335000  -324.08057      58.89531      -382.97588      313.62153     -985.92178      960.18531      0.99696118
    336000  -309.96334      65.740812     -375.70415      350.07429      4113.6845      960.18531      0.99696118
    337000  -324.83728      53.906252     -378.74354      287.05445      1788.7253      960.18531      0.99696118
    338000  -322.35597      54.715817     -377.07179      291.36544     -1332.5657      960.18531      0.99696118
    339000  -304.26524      61.05535      -365.32059      325.12388     -2901.7676      960.18531      0.99696118
    340000  -326.56148      46.521559     -373.08304      247.73046      1545.8954      960.18531      0.99696118
    341000  -305.36946      60.915746     -366.2852       324.38048     -4813.0359      960.18531      0.99696118
    342000  -328.46149      52.168408     -380.6299       277.80031     -112.05695      960.18531      0.99696118
    343000  -319.24163      55.090399     -374.33203      293.36011     -2263.9864      960.18531      0.99696118
    344000  -298.68521      59.030055     -357.71526      314.33905      711.99775      960.18531      0.99696118
    345000  -326.21494      49.963438     -376.17838      266.0587       373.06416      960.18531      0.99696118
    346000  -310.02903      56.091769     -366.1208       298.69248     -1301.9903      960.18531      0.99696118
    347000  -317.87124      56.563592     -374.43484      301.20497      1689.692       960.18531      0.99696118
    348000  -318.27718      57.923158     -376.20034      308.44475     -2330.7411      960.18531      0.99696118
    349000  -334.90577      40.8584       -375.76417      217.57375     -1352.3632      960.18531      0.99696118
    350000  -325.98411      44.22867      -370.21278      235.52067     -1196.1192      960.18531      0.99696118
    351000  -316.84975      53.737488     -370.58724      286.15577     -1440.0105      960.18531      0.99696118
    352000  -332.83625      45.608802     -378.44506      242.86997     -5475.176       960.18531      0.99696118
    353000  -321.23085      57.668734     -378.89958      307.08992     -2661.2648      960.18531      0.99696118
    354000  -314.4551       62.216109     -376.67121      331.30501     -1014.9987      960.18531      0.99696118
    355000  -325.7385       55.564665     -381.30316      295.88561     -2266.8647      960.18531      0.99696118
    356000  -318.72503      59.309209     -378.03423      315.82556      1774.8953      960.18531      0.99696118
    357000  -331.57797      52.474697     -384.05267      279.43132      843.95298      960.18531      0.99696118
    358000  -324.28487      50.114325     -374.39919      266.86218      2536.8579      960.18531      0.99696118
    359000  -330.07446      48.278379     -378.35284      257.08564      279.12825      960.18531      0.99696118
    360000  -295.98291      59.554238     -355.53715      317.13036      3745.3034      960.18531      0.99696118
    361000  -311.95918      47.925596     -359.88477      255.20705     -88.894056      960.18531      0.99696118
    362000  -328.37448      51.022215     -379.3967       271.69676      2909.9288      960.18531      0.99696118
    363000  -311.00642      67.898471     -378.9049       361.56397     -556.01651      960.18531      0.99696118
    364000  -323.02887      48.909964     -371.93883      260.44888     -208.91752      960.18531      0.99696118
    365000  -300.02197      54.405134     -354.4271       289.71103      3913.0967      960.18531      0.99696118
    366000  -324.60721      50.194375     -374.80158      267.28845     -2800.0772      960.18531      0.99696118
    367000  -318.17174      57.11624      -375.28798      304.14786      1669.3981      960.18531      0.99696118
    368000  -314.40251      56.746495     -371.14901      302.17894     -2061.1673      960.18531      0.99696118
    369000  -321.70487      55.53186      -377.23673      295.71093     -747.8437       960.18531      0.99696118
    370000  -320.31549      53.33263      -373.64812      283.99988     -1645.8377      960.18531      0.99696118
    371000  -317.59415      53.996041     -371.59019      287.53258     -2509.8249      960.18531      0.99696118
    372000  -314.7597       52.25972      -367.01942      278.28656      1515.8864      960.18531      0.99696118
    373000  -312.4261       56.551624     -368.97773      301.14124      2.7568249      960.18531      0.99696118
    374000  -320.81853      57.637398     -378.45593      306.92306      3653.3072      960.18531      0.99696118
    375000  -306.46447      61.921446     -368.38592      329.7359       125.19191      960.18531      0.99696118
    376000  -301.87931      63.379505     -365.25882      337.50016      2488.7765      960.18531      0.99696118
    377000  -320.54623      57.267491     -377.81372      304.95328     -980.15059      960.18531      0.99696118
    378000  -307.44465      57.819474     -365.26412      307.89262     -1326.1538      960.18531      0.99696118
    379000  -298.70012      58.475928     -357.17604      311.38828      1617.9008      960.18531      0.99696118
    380000  -324.22797      42.944512     -367.17248      228.68244      1662.093       960.18531      0.99696118
    381000  -325.55818      52.286669     -377.84485      278.43006      842.27571      960.18531      0.99696118
    382000  -341.86238      46.699467     -388.56185      248.67783     -3952.0399      960.18531      0.99696118
    383000  -337.34724      44.80211      -382.14935      238.57428     -324.37476      960.18531      0.99696118
    384000  -327.47746      55.636494     -383.11395      296.26811      1564.1118      960.18531      0.99696118
    385000  -328.50986      51.522297     -380.03216      274.35973     -3590.7466      960.18531      0.99696118
    386000  -323.01981      62.070766     -385.09058      330.53104      829.87181      960.18531      0.99696118
    387000  -305.5957       64.497271     -370.09297      343.45234     -2852.8817      960.18531      0.99696118
    388000  -320.33471      53.583677     -373.91839      285.33672      2694.5789      960.18531      0.99696118
    389000  -329.0997       50.387383     -379.48708      268.31623      38.955042      960.18531      0.99696118
    390000  -314.34872      58.095316     -372.44403      309.3615      -445.103        960.18531      0.99696118
    391000  -316.04964      48.453402     -364.50304      258.01765      3905.5734      960.18531      0.99696118
    392000  -307.40032      53.53574      -360.93606      285.08145     -1787.361       960.18531      0.99696118
    393000  -325.21102      45.566331     -370.77735      242.64381     -504.52143      960.18531      0.99696118
    394000  -316.11239      56.083575     -372.19597      298.64885      942.64926      960.18531      0.99696118
    395000  -322.5796       61.466058     -384.04566      327.31093     -1539.2185      960.18531      0.99696118
    396000  -333.89407      42.445624     -376.33969      226.02583     -4424.5967      960.18531      0.99696118
    397000  -308.77477      53.19656      -361.97133      283.27529     -2991.4097      960.18531      0.99696118
    398000  -322.95105      52.381802     -375.33286      278.93665      1459.7858      960.18531      0.99696118
    399000  -318.58887      55.183001     -373.77187      293.85323     -2900.1987      960.18531      0.99696118
    400000  -298.39447      66.643799     -365.03827      354.88276     -2339.326       960.18531      0.99696118
    401000  -315.17369      51.648256     -366.82194      275.03047     -659.94469      960.18531      0.99696118
    402000  -326.54523      51.428515     -377.97375      273.86033      99.055965      960.18531      0.99696118
    403000  -315.76187      53.321244     -369.08311      283.93924      2947.659       960.18531      0.99696118
    404000  -329.41616      53.992413     -383.40857      287.51327     -542.3927       960.18531      0.99696118
    405000  -326.30203      48.184642     -374.48667      256.58649      4170.1789      960.18531      0.99696118
    406000  -303.85684      56.997918     -360.85476      303.51778     -1284.173       960.18531      0.99696118
    407000  -332.99163      50.907382     -383.89901      271.08526      1299.4431      960.18531      0.99696118
    408000  -315.55396      53.404808     -368.95876      284.38423     -2024.6452      960.18531      0.99696118
    409000  -319.00261      56.397743     -375.40035      300.32181      2468.5874      960.18531      0.99696118
    410000  -289.9026       68.144085     -358.04669      362.87188      1091.6063      960.18531      0.99696118
    411000  -325.32076      51.920536     -377.2413       276.48038      702.2908       960.18531      0.99696118
    412000  -322.37958      49.575072     -371.95466      263.99062      1135.7745      960.18531      0.99696118
    413000  -326.60801      61.183843     -387.79186      325.80812     -2334.8516      960.18531      0.99696118
    414000  -315.04489      55.503229     -370.54812      295.55846      4622.0964      960.18531      0.99696118
    415000  -314.61296      52.380111     -366.99307      278.92765     -2812.5499      960.18531      0.99696118
    416000  -315.73171      55.745369     -371.47708      296.84788      5731.3595      960.18531      0.99696118
    417000  -323.59997      56.319179     -379.91915      299.90345     -1641.9026      960.18531      0.99696118
    418000  -314.33716      65.214009     -379.55117      347.26902      968.65649      960.18531      0.99696118
    419000  -307.76375      59.609376     -367.37313      317.42397     -1607.4331      960.18531      0.99696118
    420000  -326.65851      54.538243     -381.19676      290.41985     -3429.4232      960.18531      0.99696118
    421000  -307.58215      50.072574     -357.65473      266.63986     -1338.1358      960.18531      0.99696118
    422000  -316.1467       47.800369     -363.94707      254.54021     -147.68555      960.18531      0.99696118
    423000  -341.41609      41.980763     -383.39685      223.55041     -6510.5368      960.18531      0.99696118
    424000  -320.45669      57.102013     -377.5587       304.07209      7.1901317      960.18531      0.99696118
    425000  -319.49236      51.850013     -371.34237      276.10484      2240.7159      960.18531      0.99696118
    426000  -323.441        58.361634     -381.80263      310.77967     -3371.4639      960.18531      0.99696118
    427000  -298.63271      57.618983     -356.25169      306.825        203.86495      960.18531      0.99696118
    428000  -306.87707      57.944232     -364.8213       308.55697      1240.9994      960.18531      0.99696118
    429000  -323.21168      53.741042     -376.95273      286.1747       126.29672      960.18531      0.99696118
    430000  -302.83698      64.543911     -367.38089      343.70071     -3188.4465      960.18531      0.99696118
    431000  -325.50564      54.052656     -379.55829      287.83406     -652.99048      960.18531      0.99696118
    432000  -316.27622      62.339533     -378.61575      331.96224     -1296.8197      960.18531      0.99696118
    433000  -318.09171      51.944227     -370.03594      276.60654     -835.74791      960.18531      0.99696118
    434000  -314.329        45.671975     -360.00097      243.20637     -1632.2397      960.18531      0.99696118
    435000  -317.28572      49.992261     -367.27798      266.21218      2537.0283      960.18531      0.99696118
    436000  -337.06021      46.620954     -383.68117      248.25975     -2820.3046      960.18531      0.99696118
    437000  -303.93388      66.203801     -370.13768      352.53974      625.79956      960.18531      0.99696118
    438000  -326.0869       49.593792     -375.68069      264.09031     -1817.1421      960.18531      0.99696118
    439000  -326.35395      50.947826     -377.30178      271.30063      1411.2947      960.18531      0.99696118
    440000  -310.78166      68.716898     -379.49856      365.92215     -2287.7028      960.18531      0.99696118
    441000  -322.71945      59.269726     -381.98918      315.61531     -851.69187      960.18531      0.99696118
    442000  -314.66173      58.973695     -373.63542      314.03893     -683.28429      960.18531      0.99696118
    443000  -313.37591      65.421696     -378.79761      348.37497     -1796.2126      960.18531      0.99696118
    444000  -305.9807       56.603139     -362.58384      301.41556      4341.3488      960.18531      0.99696118
    445000  -322.94162      49.062065     -372.00369      261.25882     -296.48165      960.18531      0.99696118
    446000  -308.03542      55.354134     -363.38956      294.76452      2991.1413      960.18531      0.99696118
    447000  -319.87908      53.440471     -373.31955      284.57414      457.78069      960.18531      0.99696118
    448000  -303.28484      64.358241     -367.64308      342.712        413.5578       960.18531      0.99696118
    449000  -310.81095      54.746624     -365.55758      291.52949      1073.1696      960.18531      0.99696118
    450000  -321.27754      56.194928     -377.47247      299.24181      1775.8561      960.18531      0.99696118
    451000  -301.14636      53.568815     -354.71518      285.25758      6693.6353      960.18531      0.99696118
    452000  -315.36012      53.009447     -368.36956      282.2789      -82.523208      960.18531      0.99696118
    453000  -311.14668      61.539622     -372.68631      327.70267      506.65858      960.18531      0.99696118
    454000  -327.35338      51.091984     -378.44536      272.06828     -1670.0434      960.18531      0.99696118
    455000  -321.04533      54.994913     -376.04025      292.85164     -1252.2023      960.18531      0.99696118
    456000  -310.4913       59.020608     -369.51191      314.28875     -4486.07        960.18531      0.99696118
    457000  -323.64644      55.535952     -379.18239      295.73271     -1383.3013      960.18531      0.99696118
    458000  -315.2259       59.657272     -374.88317      317.67902      3241.5414      960.18531      0.99696118
    459000  -324.03315      49.526716     -373.55986      263.73313      1855.9828      960.18531      0.99696118
    460000  -289.32185      56.191405     -345.51325      299.22304      2407.6775      960.18531      0.99696118
    461000  -304.48437      64.089532     -368.5739       341.28111     -2145.5359      960.18531      0.99696118
    462000  -323.23892      56.569931     -379.80885      301.23873      713.10432      960.18531      0.99696118
    463000  -323.74107      52.683133     -376.42421      280.54126     -2328.0305      960.18531      0.99696118
    464000  -316.76886      56.201458     -372.97032      299.27658      2292.1276      960.18531      0.99696118
    465000  -300.90016      65.391146     -366.29131      348.21229     -326.47004      960.18531      0.99696118
    466000  -302.38554      73.965209     -376.35075      393.86976      5699.176       960.18531      0.99696118
    467000  -320.37817      62.141613     -382.51979      330.90831      3164.5276      960.18531      0.99696118
    468000  -336.97434      55.458379     -392.43272      295.31963      465.36915      960.18531      0.99696118
    469000  -313.61199      64.983869     -378.59585      346.04352      1465.1765      960.18531      0.99696118
    470000  -329.97154      53.993988     -383.96552      287.52165     -1459.126       960.18531      0.99696118
    471000  -326.01401      56.31366      -382.32767      299.87406     -620.61169      960.18531      0.99696118
    472000  -318.85417      66.425342     -385.27952      353.71946      1464.3699      960.18531      0.99696118
    473000  -310.91508      62.11398      -373.02906      330.76116     -1350.8469      960.18531      0.99696118
    474000  -330.54426      50.97299      -381.51725      271.43463      2827.6176      960.18531      0.99696118
    475000  -309.11776      63.429653     -372.54741      337.76721     -3932.4155      960.18531      0.99696118
    476000  -297.11108      61.537752     -358.64883      327.69271      2857.4299      960.18531      0.99696118
    477000  -314.5964       56.990573     -371.58697      303.47867      1503.9302      960.18531      0.99696118
    478000  -310.25887      53.215602     -363.47447      283.37669     -1001.0989      960.18531      0.99696118
    479000  -316.26613      51.370194     -367.63633      273.54977     -2076.487       960.18531      0.99696118
    480000  -309.77625      69.892        -379.66825      372.17964     -1087.8646      960.18531      0.99696118
    481000  -325.00049      52.357407     -377.3579       278.80675     -1316.2159      960.18531      0.99696118
    482000  -303.39525      56.302631     -359.69788      299.81533     -2727.2724      960.18531      0.99696118
    483000  -310.40795      46.35001      -356.75796      246.81695     -755.15106      960.18531      0.99696118
    484000  -320.01559      50.129923     -370.14551      266.94525     -2660.8237      960.18531      0.99696118
    485000  -317.42649      58.386289     -375.81278      310.91096     -342.47827      960.18531      0.99696118
    486000  -328.14233      49.129266     -377.27159      261.61668      767.41183      960.18531      0.99696118
    487000  -330.35747      51.619737     -381.97721      274.87861      4420.1466      960.18531      0.99696118
    488000  -335.95125      44.071877     -380.02313      234.68574     -1764.8652      960.18531      0.99696118
    489000  -301.87039      59.564315     -361.43471      317.18402     -3761.0357      960.18531      0.99696118
    490000  -316.06211      53.630683     -369.6928       285.58703      1073.6835      960.18531      0.99696118
    491000  -329.69366      53.116206     -382.80986      282.8474      -1311.9044      960.18531      0.99696118
    492000  -323.50952      52.522613     -376.03213      279.68648      806.32161      960.18531      0.99696118
    493000  -325.67767      48.641837     -374.31951      259.02109     -48.854725      960.18531      0.99696118
    494000  -313.28949      70.560062     -383.84955      375.73712      1186.2861      960.18531      0.99696118
    495000  -326.57526      58.23672      -384.81198      310.11449     -2973.308       960.18531      0.99696118
    496000  -320.51102      56.420332     -376.93135      300.4421      -400.86449      960.18531      0.99696118
    497000  -307.16114      60.944125     -368.10526      324.5316      -3192.8924      960.18531      0.99696118
    498000  -329.59472      51.227351     -380.82208      272.78912      3907.162       960.18531      0.99696118
    499000  -327.3662       57.212368     -384.57857      304.65975     -807.04445      960.18531      0.99696118
    500000  -330.49929      50.656869     -381.15616      269.75127      2496.2916      960.18531      0.99696118
    501000  -318.35216      56.955865     -375.30803      303.29385     -2480.1676      960.18531      0.99696118
    502000  -325.4887       60.927902     -386.41661      324.44521     -2999.2624      960.18531      0.99696118
    503000  -321.75834      53.000554     -374.75889      282.23155      2854.9995      960.18531      0.99696118
    504000  -306.14183      59.315362     -365.45719      315.85833     -1331.2575      960.18531      0.99696118
    505000  -314.41412      59.527171     -373.94129      316.98623     -3382.0088      960.18531      0.99696118
    506000  -302.87933      63.74918      -366.62851      339.46871     -2532.4167      960.18531      0.99696118
    507000  -298.07002      68.313562     -366.38358      363.77436      834.34189      960.18531      0.99696118
    508000  -313.22645      54.591124     -367.81757      290.70144      1730.4789      960.18531      0.99696118
    509000  -322.49475      55.195532     -377.69028      293.91996      793.66641      960.18531      0.99696118
    510000  -338.13223      52.738427     -390.87066      280.8357      -3970.5905      960.18531      0.99696118
    511000  -317.07095      53.396116     -370.46707      284.33795     -408.79853      960.18531      0.99696118
    512000  -316.0579       54.488923     -370.54682      290.15721      2155.7117      960.18531      0.99696118
    513000  -329.41085      47.246151     -376.65701      251.58896     -2074.1386      960.18531      0.99696118
    514000  -305.80569      43.190303     -348.99599      229.9913       1095.5093      960.18531      0.99696118
    515000  -295.90885      75.380399     -371.28925      401.40574     -71.970688      960.18531      0.99696118
    516000  -328.2451       56.875979     -385.12108      302.86845      839.40709      960.18531      0.99696118
    517000  -312.70783      49.403128     -362.11096      263.07501      1018.1704      960.18531      0.99696118
    518000  -312.3724       58.969473     -371.34187      314.01645     -910.26761      960.18531      0.99696118
    519000  -320.21999      56.265752     -376.48575      299.61895     -2891.2893      960.18531      0.99696118
    520000  -316.21907      69.197894     -385.41697      368.48348     -1261.5664      960.18531      0.99696118
    521000  -322.88412      55.549477     -378.4336       295.80474     -1118.1984      960.18531      0.99696118
    522000  -309.60849      57.565426     -367.17392      306.5398       1445.5365      960.18531      0.99696118
    523000  -309.69281      54.833908     -364.52672      291.99428      724.78034      960.18531      0.99696118
    524000  -322.77796      51.355718     -374.13368      273.47268     -887.29947      960.18531      0.99696118
    525000  -329.01892      61.642879     -390.6618       328.25252      3258.3429      960.18531      0.99696118
    526000  -314.36292      56.693765     -371.05668      301.89815     -3862.2739      960.18531      0.99696118
    527000  -326.50778      49.205549     -375.71333      262.02289      2601.165       960.18531      0.99696118
    528000  -302.48329      62.055952     -364.53924      330.45216     -3121.8041      960.18531      0.99696118
    529000  -309.7656       57.308002     -367.0736       305.169        37.353588      960.18531      0.99696118
    530000  -326.40721      53.965054     -380.37226      287.36758     -2091.1232      960.18531      0.99696118
    531000  -344.52219      41.584778     -386.10696      221.44176      552.64567      960.18531      0.99696118
    532000  -315.10621      60.384817     -375.49103      321.55325     -427.06018      960.18531      0.99696118
    533000  -316.38994      50.904533     -367.29448      271.07009      5280.238       960.18531      0.99696118
    534000  -334.93071      49.408048     -384.33876      263.10121     -2737.0808      960.18531      0.99696118
    535000  -330.77504      50.825512     -381.60055      270.6493      -907.52616      960.18531      0.99696118
    536000  -309.19961      60.02676      -369.22637      319.64657      1784.9806      960.18531      0.99696118
    537000  -341.20086      48.160517     -389.36137      256.45802     -3609.6124      960.18531      0.99696118
    538000  -318.50371      55.405688     -373.9094       295.03905      1414.8765      960.18531      0.99696118
    539000  -303.89784      56.376871     -360.27471      300.21067     -5736.9121      960.18531      0.99696118
    540000  -323.27765      51.631085     -374.90873      274.93903      5467.2545      960.18531      0.99696118
    541000  -338.15221      62.11125      -400.26346      330.74662      1932.5596      960.18531      0.99696118
    542000  -322.56403      60.213861     -382.7779       320.6429       50.710719      960.18531      0.99696118
    543000  -309.17092      59.027165     -368.19808      314.32366     -525.02939      960.18531      0.99696118
    544000  -323.30891      54.387657     -377.69657      289.61797      2752.0676      960.18531      0.99696118
    545000  -323.65955      62.744091     -386.40364      334.11655      2518.6224      960.18531      0.99696118
    546000  -326.91739      50.788511     -377.7059       270.45227     -19.352888      960.18531      0.99696118
    547000  -324.31091      56.302273     -380.61318      299.81343      1838.3114      960.18531      0.99696118
    548000  -314.04537      47.874119     -361.91949      254.93293     -2851.8385      960.18531      0.99696118
    549000  -318.22609      59.366787     -377.59288      316.13217      3028.8534      960.18531      0.99696118
    550000  -321.73709      54.683913     -376.42101      291.19555     -1107.4512      960.18531      0.99696118
    551000  -317.6203       55.311466     -372.93177      294.53731      2464.3514      960.18531      0.99696118
    552000  -313.28012      48.504903     -361.78502      258.2919       3560.3559      960.18531      0.99696118
    553000  -317.11985      49.074652     -366.1945       261.32585      3037.519       960.18531      0.99696118
    554000  -320.81614      54.527385     -375.34352      290.36203      998.17252      960.18531      0.99696118
    555000  -298.0333       58.519104     -356.55241      311.6182       1222.9949      960.18531      0.99696118
    556000  -320.2384       56.937655     -377.17605      303.19688     -4678.4575      960.18531      0.99696118
    557000  -343.87734      49.229386     -393.10673      262.14982      1142.7786      960.18531      0.99696118
    558000  -325.99474      52.099949     -378.09469      277.43577     -2867.8388      960.18531      0.99696118
    559000  -318.42916      62.76583      -381.19499      334.23231     -647.9591       960.18531      0.99696118
    560000  -336.12556      50.092751     -386.21831      266.7473       1284.8028      960.18531      0.99696118
    561000  -322.4778       49.556345     -372.03415      263.8909      -1095.1741      960.18531      0.99696118
    562000  -303.26313      58.066063     -361.32919      309.20573     -1848.4993      960.18531      0.99696118
    563000  -310.48357      64.733183     -375.21676      344.7086      -640.27582      960.18531      0.99696118
    564000  -304.08912      64.329642     -368.41876      342.55971      3751.4139      960.18531      0.99696118
    565000  -298.55797      56.584789     -355.14276      301.31784     -47.321541      960.18531      0.99696118
    566000  -316.53658      58.620219     -375.1568       312.15664      1050.6035      960.18531      0.99696118
    567000  -312.72435      54.546444     -367.27079      290.46352      3275.3628      960.18531      0.99696118
    568000  -303.44462      60.884639     -364.32926      324.21483     -1414.0612      960.18531      0.99696118
    569000  -297.03739      68.060562     -365.09796      362.42711      73.983953      960.18531      0.99696118
    570000  -322.52466      49.606972     -372.13163      264.16049      296.54417      960.18531      0.99696118
    571000  -325.88605      52.256916     -378.14297      278.27163      813.9481       960.18531      0.99696118
    572000  -323.40131      52.944334     -376.34565      281.93217      1024.636       960.18531      0.99696118
    573000  -332.66375      54.539581     -387.20333      290.42697      22.320953      960.18531      0.99696118
    574000  -317.67022      61.388764     -379.05899      326.89934      1441.8657      960.18531      0.99696118
    575000  -316.77085      57.511832     -374.28268      306.25441      1793.522       960.18531      0.99696118
    576000  -323.8204       53.991242     -377.81164      287.50703      1.1369223      960.18531      0.99696118
    577000  -310.8375       63.501962     -374.33946      338.15226     -409.94554      960.18531      0.99696118
    578000  -321.16727      53.440982     -374.60825      284.57686     -1407.5122      960.18531      0.99696118
    579000  -308.89548      59.891645     -368.78713      318.92708     -335.54229      960.18531      0.99696118
    580000  -323.28036      46.827602     -370.10796      249.36016      959.27296      960.18531      0.99696118
    581000  -323.65957      58.940075     -382.59965      313.8599      -1163.5625      960.18531      0.99696118
    582000  -314.25924      58.159539     -372.41877      309.70349      182.66194      960.18531      0.99696118
    583000  -307.60253      59.688486     -367.29102      317.84524     -2960.1024      960.18531      0.99696118
    584000  -302.56851      44.760798     -347.32931      238.35429     -506.88974      960.18531      0.99696118
    585000  -310.79231      56.514177     -367.30648      300.94183      1826.4053      960.18531      0.99696118
    586000  -322.31746      53.742784     -376.06024      286.18397      974.73003      960.18531      0.99696118
    587000  -305.02008      61.635313     -366.65539      328.21222      729.51398      960.18531      0.99696118
    588000  -318.44291      43.420277     -361.86319      231.21592      172.76782      960.18531      0.99696118
    589000  -316.38786      54.35884      -370.7467       289.46451     -2195.8071      960.18531      0.99696118
    590000  -326.03722      52.89395      -378.93117      281.66387      284.64629      960.18531      0.99696118
    591000  -310.38773      57.205315     -367.59304      304.62218      1652.8648      960.18531      0.99696118
    592000  -285.82319      68.114231     -353.93742      362.7129       1234.7129      960.18531      0.99696118
    593000  -311.92131      54.523671     -366.44498      290.34225     -139.62733      960.18531      0.99696118
    594000  -308.65243      67.262859     -375.91529      358.17929     -3253.5622      960.18531      0.99696118
    595000  -309.29398      61.251219     -370.5452       326.1669       577.79276      960.18531      0.99696118
    596000  -324.24684      56.795422     -381.04226      302.43948     -1008.2252      960.18531      0.99696118
    597000  -312.22128      56.53975      -368.76102      301.07801     -2037.0343      960.18531      0.99696118
    598000  -323.65715      53.083776     -376.74093      282.67471      4437.1517      960.18531      0.99696118
    599000  -340.17177      48.365134     -388.53691      257.54762      3258.3742      960.18531      0.99696118
    600000  -281.748        68.379561     -350.12756      364.12581      463.67167      960.18531      0.99696118
    601000  -305.53729      57.686858     -363.22415      307.18644     -3986.9347      960.18531      0.99696118
    602000  -328.90121      52.682499     -381.5837       280.53788     -2071.0935      960.18531      0.99696118
    603000  -339.34576      48.185547     -387.5313       256.59131      4702.8437      960.18531      0.99696118
    604000  -314.15867      59.85965      -374.01832      318.7567      -2629.3325      960.18531      0.99696118
    605000  -325.29948      45.877857     -371.17733      244.3027      -4057.6979      960.18531      0.99696118
    606000  -332.48268      53.444254     -385.92693      284.59428     -1382.2268      960.18531      0.99696118
    607000  -341.66957      47.658277     -389.32784      253.78356     -590.70571      960.18531      0.99696118
    608000  -307.12663      60.896544     -368.02317      324.27823     -1197.6803      960.18531      0.99696118
    609000  -322.58552      49.436788     -372.02231      263.25425     -778.05134      960.18531      0.99696118
    610000  -319.56604      58.269598     -377.83564      310.28956     -1714.6833      960.18531      0.99696118
    611000  -328.28141      43.287733     -371.56914      230.51012      766.93605      960.18531      0.99696118
    612000  -316.99066      53.916453     -370.90712      287.10877     -2890.7359      960.18531      0.99696118
    613000  -323.70715      51.270361     -374.97751      273.01815     -570.91948      960.18531      0.99696118
    614000  -314.02648      59.702214     -373.72869      317.91834     -916.64586      960.18531      0.99696118
    615000  -310.3662       60.363479     -370.72968      321.43962      1812.433       960.18531      0.99696118
    616000  -325.54522      60.747379     -386.2926       323.48392     -3588.8981      960.18531      0.99696118
    617000  -320.43055      63.126282     -383.55683      336.15174     -1187.449       960.18531      0.99696118
    618000  -330.05345      65.605115     -395.65857      349.35169      3088.605       960.18531      0.99696118
    619000  -333.11158      57.081456     -390.19304      303.96263     -792.64321      960.18531      0.99696118
    620000  -333.50808      50.18199      -383.69007      267.2225       439.38503      960.18531      0.99696118
    621000  -312.26781      61.057939     -373.32575      325.13767      3229.0072      960.18531      0.99696118
    622000  -322.37172      51.000754     -373.37247      271.58248      237.69902      960.18531      0.99696118
    623000  -302.34851      63.085373     -365.43388      335.9339       2640.5951      960.18531      0.99696118
    624000  -322.87745      49.886008     -372.76346      265.64638     -3055.7655      960.18531      0.99696118
    625000  -302.98487      52.716606     -355.70148      280.7195      -2557.6364      960.18531      0.99696118
    626000  -313.54189      57.566576     -371.10847      306.54593     -1607.5492      960.18531      0.99696118
    627000  -305.59465      54.557157     -360.15181      290.52057      909.66955      960.18531      0.99696118
    628000  -307.87816      64.011713     -371.88987      340.86671     -780.46624      960.18531      0.99696118
    629000  -301.66185      64.636863     -366.29871      344.19568      374.53784      960.18531      0.99696118
    630000  -322.44268      52.045578     -374.48826      277.14624     -1328.7774      960.18531      0.99696118
    631000  -323.31532      57.992192     -381.30751      308.81236      1783.7082      960.18531      0.99696118
    632000  -313.52039      64.626962     -378.14736      344.14296     -4876.1993      960.18531      0.99696118
    633000  -327.7065       53.511874     -381.21838      284.95436     -607.27349      960.18531      0.99696118
    634000  -312.13011      56.678324     -368.80844      301.81592      1776.8978      960.18531      0.99696118
    635000  -301.98093      66.773797     -368.75472      355.575        1362.5921      960.18531      0.99696118
    636000  -305.71127      58.592147     -364.30342      312.00716     -1325.0478      960.18531      0.99696118
    637000  -316.68656      51.875494     -368.56205      276.24053     -1534.0096      960.18531      0.99696118
    638000  -299.82285      62.959669     -362.78252      335.26451      72.89694       960.18531      0.99696118
    639000  -303.11143      49.676646     -352.78808      264.53151      4126.2592      960.18531      0.99696118
    640000  -307.54607      61.291351     -368.83742      326.38061      348.04955      960.18531      0.99696118
    641000  -305.96929      60.531637     -366.50092      322.33507      616.46401      960.18531      0.99696118
    642000  -323.42139      58.864429     -382.28581      313.45708     -3223.4057      960.18531      0.99696118
    643000  -294.27937      66.854509     -361.13388      356.0048      -500.81056      960.18531      0.99696118
    644000  -315.6963       54.36194      -370.05824      289.48102     -2754.3348      960.18531      0.99696118
    645000  -311.18699      61.091827     -372.27882      325.31812     -1025.6859      960.18531      0.99696118
    646000  -335.51145      53.289561     -388.80101      283.77053     -859.27233      960.18531      0.99696118
    647000  -304.97985      58.425018     -363.40487      311.11719      1051.1686      960.18531      0.99696118
    648000  -315.84917      57.133618     -372.98279      304.24039      1387.6293      960.18531      0.99696118
    649000  -308.4711       53.978315     -362.44942      287.43819     -224.91541      960.18531      0.99696118
    650000  -327.99555      48.007137     -376.00268      255.64126      3973.6017      960.18531      0.99696118
    651000  -308.47596      65.118759     -373.59472      346.76181      6360.6697      960.18531      0.99696118
    652000  -304.08926      57.307993     -361.39725      305.16895     -616.71343      960.18531      0.99696118
    653000  -309.10195      56.007078     -365.10903      298.24149      1512.5977      960.18531      0.99696118
    654000  -315.31094      51.243509     -366.55445      272.87516     -1694.2892      960.18531      0.99696118
    655000  -327.82711      52.081426     -379.90854      277.33713      1741.93        960.18531      0.99696118
    656000  -304.55118      57.890582     -362.44176      308.27128     -2370.0139      960.18531      0.99696118
    657000  -322.75045      50.570525     -373.32098      269.29148      2331.6899      960.18531      0.99696118
    658000  -306.87148      57.923718     -364.79519      308.44773      1151.7823      960.18531      0.99696118
    659000  -299.30766      60.111533     -359.4192       320.09799     -1023.4363      960.18531      0.99696118
    660000  -320.24363      48.544069     -368.7877       258.50046     -1581.0397      960.18531      0.99696118
    661000  -308.67685      65.250192     -373.92704      347.4617      -415.62578      960.18531      0.99696118
    662000  -305.45247      62.095158     -367.54763      330.66093      1145.9425      960.18531      0.99696118
    663000  -305.88614      57.591645     -363.47778      306.67942     -176.17671      960.18531      0.99696118
    664000  -302.60163      47.951619     -350.55325      255.34563      1621.4323      960.18531      0.99696118
    665000  -311.24094      59.633081     -370.87402      317.55021     -1554.1822      960.18531      0.99696118
    666000  -331.88485      43.896439     -375.78128      233.75152     -1787.7405      960.18531      0.99696118
    667000  -307.57218      60.378202     -367.95038      321.51803      2415.9911      960.18531      0.99696118
    668000  -335.15243      48.750334     -383.90276      259.59884     -3068.451       960.18531      0.99696118
    669000  -321.62224      61.233134     -382.85537      326.07059     -1746.1652      960.18531      0.99696118
    670000  -337.04378      48.229357     -385.27314      256.8246       1287.4636      960.18531      0.99696118
    671000  -319.78871      43.038741     -362.82745      229.18422     -413.49983      960.18531      0.99696118
    672000  -301.35783      59.4076       -360.76543      316.3495       3788.4097      960.18531      0.99696118
    673000  -319.48132      53.090037     -372.57136      282.70805     -1359.8354      960.18531      0.99696118
    674000  -327.5525       54.155031     -381.70753      288.37922     -871.29127      960.18531      0.99696118
    675000  -315.19499      57.093241     -372.28823      304.02538     -1653.1901      960.18531      0.99696118
    676000  -302.06902      59.39055      -361.45957      316.25871      469.09032      960.18531      0.99696118
    677000  -313.55997      55.744066     -369.30404      296.84093      2457.4415      960.18531      0.99696118
    678000  -307.95911      60.646371     -368.60549      322.94604      5243.3926      960.18531      0.99696118
    679000  -339.31019      51.6066       -390.91679      274.80865     -7.7175898      960.18531      0.99696118
    680000  -312.16211      63.557331     -375.71944      338.4471       891.21122      960.18531      0.99696118
    681000  -297.84054      64.214169     -362.05471      341.94481      2393.5666      960.18531      0.99696118
    682000  -319.81298      47.707381     -367.52036      254.04504     -413.13561      960.18531      0.99696118
    683000  -311.64368      63.463628     -375.10731      337.94813      1531.0705      960.18531      0.99696118
    684000  -303.35436      56.916972     -360.27134      303.08674      1199.7061      960.18531      0.99696118
    685000  -313.59998      52.742329     -366.34231      280.85648     -1120.5115      960.18531      0.99696118
    686000  -296.92519      56.963536     -353.88872      303.3347      -2359.6716      960.18531      0.99696118
    687000  -332.2225       48.331714     -380.55421      257.36966     -545.41961      960.18531      0.99696118
    688000  -329.92346      54.936424     -384.85988      292.54019     -545.19241      960.18531      0.99696118
    689000  -311.99885      55.247833     -367.24668      294.19846      681.23362      960.18531      0.99696118
    690000  -325.58468      54.79251      -380.37719      291.77384     -2193.7817      960.18531      0.99696118
    691000  -307.90662      61.295384     -369.202        326.40208     -1389.1698      960.18531      0.99696118
    692000  -306.11095      52.011173     -358.12212      276.96303      1208.998       960.18531      0.99696118
    693000  -309.87693      58.025389     -367.90232      308.98914     -775.00016      960.18531      0.99696118
    694000  -322.38063      63.655801     -386.03643      338.97146     -473.15137      960.18531      0.99696118
    695000  -304.69966      50.939581     -355.63924      271.25673     -652.82795      960.18531      0.99696118
    696000  -308.47835      60.479167     -368.95752      322.05567     -3953.4044      960.18531      0.99696118
    697000  -286.50173      58.278043     -344.77977      310.33453      3514.9366      960.18531      0.99696118
    698000  -310.12602      61.215066     -371.34108      325.97438      1705.4801      960.18531      0.99696118
    699000  -319.64233      49.875506     -369.51784      265.59045     -1862.4086      960.18531      0.99696118
    700000  -328.14367      48.266199     -376.40987      257.02079     -528.30637      960.18531      0.99696118
    701000  -304.79026      55.191155     -359.98142      293.89665      1655.6652      960.18531      0.99696118
    702000  -306.96139      48.463745     -355.42513      258.07273      824.09574      960.18531      0.99696118
    703000  -316.83227      55.875941     -372.70822      297.54318      5537.3319      960.18531      0.99696118
    704000  -321.85099      56.336535     -378.18752      299.99588      2967.405       960.18531      0.99696118
    705000  -322.26347      56.37208      -378.63555      300.18515      3600.7709      960.18531      0.99696118
    706000  -333.34137      60.933961     -394.27533      324.47748      3441.4418      960.18531      0.99696118
    707000  -313.03001      53.679047     -366.70905      285.84457     -2600.5015      960.18531      0.99696118
    708000  -311.4703       48.285055     -359.75536      257.1212      -2192.3886      960.18531      0.99696118
    709000  -319.90176      59.313513     -379.21527      315.84848      2758.821       960.18531      0.99696118
    710000  -302.0961       56.338626     -358.43473      300.00701      4060.3222      960.18531      0.99696118
    711000  -308.48597      59.532638     -368.01861      317.01534      154.10395      960.18531      0.99696118
    712000  -324.51233      60.412623     -384.92495      321.70132      2733.6049      960.18531      0.99696118
    713000  -319.35887      56.253368     -375.61224      299.553        731.01612      960.18531      0.99696118
    714000  -311.44083      52.373884     -363.81471      278.89449      4585.1653      960.18531      0.99696118
    715000  -319.92786      54.206262     -374.13412      288.65202      244.89132      960.18531      0.99696118
    716000  -320.78717      56.187636     -376.97481      299.20298     -1779.2082      960.18531      0.99696118
    717000  -318.54382      55.578351     -374.12217      295.95849     -2656.0746      960.18531      0.99696118
    718000  -313.02423      48.548241     -361.57247      258.52268     -1060.3361      960.18531      0.99696118
    719000  -311.90462      58.344268     -370.24889      310.68719      779.76598      960.18531      0.99696118
    720000  -309.24282      58.27716      -367.51998      310.32983      1437.8141      960.18531      0.99696118
    721000  -321.94716      51.291283     -373.23844      273.12957      780.78773      960.18531      0.99696118
    722000  -318.3574       54.046866     -372.40427      287.80323      761.75281      960.18531      0.99696118
    723000  -308.44259      52.910996     -361.35359      281.75465      820.12893      960.18531      0.99696118
    724000  -319.27553      55.631448     -374.90698      296.24124     -1512.8937      960.18531      0.99696118
    725000  -308.16024      55.464526     -363.62476      295.35237      65.136333      960.18531      0.99696118
    726000  -330.44908      54.069491     -384.51857      287.92371     -2340.9881      960.18531      0.99696118
    727000  -328.1647       48.36709      -376.53179      257.55804      2548.1818      960.18531      0.99696118
    728000  -314.93554      48.681786     -363.61732      259.23382      3988.9235      960.18531      0.99696118
    729000  -347.16363      46.433453     -393.59708      247.26129     -4461.2315      960.18531      0.99696118
    730000  -316.42952      57.866929     -374.29645      308.14533      5967.2316      960.18531      0.99696118
    731000  -315.94104      51.668928     -367.60997      275.14055     -1166.8966      960.18531      0.99696118
    732000  -319.70611      55.818326     -375.52443      297.23637     -490.88035      960.18531      0.99696118
    733000  -309.06083      62.003288     -371.06411      330.17172      4299.5738      960.18531      0.99696118
    734000  -335.20589      47.955408     -383.1613       255.3658      -1669.567       960.18531      0.99696118
    735000  -340.41625      52.117064     -392.53332      277.5269       379.2254       960.18531      0.99696118
    736000  -326.33284      60.175965     -386.50881      320.4411      -3462.6599      960.18531      0.99696118
    737000  -302.18444      59.571457     -361.7559       317.22205      1878.1346      960.18531      0.99696118
    738000  -322.7436       54.214059     -376.95766      288.69354     -864.77402      960.18531      0.99696118
    739000  -309.47264      54.572402     -364.04504      290.60175      351.1132       960.18531      0.99696118
    740000  -331.79735      60.539925     -392.33728      322.37921      238.38402      960.18531      0.99696118
    741000  -320.55265      64.569292     -385.12195      343.83586     -155.00612      960.18531      0.99696118
    742000  -306.24298      58.228773     -364.47176      310.07217     -716.06404      960.18531      0.99696118
    743000  -325.63827      50.907093     -376.54537      271.08373     -4717.1493      960.18531      0.99696118
    744000  -320.1469       47.761495     -367.90839      254.3332       964.61882      960.18531      0.99696118
    745000  -331.73916      45.674928     -377.41409      243.22209     -3104.0313      960.18531      0.99696118
    746000  -300.42726      61.017545     -361.44481      324.92257     -2082.8235      960.18531      0.99696118
    747000  -300.92747      53.370642     -354.29811      284.20229      2418.1959      960.18531      0.99696118
    748000  -302.32148      59.852908     -362.17438      318.7208      -2399.1004      960.18531      0.99696118
    749000  -327.41787      48.716248     -376.13412      259.41733     -1996.8958      960.18531      0.99696118
    750000  -313.45237      52.943764     -366.39613      281.92913      319.03212      960.18531      0.99696118
    751000  -305.59923      65.091143     -370.69038      346.61476     -991.54586      960.18531      0.99696118
    752000  -303.08354      67.600822     -370.68436      359.97896     -984.26406      960.18531      0.99696118
    753000  -297.21271      57.895849     -355.10856      308.29933     -4683.4745      960.18531      0.99696118
    754000  -328.24743      57.883984     -386.13141      308.23614     -401.22248      960.18531      0.99696118
    755000  -314.86646      55.697852     -370.56431      296.59484      70.505614      960.18531      0.99696118
    756000  -331.97701      49.644608     -381.62162      264.36091      1583.0154      960.18531      0.99696118
    757000  -316.64936      54.59375      -371.24311      290.71543     -16.479097      960.18531      0.99696118
    758000  -344.04113      47.747031     -391.78816      254.25618      1132.2528      960.18531      0.99696118
    759000  -309.00763      44.730435     -353.73806      238.1926       505.61268      960.18531      0.99696118
    760000  -326.07837      50.533685     -376.61206      269.0953      -172.69663      960.18531      0.99696118
    761000  -305.06262      61.464331     -366.52696      327.30174      5145.4832      960.18531      0.99696118
    762000  -313.62073      54.364345     -367.98507      289.49383      7.441865       960.18531      0.99696118
    763000  -312.77107      58.134957     -370.90603      309.57259     -2160.813       960.18531      0.99696118
    764000  -313.51682      68.728202     -382.24502      365.98234      2513.1989      960.18531      0.99696118
    765000  -314.17899      61.154588     -375.33358      325.65233      770.83104      960.18531      0.99696118
    766000  -316.78782      59.891178     -376.67899      318.92459      1117.7778      960.18531      0.99696118
    767000  -337.07715      51.709666     -388.78682      275.35748     -2289.3605      960.18531      0.99696118
    768000  -327.21204      57.276115     -384.48816      304.9992      -1625.917       960.18531      0.99696118
    769000  -306.32984      59.232896     -365.56273      315.41919     -2720.3756      960.18531      0.99696118
    770000  -310.74863      64.057622     -374.80625      341.11119      860.82102      960.18531      0.99696118
    771000  -293.67746      55.739616     -349.41708      296.81724      3336.9137      960.18531      0.99696118
    772000  -299.35738      69.053985     -368.41136      367.71716      573.65717      960.18531      0.99696118
    773000  -305.20751      58.763276     -363.97079      312.91844     -631.50241      960.18531      0.99696118
    774000  -303.84588      63.227833     -367.07371      336.69251     -3831.7142      960.18531      0.99696118
    775000  -316.8526       53.611075     -370.46367      285.48261      64.148294      960.18531      0.99696118
    776000  -323.38044      55.409059     -378.7895       295.057        5054.9532      960.18531      0.99696118
    777000  -319.08726      61.745342     -380.8326       328.79814      2089.8307      960.18531      0.99696118
    778000  -310.21286      55.800188     -366.01305      297.13979     -3365.1316      960.18531      0.99696118
    779000  -315.35757      60.109044     -375.46662      320.08474      678.2884       960.18531      0.99696118
    780000  -322.64137      55.147811     -377.78918      293.66584      727.32577      960.18531      0.99696118
    781000  -309.57626      59.333671     -368.90993      315.95583      1980.2918      960.18531      0.99696118
    782000  -308.74251      58.124323     -366.86683      309.51597     -4342.9584      960.18531      0.99696118
    783000  -333.34545      51.80435      -385.1498       275.86168      52.724798      960.18531      0.99696118
    784000  -324.32968      56.854053     -381.18373      302.75169     -1853.7864      960.18531      0.99696118
    785000  -323.31061      48.313542     -371.62415      257.27289      4850.6256      960.18531      0.99696118
    786000  -308.33864      58.331788     -366.67042      310.62073      2938.0132      960.18531      0.99696118
    787000  -314.19236      49.653062     -363.84542      264.40592      1499.9417      960.18531      0.99696118
    788000  -309.73755      59.600086     -369.33763      317.3745       982.86603      960.18531      0.99696118
    789000  -330.3739       49.248839     -379.62273      262.25341      2381.3992      960.18531      0.99696118
    790000  -316.06828      66.254489     -382.32277      352.80965      2182.8122      960.18531      0.99696118
    791000  -312.03854      64.771483     -376.81003      344.91254      1718.8297      960.18531      0.99696118
    792000  -318.22729      54.989671     -373.21696      292.82373      1078.1547      960.18531      0.99696118
    793000  -298.56413      60.989519     -359.55365      324.77333     -718.78148      960.18531      0.99696118
    794000  -312.37354      54.348796     -366.72234      289.41103      3908.7586      960.18531      0.99696118
    795000  -305.75675      61.873331     -367.63008      329.47969     -966.72732      960.18531      0.99696118
    796000  -319.78204      51.674118     -371.45616      275.16819     -1490.7514      960.18531      0.99696118
    797000  -324.36027      53.559431     -377.9197       285.2076      -1154.5327      960.18531      0.99696118
    798000  -315.35341      66.159818     -381.51323      352.30552      3909.7058      960.18531      0.99696118
    799000  -306.51324      60.073044     -366.58629      319.89304     -2273.6808      960.18531      0.99696118
    800000  -315.00565      50.726538     -365.73218      270.12226     -3807.2778      960.18531      0.99696118
    801000  -309.31304      48.489807     -357.80284      258.21151     -185.14315      960.18531      0.99696118
    802000  -296.11987      56.70662      -352.82649      301.9666       1523.413       960.18531      0.99696118
    803000  -330.75147      55.177101     -385.92857      293.82181     -165.67618      960.18531      0.99696118
    804000  -316.36183      59.600241     -375.96207      317.37533     -615.79913      960.18531      0.99696118
    805000  -315.49756      59.255101     -374.75266      315.53743     -3740.3219      960.18531      0.99696118
    806000  -321.17874      49.172824     -370.35156      261.84863      2399.5201      960.18531      0.99696118
    807000  -310.76115      57.694385     -368.45554      307.22652     -1376.3397      960.18531      0.99696118
    808000  -328.95808      54.353661     -383.31174      289.43693     -955.69776      960.18531      0.99696118
    809000  -332.73841      39.018265     -371.75667      207.77491     -1675.1122      960.18531      0.99696118
    810000  -290.84137      63.588424     -354.4298       338.61267      238.15379      960.18531      0.99696118
    811000  -304.80125      58.379351     -363.1806       310.87401     -65.169006      960.18531      0.99696118
    812000  -309.17964      65.813541     -374.99318      350.46157      1471.1706      960.18531      0.99696118
    813000  -314.34739      59.554155     -373.90155      317.12992      1530.4284      960.18531      0.99696118
    814000  -329.09059      43.356442     -372.44703      230.876       -1015.7167      960.18531      0.99696118
    815000  -316.07757      61.331366     -377.40894      326.59369      1223.0943      960.18531      0.99696118
    816000  -331.01728      62.433421     -393.4507       332.4622       1112.1833      960.18531      0.99696118
    817000  -315.76763      49.112749     -364.88038      261.52872     -2126.2753      960.18531      0.99696118
    818000  -292.78818      52.163613     -344.95179      277.77478      4351.0412      960.18531      0.99696118
    819000  -297.45765      55.783981     -353.24163      297.05349      1690.3004      960.18531      0.99696118
    820000  -310.88413      62.915391     -373.79952      335.02873     -735.65866      960.18531      0.99696118
    821000  -301.80279      59.364827     -361.16762      316.12173      4102.2619      960.18531      0.99696118
    822000  -304.8024       53.683525     -358.48592      285.86841      558.54718      960.18531      0.99696118
    823000  -302.58822      51.808702     -354.39692      275.88486      1315.1508      960.18531      0.99696118
    824000  -321.76954      54.168671     -375.93821      288.45185     -1288.3314      960.18531      0.99696118
    825000  -332.19735      46.240337     -378.43769      246.23293      1414.3568      960.18531      0.99696118
    826000  -305.23747      60.542125     -365.77959      322.39092      936.27095      960.18531      0.99696118
    827000  -320.09035      54.869099     -374.95945      292.18167     -2185.8558      960.18531      0.99696118
    828000  -312.00769      57.302626     -369.31032      305.14037     -1417.3157      960.18531      0.99696118
    829000  -309.97279      49.877576     -359.85037      265.60148     -2083.6928      960.18531      0.99696118
    830000  -310.38404      60.935838     -371.31988      324.48748     -2787.8956      960.18531      0.99696118
    831000  -330.59333      45.80655      -376.39988      243.92299      1871.7885      960.18531      0.99696118
    832000  -307.82309      54.429215     -362.2523       289.83927     -1356.1351      960.18531      0.99696118
    833000  -313.14193      56.545404     -369.68734      301.10811     -3186.3269      960.18531      0.99696118
    834000  -310.91523      49.12298      -360.03822      261.58321      3110.2397      960.18531      0.99696118
    835000  -310.41872      54.491447     -364.91017      290.17066      1293.4705      960.18531      0.99696118
    836000  -332.41197      50.966513     -383.37848      271.40014      1043.3014      960.18531      0.99696118
    837000  -323.43759      48.681895     -372.11949      259.23439     -1511.2847      960.18531      0.99696118
    838000  -324.66253      59.555054     -384.21759      317.1347      -4774.2263      960.18531      0.99696118
    839000  -340.36599      51.254459     -391.62045      272.93348      1801.1189      960.18531      0.99696118
    840000  -331.20505      55.256602     -386.46165      294.24516     -1650.0702      960.18531      0.99696118
    841000  -330.90204      54.846438     -385.74848      292.06101      236.25831      960.18531      0.99696118
    842000  -319.84851      50.320483     -370.169        267.95999      2035.3134      960.18531      0.99696118
    843000  -306.5713       49.71127      -356.28257      264.71589     -3716.127       960.18531      0.99696118
    844000  -326.73608      49.772165     -376.50825      265.04016      4399.5755      960.18531      0.99696118
    845000  -317.40476      60.943422     -378.34818      324.52786     -247.43639      960.18531      0.99696118
    846000  -311.77837      59.61288      -371.39125      317.44264      2207.5557      960.18531      0.99696118
    847000  -326.87572      56.36607      -383.24179      300.15315      2950.8715      960.18531      0.99696118
    848000  -312.30299      63.851804     -376.1548       340.01519      1055.8086      960.18531      0.99696118
    849000  -312.20572      55.977893     -368.18361      298.08608      1390.1839      960.18531      0.99696118
    850000  -299.74987      61.094886     -360.84476      325.33442      556.08945      960.18531      0.99696118
    851000  -317.91226      57.969381     -375.88164      308.69089     -2326.1037      960.18531      0.99696118
    852000  -333.91828      45.819982     -379.73826      243.99452     -2073.7157      960.18531      0.99696118
    853000  -322.70399      50.192199     -372.89619      267.27687      85.012795      960.18531      0.99696118
    854000  -305.58298      62.292955     -367.87594      331.71421     -2238.9091      960.18531      0.99696118
    855000  -320.86767      50.306893     -371.17456      267.88762     -3361.4003      960.18531      0.99696118
    856000  -319.3103       54.088912     -373.39921      288.02713      1783.6146      960.18531      0.99696118
    857000  -301.39088      63.363654     -364.75453      337.41576      639.34686      960.18531      0.99696118
    858000  -316.29226      45.880513     -362.17277      244.31684      3326.8817      960.18531      0.99696118
    859000  -320.881        64.369062     -385.25006      342.76962      890.43528      960.18531      0.99696118
    860000  -323.49002      59.23388      -382.7239       315.42443      2799.7273      960.18531      0.99696118
    861000  -327.24447      56.252486     -383.49695      299.54831     -3495.6579      960.18531      0.99696118
    862000  -302.19084      68.24295      -370.43379      363.39834     -4099.7211      960.18531      0.99696118
    863000  -310.67792      49.874023     -360.55194      265.58256     -4343.5269      960.18531      0.99696118
    864000  -311.09928      52.62008      -363.71936      280.2055      -3286.4951      960.18531      0.99696118
    865000  -309.38808      68.050367     -377.43845      362.37282     -2200.3048      960.18531      0.99696118
    866000  -322.24452      56.421749     -378.66627      300.44964      154.42297      960.18531      0.99696118
    867000  -319.96485      56.188109     -376.15296      299.20549      459.82155      960.18531      0.99696118
    868000  -317.62692      50.177983     -367.80491      267.20117      1494.5991      960.18531      0.99696118
    869000  -327.96374      59.458933     -387.42268      316.62286     -400.05555      960.18531      0.99696118
    870000  -313.44555      60.919786     -374.36534      324.40199      1671.9366      960.18531      0.99696118
    871000  -306.99327      60.691989     -367.68526      323.18896      1509.6351      960.18531      0.99696118
    872000  -313.63005      51.041309     -364.67136      271.79843     -1497.7807      960.18531      0.99696118
    873000  -313.30577      50.393547     -363.69931      268.34906     -1541.5512      960.18531      0.99696118
    874000  -297.16151      65.695846     -362.85735      349.83484      3224.0612      960.18531      0.99696118
    875000  -314.9392       61.480708     -376.4199       327.38894     -528.94225      960.18531      0.99696118
    876000  -310.14314      53.266254     -363.40939      283.64642      1709.4954      960.18531      0.99696118
    877000  -317.66045      59.084684     -376.74513      314.62995     -3463.6876      960.18531      0.99696118
    878000  -314.62028      61.51695      -376.13723      327.58194      4449.3906      960.18531      0.99696118
    879000  -319.84026      48.471144     -368.31141      258.11213     -1449.9988      960.18531      0.99696118
    880000  -313.23744      56.128804     -369.36624      298.88969      4519.8115      960.18531      0.99696118
    881000  -314.50452      57.513712     -372.01823      306.26442     -3385.9265      960.18531      0.99696118
    882000  -315.46258      59.0012       -374.46378      314.18539      2491.7519      960.18531      0.99696118
    883000  -315.77569      59.617644     -375.39334      317.468        1774.8696      960.18531      0.99696118
    884000  -334.8701       50.901568     -385.77167      271.05431     -406.03421      960.18531      0.99696118
    885000  -300.35038      56.0977       -356.44808      298.72406      3060.9188      960.18531      0.99696118
    886000  -313.09478      54.197587     -367.29237      288.60583      2819.9952      960.18531      0.99696118
    887000  -337.35629      51.67662      -389.03291      275.18151      5183.7112      960.18531      0.99696118
    888000  -319.08555      53.454757     -372.54031      284.65021      492.26408      960.18531      0.99696118
    889000  -328.25371      55.449131     -383.70284      295.27039      3104.8263      960.18531      0.99696118
    890000  -306.85443      57.019332     -363.87377      303.63182     -611.82966      960.18531      0.99696118
    891000  -306.19298      60.393176     -366.58615      321.59776     -2300.1769      960.18531      0.99696118
    892000  -296.7426       57.660299     -354.4029       307.04501      1029.4585      960.18531      0.99696118
    893000  -307.28828      54.320617     -361.60889      289.26097     -3155.5469      960.18531      0.99696118
    894000  -321.95313      56.246195     -378.19932      299.5148      -4012.4189      960.18531      0.99696118
    895000  -310.66461      52.93265      -363.59726      281.86996      1162.2576      960.18531      0.99696118
    896000  -322.16825      55.227871     -377.39612      294.09216     -1642.4202      960.18531      0.99696118
    897000  -317.54017      52.674833     -370.21501      280.49706      3924.2013      960.18531      0.99696118
    898000  -329.69347      54.54908      -384.24255      290.47755      4889.2369      960.18531      0.99696118
    899000  -324.02735      58.873897     -382.90125      313.5075       158.6741       960.18531      0.99696118
    900000  -315.81782      56.692488     -372.51031      301.89135      2461.8738      960.18531      0.99696118
    901000  -323.92374      54.068713     -377.99246      287.91957      1767.5864      960.18531      0.99696118
    902000  -314.58901      58.331288     -372.9203       310.61807     -1151.5301      960.18531      0.99696118
    903000  -320.7896       49.206546     -369.99615      262.0282      -1081.5897      960.18531      0.99696118
    904000  -319.41994      54.025806     -373.44574      287.69109     -122.57457      960.18531      0.99696118
    905000  -311.85025      56.496083     -368.34633      300.84548      1527.7867      960.18531      0.99696118
    906000  -294.14694      67.18064      -361.32758      357.74147      3034.5199      960.18531      0.99696118
    907000  -313.16023      62.962144     -376.12238      335.27769      1414.9907      960.18531      0.99696118
    908000  -323.98499      52.475049     -376.46004      279.4332       2985.0969      960.18531      0.99696118
    909000  -319.196        51.578688     -370.77469      274.66002      864.86515      960.18531      0.99696118
    910000  -321.24325      46.68586      -367.92911      248.60537     -373.89731      960.18531      0.99696118
    911000  -331.51384      52.546162     -384.06         279.81188     -75.483104      960.18531      0.99696118
    912000  -310.6096       54.507774     -365.11738      290.2576       1335.8468      960.18531      0.99696118
    913000  -297.95356      70.630702     -368.58426      376.11328      62.72508       960.18531      0.99696118
    914000  -333.94789      41.682483     -375.63037      221.96205      3261.0016      960.18531      0.99696118
    915000  -322.85453      61.801999     -384.65653      329.09984      654.76028      960.18531      0.99696118
    916000  -308.38145      60.958344     -369.33979      324.60732      322.32959      960.18531      0.99696118
    917000  -329.50031      60.422541     -389.92285      321.75413     -1310.0266      960.18531      0.99696118
    918000  -325.72511      55.624423     -381.34953      296.20383     -2002.9508      960.18531      0.99696118
    919000  -318.18741      57.112564     -375.29997      304.12828     -417.59675      960.18531      0.99696118
    920000  -319.43284      59.18704      -378.61988      315.175       -1723.6814      960.18531      0.99696118
    921000  -327.99643      53.785578     -381.78201      286.41186     -817.68658      960.18531      0.99696118
    922000  -322.95937      48.690045     -371.64941      259.27779     -2037.7484      960.18531      0.99696118
    923000  -314.31126      55.537339     -369.8486       295.7401       1548.0543      960.18531      0.99696118
    924000  -322.12917      52.273104     -374.40227      278.35783     -213.70723      960.18531      0.99696118
    925000  -312.41962      55.808764     -368.22838      297.18545     -2281.4165      960.18531      0.99696118
    926000  -331.56039      52.322454     -383.88285      278.62062     -6052.2994      960.18531      0.99696118
    927000  -299.81919      62.452575     -362.27177      332.5642      -165.94178      960.18531      0.99696118
    928000  -312.28554      53.488755     -365.77429      284.83125      549.0608       960.18531      0.99696118
    929000  -336.39974      46.720577     -383.12032      248.79024      506.27379      960.18531      0.99696118
    930000  -312.33957      64.830456     -377.17002      345.22658     -2050.2492      960.18531      0.99696118
    931000  -330.02243      57.303929     -387.32635      305.14731      2496.038       960.18531      0.99696118
    932000  -316.41793      47.022735     -363.44067      250.39926      2724.3726      960.18531      0.99696118
    933000  -315.5144       57.412325     -372.92672      305.72453      775.33336      960.18531      0.99696118
    934000  -308.95867      48.077933     -357.0366       256.01826      1060.3778      960.18531      0.99696118
    935000  -313.02955      60.192792     -373.22234      320.5307      -1359.7346      960.18531      0.99696118
    936000  -307.06675      65.853649     -372.9204       350.67515     -465.22458      960.18531      0.99696118
    937000  -317.06008      51.102242     -368.16232      272.12291     -4587.3163      960.18531      0.99696118
    938000  -323.74587      47.908013     -371.65388      255.11342      291.40382      960.18531      0.99696118
    939000  -309.05041      59.811652     -368.86206      318.50111      317.78183      960.18531      0.99696118
    940000  -321.96994      58.06448      -380.03442      309.1973      -1396.2621      960.18531      0.99696118
    941000  -320.2363       53.01108      -373.24738      282.2876       2728.8624      960.18531      0.99696118
    942000  -314.743        59.202995     -373.94599      315.25997     -1570.2721      960.18531      0.99696118
    943000  -302.26089      58.88898      -361.14987      313.58781      5375.9737      960.18531      0.99696118
    944000  -323.28675      59.321706     -382.60846      315.89211     -905.42079      960.18531      0.99696118
    945000  -293.82295      58.454048     -352.27699      311.27178      2992.0739      960.18531      0.99696118
    946000  -295.65397      60.141228     -355.7952       320.25612      6072.6432      960.18531      0.99696118
    947000  -308.39549      57.591753     -365.98724      306.67999     -572.62455      960.18531      0.99696118
    948000  -330.6048       49.076067     -379.68087      261.33339     -1765.2232      960.18531      0.99696118
    949000  -302.92722      56.466196     -359.39342      300.68633     -4262.2469      960.18531      0.99696118
    950000  -312.92084      47.009596     -359.93043      250.32929     -650.35989      960.18531      0.99696118
    951000  -324.56835      49.760643     -374.32899      264.9788       2323.0281      960.18531      0.99696118
    952000  -309.13463      53.240949     -362.37558      283.51167      1304.6766      960.18531      0.99696118
    953000  -323.29711      56.574009     -379.87112      301.26044      2359.3903      960.18531      0.99696118
    954000  -309.26117      60.81102      -370.07219      323.82281     -593.39358      960.18531      0.99696118
    955000  -324.03343      59.434627     -383.46806      316.49342     -1860.5647      960.18531      0.99696118
    956000  -311.88208      52.082731     -363.96482      277.34408      2322.9853      960.18531      0.99696118
    957000  -321.89014      49.987895     -371.87804      266.18893     -325.68686      960.18531      0.99696118
    958000  -302.19864      55.851305     -358.04995      297.41199     -106.59646      960.18531      0.99696118
    959000  -315.50062      62.02277      -377.52339      330.27546      59.057628      960.18531      0.99696118
    960000  -316.92223      53.622873     -370.5451       285.54544      2185.983       960.18531      0.99696118
    961000  -329.31784      48.357778     -377.67562      257.50845      1487.3334      960.18531      0.99696118
    962000  -307.06238      64.174425     -371.23681      341.73317     -1879.8396      960.18531      0.99696118
    963000  -315.00363      52.480332     -367.48396      279.46133      3276.6277      960.18531      0.99696118
    964000  -326.49563      50.124491     -376.62012      266.91632     -2886.1223      960.18531      0.99696118
    965000  -328.55206      62.881241     -391.43331      334.84688     -1197.3433      960.18531      0.99696118
    966000  -300.13559      65.942456     -366.07804      351.14805     -2622.3481      960.18531      0.99696118
    967000  -319.27712      52.125948     -371.40307      277.57421     -2233.7125      960.18531      0.99696118
    968000  -333.94195      48.673372     -382.61532      259.18901     -181.86814      960.18531      0.99696118
    969000  -306.02539      58.704391     -364.72978      312.60487     -4822.779       960.18531      0.99696118
    970000  -307.77401      55.020992     -362.795        292.99052     -1783.9373      960.18531      0.99696118
    971000  -317.03404      58.078581     -375.11262      309.27239     -326.09764      960.18531      0.99696118
    972000  -305.64633      72.462904     -378.10924      385.86988     -2703.8314      960.18531      0.99696118
    973000  -337.28458      43.898923     -381.1835       233.76474      426.54477      960.18531      0.99696118
    974000  -348.14783      50.320384     -398.46821      267.95946      648.5383       960.18531      0.99696118
    975000  -319.76177      61.399588     -381.16136      326.95697     -1997.1804      960.18531      0.99696118
    976000  -333.29293      54.405037     -387.69796      289.71051     -455.72641      960.18531      0.99696118
    977000  -326.24623      53.489661     -379.73589      284.83607     -956.57371      960.18531      0.99696118
    978000  -323.74811      46.285166     -370.03328      246.47165     -566.35111      960.18531      0.99696118
    979000  -311.58002      59.724326     -371.30435      318.03609     -309.43595      960.18531      0.99696118
    980000  -308.97703      64.703064     -373.6801       344.54821      976.81352      960.18531      0.99696118
    981000  -332.09557      47.607543     -379.70311      253.5134      -3509.5578      960.18531      0.99696118
    982000  -323.46274      50.328818     -373.79156      268.00437     -554.93374      960.18531      0.99696118
    983000  -311.56687      55.810711     -367.37758      297.19583      1035.6618      960.18531      0.99696118
    984000  -326.2261       59.592394     -385.81849      317.33354      102.92147      960.18531      0.99696118
    985000  -329.74774      58.739505     -388.48724      312.79185     -1432.9938      960.18531      0.99696118
    986000  -319.76353      59.366942     -379.13047      316.13299     -1976.5551      960.18531      0.99696118
    987000  -334.71504      57.395215     -392.11025      305.63342     -2380.8617      960.18531      0.99696118
    988000  -324.77216      50.936252     -375.70841      271.239       -3934.9481      960.18531      0.99696118
    989000  -331.45493      52.616224     -384.07115      280.18497     -427.80953      960.18531      0.99696118
    990000  -318.94872      59.740225     -378.68894      318.12075      850.80128      960.18531      0.99696118
    991000  -310.79878      60.62433      -371.42311      322.82868      1462.1166      960.18531      0.99696118
    992000  -298.528        52.583513     -351.11151      280.01078     -1880.3382      960.18531      0.99696118
    993000  -322.60533      44.363046     -366.96838      236.23623     -360.03793      960.18531      0.99696118
    994000  -309.25318      55.844659     -365.09784      297.3766       1983.7196      960.18531      0.99696118
    995000  -323.64982      53.384759     -377.03457      284.27747      2453.4667      960.18531      0.99696118
    996000  -320.08637      56.032268     -376.11864      298.37563      4036.3475      960.18531      0.99696118
    997000  -336.78743      49.53676      -386.32419      263.78661      761.96099      960.18531      0.99696118
    998000  -309.36097      54.211123     -363.57209      288.67791      88.415413      960.18531      0.99696118
    999000  -321.696        53.818786     -375.51479      286.58869     -1097.8163      960.18531      0.99696118
   1000000  -326.94582      60.723064     -387.66888      323.35444      478.14275      960.18531      0.99696118
Loop time of 432.571 on 1 procs for 1000000 steps with 96 atoms

Performance: 199.736 ns/day, 0.120 hours/ns, 2311.761 timesteps/s
99.7% CPU use with 1 MPI tasks x 1 OpenMP threads

MPI task timing breakdown:
Section |  min time  |  avg time  |  max time  |%varavg| %total
---------------------------------------------------------------
Pair    | 338.53     | 338.53     | 338.53     |   0.0 | 78.26
Bond    | 0.053216   | 0.053216   | 0.053216   |   0.0 |  0.01
Kspace  | 58.725     | 58.725     | 58.725     |   0.0 | 13.58
Neigh   | 16.253     | 16.253     | 16.253     |   0.0 |  3.76
Comm    | 11.637     | 11.637     | 11.637     |   0.0 |  2.69
Output  | 0.15351    | 0.15351    | 0.15351    |   0.0 |  0.04
Modify  | 5.5397     | 5.5397     | 5.5397     |   0.0 |  1.28
Other   |            | 1.675      |            |       |  0.39

Nlocal:             96 ave          96 max          96 min
Histogram: 1 0 0 0 0 0 0 0 0 0
Nghost:           3828 ave        3828 max        3828 min
Histogram: 1 0 0 0 0 0 0 0 0 0
Neighs:          34651 ave       34651 max       34651 min
Histogram: 1 0 0 0 0 0 0 0 0 0

Total # of neighbors = 34651
Ave neighs/atom = 360.94792
Ave special neighs/atom = 2
Neighbor list builds = 22683
Dangerous builds = 0
# write data file
write_data data.after_eq.lmp
System init for write_data ...
PPPM initialization ...
  using 12-bit tables for long-range coulomb (src/kspace.cpp:342)
  G vector (1/distance) = 0.30847861
  grid = 9 9 9
  stencil order = 5
  estimated absolute RMS force accuracy = 0.0027675926
  estimated relative force accuracy = 8.334523e-06
  using double precision FFTW3
  3d grid and FFT values/proc = 4096 729
Generated 1 of 1 mixed pair_coeff terms from geometric mixing rule

# clean up
undump dEQUI

# production
# 2 ns
dump dPROD all custom 1000 prod.lammpstrj id element xu yu zu
dump_modify dPROD element H O sort id
run 2000000
PPPM initialization ...
  using 12-bit tables for long-range coulomb (src/kspace.cpp:342)
  G vector (1/distance) = 0.30847861
  grid = 9 9 9
  stencil order = 5
  estimated absolute RMS force accuracy = 0.0027675926
  estimated relative force accuracy = 8.334523e-06
  using double precision FFTW3
  3d grid and FFT values/proc = 4096 729
Generated 1 of 1 mixed pair_coeff terms from geometric mixing rule
Per MPI rank memory allocation (min/avg/max) = 9.331 | 9.331 | 9.331 Mbytes
   Step         TotEng         KinEng         PotEng          Temp          Press          Volume        Density
   1000000  -326.94582      60.723064     -387.66888      323.35444      477.68294      960.18531      0.99696118
   1001000  -314.80721      56.33342      -371.14063      299.97929     -362.13188      960.18531      0.99696118
   1002000  -324.12176      54.103904     -378.22567      288.10696      2543.6612      960.18531      0.99696118
   1003000  -322.54785      50.90539      -373.45324      271.07466     -1295.9547      960.18531      0.99696118
   1004000  -305.84218      58.594652     -364.43684      312.0205       2915.0386      960.18531      0.99696118
   1005000  -327.78314      47.75628      -375.53942      254.30543     -1505.3799      960.18531      0.99696118
   1006000  -316.11618      47.897715     -364.01389      255.05858     -733.92035      960.18531      0.99696118
   1007000  -300.30956      53.451864     -353.76143      284.6348       841.86082      960.18531      0.99696118
   1008000  -301.64346      56.578452     -358.22191      301.2841      -4889.1942      960.18531      0.99696118
   1009000  -305.59642      56.370774     -361.96719      300.1782       1474.5519      960.18531      0.99696118
   1010000  -322.4218       54.703874     -377.12567      291.30184      3934.9601      960.18531      0.99696118
   1011000  -329.11856      54.845896     -383.96445      292.05812     -2860.8508      960.18531      0.99696118
   1012000  -315.99725      53.375588     -369.37284      284.22863      361.16679      960.18531      0.99696118
   1013000  -298.88606      60.692004     -359.57806      323.18904      900.66971      960.18531      0.99696118
   1014000  -323.13674      53.636857     -376.7736       285.61991      6072.2157      960.18531      0.99696118
   1015000  -318.13638      56.150052     -374.28643      299.00284      1562.2182      960.18531      0.99696118
   1016000  -310.34894      53.443876     -363.79282      284.59227      2729.0138      960.18531      0.99696118
   1017000  -334.44889      55.289694     -389.73858      294.42137      2141.4098      960.18531      0.99696118
   1018000  -327.67535      54.666848     -382.34219      291.10468      5109.0999      960.18531      0.99696118
   1019000  -295.61321      57.64846      -353.26167      306.98196      1778.3719      960.18531      0.99696118
   1020000  -309.85463      58.723725     -368.57835      312.70782      4249.4464      960.18531      0.99696118
   1021000  -317.63612      59.995712     -377.63183      319.48124     -810.02898      960.18531      0.99696118
   1022000  -312.09492      67.090672     -379.18559      357.26238      61.852219      960.18531      0.99696118
   1023000  -324.66617      55.660137     -380.32631      296.39401      125.76459      960.18531      0.99696118
   1024000  -318.4758       55.19525      -373.67105      293.91846     -55.496835      960.18531      0.99696118
   1025000  -336.13186      51.710406     -387.84226      275.36142      1474.7041      960.18531      0.99696118
   1026000  -305.39839      67.986736     -373.38513      362.03399     -199.14672      960.18531      0.99696118
   1027000  -332.89606      60.229821     -393.12588      320.72789     -2774.6877      960.18531      0.99696118
   1028000  -304.72345      53.017985     -357.74144      282.32437     -2915.7821      960.18531      0.99696118
   1029000  -321.57764      50.184128     -371.76177      267.23389     -1573.8132      960.18531      0.99696118
   1030000  -303.85855      57.563549     -361.4221       306.52981     -1803.3732      960.18531      0.99696118
   1031000  -318.76492      50.949392     -369.71431      271.30897      3350.6896      960.18531      0.99696118
   1032000  -326.31935      51.557875     -377.87722      274.54918     -3949.8316      960.18531      0.99696118
   1033000  -303.98243      59.230519     -363.21295      315.40653     -2120.9072      960.18531      0.99696118
   1034000  -318.13847      60.160044     -378.29852      320.35632      925.04557      960.18531      0.99696118
   1035000  -315.56178      49.305491     -364.86727      262.55509      511.72968      960.18531      0.99696118
   1036000  -317.27713      55.098175     -372.37531      293.40152      393.42817      960.18531      0.99696118
   1037000  -309.35229      52.354965     -361.70726      278.79374      733.31933      960.18531      0.99696118
   1038000  -322.15886      53.213602     -375.37246      283.36604      1220.941       960.18531      0.99696118
   1039000  -318.28648      55.663958     -373.95043      296.41435      2844.2396      960.18531      0.99696118
   1040000  -319.09735      62.209823     -381.30717      331.27153     -194.42857      960.18531      0.99696118
   1041000  -297.71058      59.534972     -357.24555      317.02777     -2130.1847      960.18531      0.99696118
   1042000  -312.11514      55.224156     -367.3393       294.07238      2749.2933      960.18531      0.99696118
   1043000  -310.83769      54.896316     -365.734        292.32661     -1350.4631      960.18531      0.99696118
   1044000  -309.85941      55.697635     -365.55705      296.59369     -2030.848       960.18531      0.99696118
   1045000  -305.96986      61.852397     -367.82226      329.36821      2158.378       960.18531      0.99696118
   1046000  -289.04532      52.526638     -341.57196      279.70791      1320.5373      960.18531      0.99696118
   1047000  -327.10046      52.8314       -379.93186      281.33079      2652.5422      960.18531      0.99696118
   1048000  -313.70283      58.389731     -372.09256      310.92928     -2182.8408      960.18531      0.99696118
   1049000  -306.36715      55.956438     -362.32359      297.97183      1267.4446      960.18531      0.99696118
   1050000  -309.10026      60.877221     -369.97748      324.17533      5404.5367      960.18531      0.99696118
   1051000  -323.92285      52.457939     -376.38079      279.34209     -838.01496      960.18531      0.99696118
   1052000  -333.38544      54.79571      -388.18115      291.79087     -2141.6484      960.18531      0.99696118
   1053000  -325.0491       57.160891     -382.20999      304.38563      593.12797      960.18531      0.99696118
   1054000  -341.50493      53.270499     -394.77543      283.66902     -4406.8919      960.18531      0.99696118
   1055000  -320.85472      59.881836     -380.73655      318.87484     -4347.1532      960.18531      0.99696118
   1056000  -296.01129      67.789212     -363.8005       360.98216      4313.1764      960.18531      0.99696118
   1057000  -301.31784      50.993968     -352.31181      271.54634     -3148.492       960.18531      0.99696118
   1058000  -310.27837      57.134582     -367.41296      304.24553      557.03034      960.18531      0.99696118
   1059000  -308.87568      56.072443     -364.94812      298.58956     -252.59526      960.18531      0.99696118
   1060000  -312.38666      53.354453     -365.74112      284.11609      1869.3372      960.18531      0.99696118
   1061000  -307.44219      56.642083     -364.08427      301.62294      3751.1548      960.18531      0.99696118
   1062000  -321.68959      45.430031     -367.11962      241.918       -381.09212      960.18531      0.99696118
   1063000  -318.13073      52.572118     -370.70284      279.9501       3199.6011      960.18531      0.99696118
   1064000  -328.20006      58.459555     -386.65962      311.3011      -633.20419      960.18531      0.99696118
   1065000  -325.25665      61.382445     -386.63909      326.86568     -3987.1914      960.18531      0.99696118
   1066000  -332.28254      46.515862     -378.7984       247.70012     -250.37356      960.18531      0.99696118
   1067000  -299.2703       60.141744     -359.41204      320.25887     -4067.6741      960.18531      0.99696118
   1068000  -312.93037      59.548684     -372.47905      317.10078      448.65844      960.18531      0.99696118
   1069000  -329.15441      55.833928     -384.98834      297.31946     -1137.413       960.18531      0.99696118
   1070000  -317.04746      66.304379     -383.35184      353.07532     -3759.7055      960.18531      0.99696118
   1071000  -315.22642      59.353785     -374.58021      316.06293     -2859.6417      960.18531      0.99696118
   1072000  -331.39954      42.835044     -374.23458      228.09952      1754.7248      960.18531      0.99696118
   1073000  -308.08421      52.715283     -360.7995       280.71246      1525.9807      960.18531      0.99696118
   1074000  -292.68124      64.953695     -357.63494      345.88284     -1564.3582      960.18531      0.99696118
   1075000  -329.27721      46.773464     -376.05068      249.07187      371.04502      960.18531      0.99696118
   1076000  -302.23142      60.966186     -363.19761      324.64908      1047.2075      960.18531      0.99696118
   1077000  -331.44307      48.912292     -380.35536      260.46128     -307.91846      960.18531      0.99696118
   1078000  -317.28089      54.120197     -371.40109      288.19372      555.23463      960.18531      0.99696118
   1079000  -318.52936      60.687825     -379.21718      323.16679     -1016.9198      960.18531      0.99696118
   1080000  -320.33507      46.021909     -366.35698      245.06979      861.09212      960.18531      0.99696118
   1081000  -314.88633      62.618564     -377.5049       333.4481      -2749.1733      960.18531      0.99696118
   1082000  -308.68654      56.029465     -364.716        298.3607       937.06492      960.18531      0.99696118
   1083000  -312.20842      59.419463     -371.62788      316.41267     -1449.942       960.18531      0.99696118
   1084000  -298.40817      54.895869     -353.30404      292.32423     -286.65321      960.18531      0.99696118
   1085000  -314.8246       62.241217     -377.06582      331.4387       557.35517      960.18531      0.99696118
   1086000  -338.74985      51.819243     -390.56909      275.94099     -671.13727      960.18531      0.99696118
   1087000  -319.97975      61.541718     -381.52147      327.71383      2871.8764      960.18531      0.99696118
   1088000  -319.31603      59.50909      -378.82512      316.88994      1989.8762      960.18531      0.99696118
   1089000  -321.64627      44.552757     -366.19903      237.24645     -108.944        960.18531      0.99696118
   1090000  -325.55404      57.813219     -383.36726      307.85931      472.28005      960.18531      0.99696118
   1091000  -320.6421       52.066571     -372.70867      277.25803      569.69337      960.18531      0.99696118
   1092000  -317.91986      60.293571     -378.21343      321.06736     -2610.4306      960.18531      0.99696118
   1093000  -320.05796      57.030697     -377.08866      303.69233      3642.1829      960.18531      0.99696118
   1094000  -329.56757      56.831988     -386.39956      302.6342      -1498.3436      960.18531      0.99696118
   1095000  -314.19442      62.208201     -376.40262      331.26289      4936.8427      960.18531      0.99696118
   1096000  -322.7919       60.106892     -382.89879      320.07328     -388.81461      960.18531      0.99696118
   1097000  -318.25446      55.80487      -374.05933      297.16472     -644.11587      960.18531      0.99696118
   1098000  -306.8023       58.099041     -364.90134      309.38134      230.94487      960.18531      0.99696118
   1099000  -313.0814       56.295242     -369.37664      299.77599     -2283.5714      960.18531      0.99696118
   1100000  -323.64197      44.292818     -367.93479      235.86226     -719.45493      960.18531      0.99696118
   1101000  -303.62663      54.834627     -358.46126      291.99811      1766.7885      960.18531      0.99696118
   1102000  -302.42651      51.362976     -353.78948      273.51134      796.12877      960.18531      0.99696118
   1103000  -315.24309      51.643803     -366.88689      275.00675      1171.201       960.18531      0.99696118
   1104000  -329.51519      53.738048     -383.25324      286.15875     -2898.1258      960.18531      0.99696118
   1105000  -314.82066      55.018846     -369.83951      292.97909      1017.8737      960.18531      0.99696118
   1106000  -314.18909      61.914153     -376.10324      329.69707      3646.3058      960.18531      0.99696118
   1107000  -309.29679      61.035492     -370.33229      325.01814     -950.21436      960.18531      0.99696118
   1108000  -314.53316      64.697143     -379.23031      344.51668     -777.71199      960.18531      0.99696118
   1109000  -333.04101      53.576586     -386.6176       285.29896      2272.371       960.18531      0.99696118
   1110000  -314.03531      56.525868     -370.56117      301.00408     -254.25358      960.18531      0.99696118
   1111000  -295.54781      63.579662     -359.12747      338.56602     -1631.2623      960.18531      0.99696118
   1112000  -316.03833      53.200524     -369.23885      283.2964      -3270.9601      960.18531      0.99696118
   1113000  -333.15582      52.803017     -385.95883      281.17965      3487.951       960.18531      0.99696118
   1114000  -310.40476      52.828069     -363.23282      281.31306      247.47029      960.18531      0.99696118
   1115000  -305.9827       53.155572     -359.13827      283.05703      2143.4023      960.18531      0.99696118
   1116000  -313.56778      46.625198     -360.19298      248.28234      1017.546       960.18531      0.99696118
   1117000  -307.86655      59.394681     -367.26123      316.28071      6.6565394      960.18531      0.99696118
   1118000  -318.76798      62.057202     -380.82518      330.45881      1836.1863      960.18531      0.99696118
   1119000  -320.88221      52.990042     -373.87225      282.17557      1008.2395      960.18531      0.99696118
   1120000  -318.30892      58.989136     -377.29806      314.12115     -2709.0471      960.18531      0.99696118
   1121000  -334.78109      47.188403     -381.96949      251.28145      2633.9223      960.18531      0.99696118
   1122000  -315.02006      61.780032     -376.80009      328.98287      609.55538      960.18531      0.99696118
   1123000  -307.056        67.843335     -374.89934      361.27037      948.57946      960.18531      0.99696118
   1124000  -319.04759      55.873817     -374.92141      297.53187     -4133.5589      960.18531      0.99696118
   1125000  -316.19623      54.055897     -370.25212      287.85132     -1945.3098      960.18531      0.99696118
   1126000  -331.88382      51.603921     -383.48774      274.79438     -2135.2245      960.18531      0.99696118
   1127000  -315.85118      62.790642     -378.64182      334.36443      2763.1026      960.18531      0.99696118
   1128000  -307.81231      61.22759      -369.0399       326.04108     -2773.631       960.18531      0.99696118
   1129000  -321.82468      61.719152     -383.54384      328.65867     -519.19188      960.18531      0.99696118
   1130000  -327.41355      53.605731     -381.01928      285.45416     -1448.9635      960.18531      0.99696118
   1131000  -308.08446      53.041816     -361.12627      282.45127     -4683.7508      960.18531      0.99696118
   1132000  -317.30366      51.241832     -368.54549      272.86623      3047.8974      960.18531      0.99696118
   1133000  -297.39851      56.95326      -354.35177      303.27998      55.651225      960.18531      0.99696118
   1134000  -320.85444      43.682239     -364.53668      232.61089      103.35916      960.18531      0.99696118
   1135000  -313.84962      56.93777      -370.78739      303.19749      192.72949      960.18531      0.99696118
   1136000  -328.51441      53.067918     -381.58233      282.59026      9.2592943      960.18531      0.99696118
   1137000  -326.75437      55.088333     -381.8427       293.34911     -3844.3208      960.18531      0.99696118
   1138000  -320.00474      57.425299     -377.43003      305.79361      745.48034      960.18531      0.99696118
   1139000  -316.50297      67.486132     -383.9891       359.36824      1968.4845      960.18531      0.99696118
   1140000  -320.94407      61.987126     -382.9312       330.08565      3839.4302      960.18531      0.99696118
   1141000  -335.9134       50.992208     -386.90561      271.53697      729.7379       960.18531      0.99696118
   1142000  -327.28739      47.290031     -374.57742      251.82263      1798.7344      960.18531      0.99696118
   1143000  -318.81279      56.614755     -375.42755      301.47742      2671.8767      960.18531      0.99696118
   1144000  -300.76485      52.450799     -353.21565      279.30406      1449.3798      960.18531      0.99696118
   1145000  -319.24346      55.489139     -374.7326       295.48343      1008.0672      960.18531      0.99696118
   1146000  -316.53085      62.428458     -378.95931      332.43578     -882.21287      960.18531      0.99696118
   1147000  -325.83275      53.557482     -379.39023      285.19722      1113.6621      960.18531      0.99696118
   1148000  -323.74765      48.369468     -372.11712      257.5707       1088.4673      960.18531      0.99696118
   1149000  -317.29045      51.26002      -368.55047      272.96308     -3328.7774      960.18531      0.99696118
   1150000  -325.65758      51.74242      -377.4          275.5319      -3141.0481      960.18531      0.99696118
   1151000  -326.71222      47.022815     -373.73503      250.39968      2924.3168      960.18531      0.99696118
   1152000  -332.47401      54.020129     -386.49414      287.66085      771.78126      960.18531      0.99696118
   1153000  -306.51701      71.37379      -377.8908       380.07028      1097.236       960.18531      0.99696118
   1154000  -300.70101      60.297336     -360.99834      321.08741     -466.12984      960.18531      0.99696118
   1155000  -326.66694      50.972105     -377.63904      271.42992      1666.5033      960.18531      0.99696118
   1156000  -315.86005      65.615953     -381.476        349.40941      4423.2044      960.18531      0.99696118
   1157000  -321.09929      55.246002     -376.34529      294.18871     -3980.5147      960.18531      0.99696118
   1158000  -337.06108      44.956902     -382.01798      239.39855      1951.6739      960.18531      0.99696118
   1159000  -313.76186      49.917181     -363.67904      265.81238     -1400.9397      960.18531      0.99696118
   1160000  -303.86123      69.385457     -373.24669      369.48227     -219.44978      960.18531      0.99696118
   1161000  -305.69632      58.229134     -363.92545      310.07409      271.88443      960.18531      0.99696118
   1162000  -334.20772      49.209159     -383.41688      262.04211      1599.0103      960.18531      0.99696118
   1163000  -332.602        48.756928     -381.35893      259.63395      4393.7082      960.18531      0.99696118
   1164000  -304.19227      59.229134     -363.4214       315.39916     -63.586379      960.18531      0.99696118
   1165000  -317.83085      53.768114     -371.59897      286.31886      1557.4958      960.18531      0.99696118
   1166000  -301.35278      59.983696     -361.33647      319.41726      1704.4689      960.18531      0.99696118
   1167000  -322.59575      53.029046     -375.6248       282.38327      2082.2391      960.18531      0.99696118
   1168000  -317.59528      57.90587      -375.50115      308.35269     -1436.7508      960.18531      0.99696118
   1169000  -307.31701      60.316511     -367.63352      321.18952      2416.7762      960.18531      0.99696118
   1170000  -310.37701      56.782597     -367.1596       302.37118      2477.4183      960.18531      0.99696118
   1171000  -320.23003      55.423727     -375.65376      295.13511     -736.75471      960.18531      0.99696118
   1172000  -310.51367      53.49976      -364.01343      284.88986      1287.6879      960.18531      0.99696118
   1173000  -327.53722      54.141635     -381.67886      288.30788     -287.84116      960.18531      0.99696118
   1174000  -315.40082      66.793353     -382.19417      355.67914     -4208.6066      960.18531      0.99696118
   1175000  -301.24543      61.665969     -362.9114       328.37547     -83.743879      960.18531      0.99696118
   1176000  -319.36677      58.432155     -377.79893      311.15519      2913.8615      960.18531      0.99696118
   1177000  -307.48219      62.580505     -370.06269      333.24544      178.63628      960.18531      0.99696118
   1178000  -310.17282      59.313056     -369.48587      315.84605      4675.0647      960.18531      0.99696118
   1179000  -331.08034      52.38218      -383.46252      278.93867      1506.1416      960.18531      0.99696118
   1180000  -313.20906      54.578451     -367.78752      290.63396      4272.9976      960.18531      0.99696118
   1181000  -318.2398       52.151776     -370.39157      277.71175      1540.3042      960.18531      0.99696118
   1182000  -325.78014      48.477062     -374.2572       258.14365     -3445.5194      960.18531      0.99696118
   1183000  -324.04315      49.446288     -373.48944      263.30484      5465.2605      960.18531      0.99696118
   1184000  -317.50543      55.929724     -373.43516      297.82958     -1284.3694      960.18531      0.99696118
   1185000  -322.76172      46.77415      -369.53587      249.07553     -73.493808      960.18531      0.99696118
   1186000  -314.79883      58.461502     -373.26033      311.31147     -1551.6793      960.18531      0.99696118
   1187000  -323.62435      50.800189     -374.42454      270.51445     -834.45773      960.18531      0.99696118
   1188000  -309.796        61.268065     -371.06407      326.2566      -1482.7249      960.18531      0.99696118
   1189000  -318.78564      56.711903     -375.49754      301.99473      2485.2435      960.18531      0.99696118
   1190000  -311.93868      49.195223     -361.13391      261.9679       590.44987      960.18531      0.99696118
   1191000  -325.40399      53.359265     -378.76326      284.14171     -2407.3506      960.18531      0.99696118
   1192000  -300.31733      45.61686      -345.93418      242.91287      1371.3848      960.18531      0.99696118
   1193000  -300.58058      67.809572     -368.39015      361.09057     -67.39375       960.18531      0.99696118
   1194000  -306.09296      58.431511     -364.52448      311.15176      1767.5847      960.18531      0.99696118
   1195000  -319.89727      57.728908     -377.62617      307.41035     -2451.3659      960.18531      0.99696118
   1196000  -329.7493       53.300584     -383.04988      283.82923     -864.13153      960.18531      0.99696118
   1197000  -309.94352      61.970148     -371.91367      329.99525      1733.2402      960.18531      0.99696118
   1198000  -317.80937      53.58272      -371.39209      285.33162     -3314.1567      960.18531      0.99696118
   1199000  -312.40271      47.605988     -360.0087       253.50512     -2227.3887      960.18531      0.99696118
   1200000  -318.66189      55.951667     -374.61356      297.94642     -2935.9775      960.18531      0.99696118
   1201000  -315.37246      44.432789     -359.80525      236.60762      2920.0438      960.18531      0.99696118
   1202000  -320.85304      60.187775     -381.04082      320.50399     -1978.4865      960.18531      0.99696118
   1203000  -314.91849      50.34668      -365.26517      268.09949     -1019.9146      960.18531      0.99696118
   1204000  -317.12134      61.49829      -378.61963      327.48257     -1442.2754      960.18531      0.99696118
   1205000  -312.40753      61.139962     -373.54749      325.57445     -4512.491       960.18531      0.99696118
   1206000  -314.64202      45.447256     -360.08928      242.00972     -4758.2307      960.18531      0.99696118
   1207000  -319.77064      57.861163     -377.63181      308.11462      2308.1806      960.18531      0.99696118
   1208000  -327.05181      51.717799     -378.76961      275.40079     -5188.2635      960.18531      0.99696118
   1209000  -317.11106      55.594066     -372.70513      296.04218     -2232.4839      960.18531      0.99696118
   1210000  -309.95424      49.020274     -358.97451      261.03629     -4441.1199      960.18531      0.99696118
   1211000  -305.14948      67.476475     -372.62595      359.31681     -14.182436      960.18531      0.99696118
   1212000  -310.39196      58.534809     -368.92677      311.70183     -315.3146       960.18531      0.99696118
   1213000  -312.22032      55.911503     -368.13182      297.73255     -840.97489      960.18531      0.99696118
   1214000  -309.56018      64.323019     -373.8832       342.52444      2700.0476      960.18531      0.99696118
   1215000  -308.96062      59.485636     -368.44626      316.76505      3098.8446      960.18531      0.99696118
   1216000  -330.61405      41.192752     -371.8068       219.3542       586.66213      960.18531      0.99696118
   1217000  -313.85013      61.582623     -375.43275      327.93165      1728.8128      960.18531      0.99696118
   1218000  -307.59145      58.649474     -366.24093      312.31243     -1419.4193      960.18531      0.99696118
   1219000  -323.79123      60.650619     -384.44184      322.96866      996.27484      960.18531      0.99696118
   1220000  -324.3701       48.891959     -373.26206      260.353       -1099.2449      960.18531      0.99696118
   1221000  -313.06881      59.430828     -372.49964      316.47319     -158.51747      960.18531      0.99696118
   1222000  -307.58012      58.500124     -366.08025      311.51713      682.79593      960.18531      0.99696118
   1223000  -322.00723      61.559106     -383.56634      327.80642     -326.48748      960.18531      0.99696118
   1224000  -322.05116      52.548986     -374.60015      279.82692      589.06213      960.18531      0.99696118
   1225000  -312.11349      54.649557     -366.76305      291.0126      -572.45888      960.18531      0.99696118
   1226000  -313.56622      60.032056     -373.59828      319.67477     -4707.771       960.18531      0.99696118
   1227000  -321.13971      44.976669     -366.11638      239.50382      2810.9425      960.18531      0.99696118
   1228000  -325.49586      46.870288     -372.36615      249.58746     -2347.0391      960.18531      0.99696118
   1229000  -310.61433      62.635271     -373.2496       333.53707     -1346.4529      960.18531      0.99696118
   1230000  -326.03016      46.42881      -372.45897      247.23657     -1570.9942      960.18531      0.99696118
   1231000  -311.73458      58.396698     -370.13128      310.96638      2227.2062      960.18531      0.99696118
   1232000  -332.98477      50.199122     -383.18389      267.31373     -2234.3998      960.18531      0.99696118
   1233000  -329.43786      61.199001     -390.63686      325.88883     -2880.8856      960.18531      0.99696118
   1234000  -309.26001      62.928252     -372.18826      335.09721      2238.2193      960.18531      0.99696118
   1235000  -336.41731      47.072108     -383.48941      250.66217     -1343.9461      960.18531      0.99696118
   1236000  -324.68911      50.933181     -375.6223       271.22265     -2177.4881      960.18531      0.99696118
   1237000  -321.64172      57.577015     -379.21874      306.60151      2381.0522      960.18531      0.99696118
   1238000  -339.52371      55.328027     -394.85174      294.6255      -271.138        960.18531      0.99696118
   1239000  -325.22849      61.477728     -386.70622      327.37307     -92.550576      960.18531      0.99696118
   1240000  -325.76646      47.685897     -373.45236      253.93064      2825.5723      960.18531      0.99696118
   1241000  -317.65343      54.844032     -372.49746      292.04819     -1742.0603      960.18531      0.99696118
   1242000  -350.94247      46.96356      -397.90603      250.08415      798.00949      960.18531      0.99696118
   1243000  -321.33202      53.101521     -374.43354      282.7692      -113.00556      960.18531      0.99696118
   1244000  -315.74556      51.70065      -367.44621      275.30947      1628.8485      960.18531      0.99696118
   1245000  -322.69804      52.806812     -375.50485      281.19986     -1492.646       960.18531      0.99696118
   1246000  -303.77742      63.610956     -367.38838      338.73266      1371.9153      960.18531      0.99696118
   1247000  -320.50231      56.479051     -376.98136      300.75478      2398.2182      960.18531      0.99696118
   1248000  -307.87927      57.640585     -365.51986      306.94003     -252.57288      960.18531      0.99696118
   1249000  -324.0118       53.962518     -377.97432      287.35407      266.29662      960.18531      0.99696118
   1250000  -295.13724      63.937161     -359.0744       340.46972      1017.7921      960.18531      0.99696118
   1251000  -322.4304       52.462368     -374.89276      279.36567     -4049.3828      960.18531      0.99696118
   1252000  -312.20701      52.510431     -364.71744      279.62161      496.93604      960.18531      0.99696118
   1253000  -317.97232      61.411498     -379.38381      327.02039     -3234.5621      960.18531      0.99696118
   1254000  -319.37677      53.272014     -372.64878      283.67709     -864.23135      960.18531      0.99696118
   1255000  -333.49601      45.703837     -379.19985      243.37604      390.12269      960.18531      0.99696118
   1256000  -324.18687      48.488986     -372.67586      258.20714      1419.3275      960.18531      0.99696118
   1257000  -306.32199      57.879673     -364.20166      308.21319      2626.6163      960.18531      0.99696118
   1258000  -326.94054      55.711195     -382.65174      296.6659      -806.83712      960.18531      0.99696118
   1259000  -314.2207       59.649919     -373.87062      317.63987      146.00309      960.18531      0.99696118
   1260000  -319.98376      56.432482     -376.41624      300.5068      -1237.4066      960.18531      0.99696118
   1261000  -323.17137      56.720176     -379.89155      302.03879      122.55521      960.18531      0.99696118
   1262000  -315.72534      51.406147     -367.13149      273.74122     -494.04755      960.18531      0.99696118
   1263000  -316.31831      62.325273     -378.64359      331.88631     -425.33051      960.18531      0.99696118
   1264000  -325.21508      59.375268     -384.59035      316.17733     -3719.1085      960.18531      0.99696118
   1265000  -326.44293      55.102993     -381.54592      293.42718     -2790.5718      960.18531      0.99696118
   1266000  -318.56301      61.555346     -380.11836      327.7864       3723.6343      960.18531      0.99696118
   1267000  -314.18265      54.345681     -368.52833      289.39444      2349.5438      960.18531      0.99696118
   1268000  -319.65372      61.123565     -380.77728      325.48713     -518.29317      960.18531      0.99696118
   1269000  -332.26427      57.188053     -389.45232      304.53027     -217.09427      960.18531      0.99696118
   1270000  -324.43056      58.650307     -383.08087      312.31687      357.50092      960.18531      0.99696118
   1271000  -313.13071      59.129418     -372.26013      314.86817      2645.9865      960.18531      0.99696118
   1272000  -305.07983      65.567814     -370.64764      349.15306      1857.2258      960.18531      0.99696118
   1273000  -329.4141       59.176968     -388.59107      315.12137      3400.9731      960.18531      0.99696118
   1274000  -313.88344      59.955353     -373.83879      319.26633      654.59714      960.18531      0.99696118
   1275000  -310.11084      56.589469     -366.7003       301.34276     -2179.7446      960.18531      0.99696118
   1276000  -298.81336      58.950063     -357.76342      313.91309     -3648.4412      960.18531      0.99696118
   1277000  -315.29601      59.814612     -375.11062      318.51687      1099.7632      960.18531      0.99696118
   1278000  -314.66694      55.421746     -370.08869      295.12456     -3647.1861      960.18531      0.99696118
   1279000  -320.39379      51.6408       -372.03459      274.99076     -759.92273      960.18531      0.99696118
   1280000  -318.32255      52.683221     -371.00577      280.54173      2348.1247      960.18531      0.99696118
   1281000  -314.93385      57.577127     -372.51098      306.60211      5058.1507      960.18531      0.99696118
   1282000  -320.5447       54.516268     -375.06097      290.30283     -2447.4634      960.18531      0.99696118
   1283000  -326.19066      55.96339      -382.15405      298.00885     -384.96474      960.18531      0.99696118
   1284000  -306.93778      50.910598     -357.84838      271.10239      3283.5063      960.18531      0.99696118
   1285000  -323.47884      47.902017     -371.38086      255.08149      2572.7843      960.18531      0.99696118
   1286000  -322.42288      53.733772     -376.15665      286.13598     -1039.4636      960.18531      0.99696118
   1287000  -317.73603      54.985331     -372.72136      292.80062      1167.6347      960.18531      0.99696118
   1288000  -313.15319      56.133607     -369.2868       298.91527      877.95666      960.18531      0.99696118
   1289000  -324.91404      56.262355     -381.17639      299.60086     -3860.9086      960.18531      0.99696118
   1290000  -326.18882      62.076495     -388.26532      330.56155      3210.479       960.18531      0.99696118
   1291000  -319.65733      59.66919      -379.32652      317.74248      548.25192      960.18531      0.99696118
   1292000  -301.07844      64.119419     -365.19786      341.44026     -1762.4834      960.18531      0.99696118
   1293000  -308.9161       51.088672     -360.00477      272.05064     -528.40398      960.18531      0.99696118
   1294000  -291.87132      65.255001     -357.12633      347.48731     -1478.8635      960.18531      0.99696118
   1295000  -309.13436      57.846675     -366.98104      308.03747     -534.50244      960.18531      0.99696118
   1296000  -314.26072      56.135646     -370.39637      298.92612     -1221.2493      960.18531      0.99696118
   1297000  -310.7825       61.727275     -372.50977      328.70193     -354.55721      960.18531      0.99696118
   1298000  -312.65754      49.6304       -362.28794      264.28525      5497.4963      960.18531      0.99696118
   1299000  -333.33753      54.773653     -388.11119      291.67342     -1338.0817      960.18531      0.99696118
   1300000  -317.9961       61.381945     -379.37804      326.86302      737.21866      960.18531      0.99696118
   1301000  -325.76441      57.54639      -383.3108       306.43843     -117.80115      960.18531      0.99696118
   1302000  -298.76923      64.293159     -363.06239      342.36544      2144.9107      960.18531      0.99696118
   1303000  -321.7099       43.74486      -365.45476      232.94435     -5739.2421      960.18531      0.99696118
   1304000  -312.3996       52.117377     -364.51698      277.52857     -3854.0342      960.18531      0.99696118
   1305000  -327.47805      58.565881     -386.04393      311.86729     -3422.4853      960.18531      0.99696118
   1306000  -326.34068      48.133782     -374.47447      256.31566     -3688.8423      960.18531      0.99696118
   1307000  -322.55742      58.074046     -380.63147      309.24824     -2628.1187      960.18531      0.99696118
   1308000  -331.84617      64.173275     -396.01945      341.72705      761.91563      960.18531      0.99696118
   1309000  -299.98588      56.888993     -356.87487      302.93775      2198.8435      960.18531      0.99696118
   1310000  -301.85001      64.291588     -366.14159      342.35707     -3451.021       960.18531      0.99696118
   1311000  -337.35378      44.989396     -382.34317      239.57159     -65.569419      960.18531      0.99696118
   1312000  -321.69483      54.028459     -375.72329      287.70521     -84.763119      960.18531      0.99696118
   1313000  -294.18738      73.420545     -367.60792      390.96939      987.61539      960.18531      0.99696118
   1314000  -321.39964      60.263607     -381.66324      320.9078      -1019.4579      960.18531      0.99696118
   1315000  -299.66684      61.985759     -361.6526       330.07837     -2550.4481      960.18531      0.99696118
   1316000  -309.14383      54.850289     -363.99412      292.08151     -1722.5842      960.18531      0.99696118
   1317000  -312.44783      55.26127      -367.7091       294.27001     -2860.4747      960.18531      0.99696118
   1318000  -311.29173      57.927134     -369.21886      308.46592      923.57304      960.18531      0.99696118
   1319000  -314.28572      64.311567     -378.59728      342.46346     -353.53953      960.18531      0.99696118
   1320000  -326.31091      51.10595      -377.41686      272.14265      2094.704       960.18531      0.99696118
   1321000  -298.88664      65.074843     -363.96149      346.52796      128.58065      960.18531      0.99696118
   1322000  -322.33922      54.393493     -376.73272      289.64904      4107.8633      960.18531      0.99696118
   1323000  -304.3695       55.215397     -359.5849       294.02574     -315.29494      960.18531      0.99696118
   1324000  -310.49467      57.526117     -368.02079      306.33048      858.18193      960.18531      0.99696118
   1325000  -331.11005      46.611753     -377.72181      248.21075      338.70705      960.18531      0.99696118
   1326000  -313.1011       61.843331     -374.94443      329.31993     -4180.6711      960.18531      0.99696118
   1327000  -316.23011      60.699921     -376.93003      323.2312       173.75693      960.18531      0.99696118
   1328000  -329.89481      57.582917     -387.47772      306.63294     -100.01719      960.18531      0.99696118
   1329000  -334.72623      57.4084       -392.13463      305.70363      1956.2917      960.18531      0.99696118
   1330000  -323.02161      63.609595     -386.6312       338.72541     -2486.167       960.18531      0.99696118
   1331000  -334.67966      51.522738     -386.2024       274.36208     -1386.9891      960.18531      0.99696118
   1332000  -323.38676      60.684081     -384.07084      323.14685      3769.3473      960.18531      0.99696118
   1333000  -327.23089      51.30668      -378.53757      273.21155     -137.48192      960.18531      0.99696118
   1334000  -303.72692      64.7735       -368.50042      344.92328      2540.4443      960.18531      0.99696118
   1335000  -303.49235      58.081511     -361.57386      309.28799      652.80348      960.18531      0.99696118
   1336000  -309.83511      56.430682     -366.26579      300.49721     -2751.1713      960.18531      0.99696118
   1337000  -321.31955      46.485262     -367.80481      247.53718      306.00465      960.18531      0.99696118
   1338000  -316.37143      48.182632     -364.55407      256.57578     -3084.4133      960.18531      0.99696118
   1339000  -318.04806      50.282315     -368.33037      267.75674     -1802.6458      960.18531      0.99696118
   1340000  -323.90177      49.87341      -373.77518      265.57929     -1403.8265      960.18531      0.99696118
   1341000  -313.1133       62.572183     -375.68548      333.20112      2119.5493      960.18531      0.99696118
   1342000  -329.81235      56.764916     -386.57727      302.27703     -3084.2775      960.18531      0.99696118
   1343000  -323.69254      53.735853     -377.42839      286.14707     -51.174279      960.18531      0.99696118
   1344000  -314.23498      45.915756     -360.15074      244.50452     -409.63738      960.18531      0.99696118
   1345000  -334.09676      46.781712     -380.87847      249.11579      7749.7626      960.18531      0.99696118
   1346000  -314.19266      63.358372     -377.55104      337.38763      4373.0024      960.18531      0.99696118
   1347000  -327.20472      55.405343     -382.61007      295.03721      3125.5172      960.18531      0.99696118
   1348000  -327.86609      53.641882     -381.50797      285.64666      4817.1248      960.18531      0.99696118
   1349000  -332.28752      50.930773     -383.21829      271.20982      2345.0456      960.18531      0.99696118
   1350000  -316.6979       55.515948     -372.21385      295.62619      3266.7064      960.18531      0.99696118
   1351000  -329.14585      45.74184      -374.88769      243.5784      -2116.3939      960.18531      0.99696118
   1352000  -323.16225      55.677708     -378.83996      296.48758      961.00578      960.18531      0.99696118
   1353000  -318.86919      56.524659     -375.39385      300.99765      278.88941      960.18531      0.99696118
   1354000  -310.77472      52.378324     -363.15304      278.91813     -2211.9666      960.18531      0.99696118
   1355000  -321.89917      55.590835     -377.49001      296.02497     -522.94175      960.18531      0.99696118
   1356000  -326.06028      60.791738     -386.85202      323.72013     -1771.2617      960.18531      0.99696118
   1357000  -312.52721      52.390878     -364.91809      278.98498     -77.313016      960.18531      0.99696118
   1358000  -309.34997      61.338099     -370.68807      326.62954      2729.6655      960.18531      0.99696118
   1359000  -291.78219      58.472446     -350.25463      311.36974      3880.9378      960.18531      0.99696118
   1360000  -318.43041      55.672607     -374.10302      296.46041      1061.7297      960.18531      0.99696118
   1361000  -313.29042      64.425739     -377.71616      343.07143      482.58063      960.18531      0.99696118
   1362000  -314.52668      66.348552     -380.87523      353.31054      5424.6204      960.18531      0.99696118
   1363000  -332.93688      59.110888     -392.04777      314.76949     -1995.0118      960.18531      0.99696118
   1364000  -312.19062      64.990106     -377.18073      346.07673      700.0101       960.18531      0.99696118
   1365000  -318.34333      51.350889     -369.69422      273.44697     -1318.5201      960.18531      0.99696118
   1366000  -318.56012      45.823826     -364.38394      244.01499     -152.66327      960.18531      0.99696118
   1367000  -321.14681      48.237014     -369.38383      256.86538      516.38381      960.18531      0.99696118
   1368000  -309.56498      63.360656     -372.92563      337.39979      1079.4221      960.18531      0.99696118
   1369000  -320.8277       47.017631     -367.84533      250.37208      284.11414      960.18531      0.99696118
   1370000  -318.51936      59.342113     -377.86147      316.00078     -313.28955      960.18531      0.99696118
   1371000  -319.71713      45.698542     -365.41567      243.34784     -715.39698      960.18531      0.99696118
   1372000  -310.23417      46.35542      -356.58959      246.84576      596.23086      960.18531      0.99696118
   1373000  -298.84269      63.668556     -362.51124      339.03938     -537.86481      960.18531      0.99696118
   1374000  -315.21587      64.188614     -379.40449      341.80873     -1932.1098      960.18531      0.99696118
   1375000  -310.43566      53.670874     -364.10653      285.80105     -1646.6972      960.18531      0.99696118
   1376000  -311.81964      66.678773     -378.49842      355.06899      414.88817      960.18531      0.99696118
   1377000  -314.88697      61.845138     -376.73211      329.32956      3480.6292      960.18531      0.99696118
   1378000  -325.36736      55.769876     -381.13724      296.97837     -12.664424      960.18531      0.99696118
   1379000  -314.46795      59.091834     -373.55978      314.66803      82.817318      960.18531      0.99696118
   1380000  -310.094        62.249444     -372.34344      331.48252      954.66827      960.18531      0.99696118
   1381000  -319.20748      58.34458      -377.55206      310.68885      3298.8737      960.18531      0.99696118
   1382000  -321.64273      61.956937     -383.59967      329.9249      -707.17865      960.18531      0.99696118
   1383000  -314.87936      58.865678     -373.74503      313.46373      413.37473      960.18531      0.99696118
   1384000  -319.97899      54.963775     -374.94277      292.68583      3047.4769      960.18531      0.99696118
   1385000  -303.26891      55.572188     -358.84109      295.92567     -1177.5939      960.18531      0.99696118
   1386000  -307.90341      49.926678     -357.83009      265.86295     -3352.244       960.18531      0.99696118
   1387000  -334.90445      47.746403     -382.65085      254.25284     -1914.9553      960.18531      0.99696118
   1388000  -308.72979      55.399414     -364.12921      295.00564      1641.7976      960.18531      0.99696118
   1389000  -303.10991      54.355575     -357.46549      289.44713     -1525.4076      960.18531      0.99696118
   1390000  -300.45956      71.889113     -372.34867      382.81441      782.83136      960.18531      0.99696118
   1391000  -306.69961      57.196191     -363.8958       304.5736       730.87612      960.18531      0.99696118
   1392000  -324.78489      49.268116     -374.053        262.35606      4256.833       960.18531      0.99696118
   1393000  -323.13233      69.541035     -392.67337      370.31073     -2308.8387      960.18531      0.99696118
   1394000  -305.19448      65.448881     -370.64336      348.51974     -3679.6651      960.18531      0.99696118
   1395000  -324.45433      47.584102     -372.03843      253.38857      2516.1702      960.18531      0.99696118
   1396000  -326.39079      56.140019     -382.53081      298.94941     -1138.7204      960.18531      0.99696118
   1397000  -316.25796      62.819264     -379.07722      334.51685     -485.21194      960.18531      0.99696118
   1398000  -335.7802       51.030059     -386.81026      271.73853     -1585.5308      960.18531      0.99696118
   1399000  -321.88042      47.032472     -368.91289      250.4511       1283.0396      960.18531      0.99696118
   1400000  -329.85514      61.869315     -391.72446      329.4583      -3598.9217      960.18531      0.99696118
   1401000  -325.81405      51.890003     -377.70405      276.31779      1618.4675      960.18531      0.99696118
   1402000  -315.2055       68.470388     -383.67588      364.60947      2360.6384      960.18531      0.99696118
   1403000  -318.10095      59.064684     -377.16564      314.52345      1916.6147      960.18531      0.99696118
   1404000  -320.70324      54.524852     -375.22809      290.34854     -1349.5926      960.18531      0.99696118
   1405000  -323.48686      57.136784     -380.62364      304.25725     -49.674259      960.18531      0.99696118
   1406000  -326.18128      47.296098     -373.47738      251.85493     -4127.8227      960.18531      0.99696118
   1407000  -309.15293      63.767485     -372.92042      339.56618      1543.53        960.18531      0.99696118
   1408000  -312.50277      57.763368     -370.26614      307.59386     -4268.5199      960.18531      0.99696118
   1409000  -312.28525      55.430598     -367.71585      295.1717      -334.92785      960.18531      0.99696118
   1410000  -326.64245      51.359933     -378.00238      273.49513     -3104.3159      960.18531      0.99696118
   1411000  -319.15199      60.706382     -379.85837      323.26561      186.24271      960.18531      0.99696118
   1412000  -324.8077       47.812897     -372.6206       254.60692     -843.98395      960.18531      0.99696118
   1413000  -325.43003      44.987132     -370.41716      239.55953      4720.5085      960.18531      0.99696118
   1414000  -315.64163      55.256384     -370.89801      294.244       -1362.1899      960.18531      0.99696118
   1415000  -316.88253      55.818133     -372.70066      297.23535      2861.9722      960.18531      0.99696118
   1416000  -305.34538      47.613728     -352.95911      253.54633      151.64291      960.18531      0.99696118
   1417000  -301.71572      53.742655     -355.45837      286.18329      41.216435      960.18531      0.99696118
   1418000  -304.48358      59.747316     -364.23089      318.15851     -1470.7814      960.18531      0.99696118
   1419000  -315.32962      52.350499     -367.68012      278.76996      3815.3695      960.18531      0.99696118
   1420000  -323.6316       55.355644     -378.98725      294.77256      123.958        960.18531      0.99696118
   1421000  -309.84935      57.196194     -367.04555      304.57362      3028.9231      960.18531      0.99696118
   1422000  -314.09236      63.441589     -377.53395      337.83077      1002.8458      960.18531      0.99696118
   1423000  -313.91509      58.640528     -372.55562      312.26479      2978.7446      960.18531      0.99696118
   1424000  -298.20317      66.902805     -365.10598      356.26198      775.06558      960.18531      0.99696118
   1425000  -322.75544      52.07469      -374.83013      277.30126      5786.5318      960.18531      0.99696118
   1426000  -317.14168      59.19268      -376.33436      315.20504     -691.39077      960.18531      0.99696118
   1427000  -300.57433      65.921465     -366.4958       351.03628      3893.7657      960.18531      0.99696118
   1428000  -302.17063      73.210611     -375.38124      389.85147      781.34228      960.18531      0.99696118
   1429000  -321.76637      58.641218     -380.40759      312.26847      4021.1442      960.18531      0.99696118
   1430000  -306.9984       64.035311     -371.03371      340.99238      4586.6234      960.18531      0.99696118
   1431000  -325.78506      50.476378     -376.26143      268.79014     -330.80211      960.18531      0.99696118
   1432000  -325.7619       62.969616     -388.73151      335.31748      946.65642      960.18531      0.99696118
   1433000  -325.54119      49.114159     -374.65535      261.53623     -559.46515      960.18531      0.99696118
   1434000  -339.76372      47.191003     -386.95473      251.2953      -3833.5605      960.18531      0.99696118
   1435000  -322.37386      60.103523     -382.47738      320.05534     -872.17471      960.18531      0.99696118
   1436000  -302.26965      51.621216     -353.89087      274.88648     -1135.6064      960.18531      0.99696118
   1437000  -311.06506      57.952107     -369.01717      308.59891      825.96184      960.18531      0.99696118
   1438000  -326.83209      58.186225     -385.01831      309.8456       2763.6079      960.18531      0.99696118
   1439000  -310.51012      62.394411     -372.90453      332.25447     -45.286377      960.18531      0.99696118
   1440000  -317.99596      55.590606     -373.58657      296.02375     -2583.5005      960.18531      0.99696118
   1441000  -303.41771      62.361019     -365.77873      332.07666     -3474.69        960.18531      0.99696118
   1442000  -298.23384      61.130341     -359.36418      325.52321     -2091.3555      960.18531      0.99696118
   1443000  -310.43686      57.126979     -367.56384      304.20504     -764.5057       960.18531      0.99696118
   1444000  -316.42785      56.205318     -372.63317      299.29713     -1028.5124      960.18531      0.99696118
   1445000  -319.34497      53.653306     -372.99828      285.7075       814.98648      960.18531      0.99696118
   1446000  -321.39436      53.5927       -374.98706      285.38476     -3153.3599      960.18531      0.99696118
   1447000  -327.01201      54.556092     -381.5681       290.51489      3355.0388      960.18531      0.99696118
   1448000  -307.48053      56.795616     -364.27615      302.44051      401.94885      960.18531      0.99696118
   1449000  -319.34975      54.510798     -373.86055      290.2737       825.57992      960.18531      0.99696118
   1450000  -321.44373      54.292747     -375.73648      289.11256     -230.2683       960.18531      0.99696118
   1451000  -327.20198      55.52392      -382.7259       295.66865     -380.73572      960.18531      0.99696118
   1452000  -325.20045      46.738048     -371.9385       248.88328      1507.6214      960.18531      0.99696118
   1453000  -317.52855      55.54393      -373.07248      295.7752      -1506.8256      960.18531      0.99696118
   1454000  -318.01621      53.059587     -371.07579      282.5459      -3827.1768      960.18531      0.99696118
   1455000  -320.41119      60.317065     -380.72825      321.19247      1123.5732      960.18531      0.99696118
   1456000  -304.33003      67.917343     -372.24738      361.66446      2531.4272      960.18531      0.99696118
   1457000  -334.568        54.045126     -388.61313      287.79396     -715.1336       960.18531      0.99696118
   1458000  -321.89222      62.072864     -383.96509      330.54221     -2780.8031      960.18531      0.99696118
   1459000  -330.64667      55.692122     -386.3388       296.56433     -306.18599      960.18531      0.99696118
   1460000  -298.35343      64.089288     -362.44272      341.27981     -1462.7158      960.18531      0.99696118
   1461000  -304.07268      57.844282     -361.91696      308.02473      1749.2782      960.18531      0.99696118
   1462000  -332.66916      52.871152     -385.54031      281.54248      823.90689      960.18531      0.99696118
   1463000  -312.58454      53.712038     -366.29658      286.02025     -4630.6265      960.18531      0.99696118
   1464000  -336.19361      44.052251     -380.24587      234.58123      1065.6345      960.18531      0.99696118
   1465000  -305.18572      65.13021      -370.31594      346.82279     -3185.3522      960.18531      0.99696118
   1466000  -296.39943      71.37551      -367.77494      380.07943      444.492        960.18531      0.99696118
   1467000  -326.92731      56.743277     -383.67058      302.1618      -1729.5186      960.18531      0.99696118
   1468000  -303.14053      55.141517     -358.28204      293.63232      2379.7998      960.18531      0.99696118
   1469000  -307.26758      63.118739     -370.38632      336.11157     -1077.5065      960.18531      0.99696118
   1470000  -319.65318      54.553169     -374.20634      290.49933      2714.6157      960.18531      0.99696118
   1471000  -308.10603      56.65233      -364.75836      301.6775       2914.7507      960.18531      0.99696118
   1472000  -304.58515      65.104761     -369.68992      346.68727      1783.1905      960.18531      0.99696118
   1473000  -329.49155      47.399693     -376.89124      252.40658      1064.1961      960.18531      0.99696118
   1474000  -323.74546      57.972002     -381.71747      308.70485      1990.9074      960.18531      0.99696118
   1475000  -333.8943       50.509431     -384.40373      268.96615     -362.93786      960.18531      0.99696118
   1476000  -311.30654      57.796221     -369.10276      307.7688      -5272.0095      960.18531      0.99696118
   1477000  -328.15954      49.904317     -378.06385      265.74388     -3341.5507      960.18531      0.99696118
   1478000  -319.90567      54.545005     -374.45068      290.45585      442.27389      960.18531      0.99696118
   1479000  -308.42767      60.344763     -368.77243      321.33996     -273.89355      960.18531      0.99696118
   1480000  -320.06661      52.730696     -372.79731      280.79454      7343.1838      960.18531      0.99696118
   1481000  -317.86862      53.108176     -370.97679      282.80464     -2402.6066      960.18531      0.99696118
   1482000  -304.41112      48.553331     -352.96445      258.54978      743.03324      960.18531      0.99696118
   1483000  -314.17114      57.986489     -372.15763      308.78199     -1576.8243      960.18531      0.99696118
   1484000  -312.4147       59.146792     -371.56149      314.96068     -1390.3527      960.18531      0.99696118
   1485000  -304.84064      64.056588     -368.89723      341.10568      1701.0809      960.18531      0.99696118
   1486000  -301.33445      53.020138     -354.35459      282.33583      2749.6427      960.18531      0.99696118
   1487000  -301.87313      60.57154      -362.44467      322.54756      4483.3528      960.18531      0.99696118
   1488000  -317.38248      54.740052     -372.12254      291.49449     -1905.1503      960.18531      0.99696118
   1489000  -309.55234      52.849006     -362.40134      281.42454      4258.0498      960.18531      0.99696118
   1490000  -306.26269      61.963692     -368.22638      329.96087     -2196.0145      960.18531      0.99696118
   1491000  -312.1464       52.072526     -364.21893      277.28974     -1240.5188      960.18531      0.99696118
   1492000  -318.68379      44.793293     -363.47708      238.52733      760.58992      960.18531      0.99696118
   1493000  -304.86203      66.240821     -371.10286      352.73687     -528.29804      960.18531      0.99696118
   1494000  -322.06353      45.666065     -367.72959      243.17489      1033.1448      960.18531      0.99696118
   1495000  -308.04198      65.829322     -373.8713       350.54561      1542.5889      960.18531      0.99696118
   1496000  -313.90639      58.738091     -372.64448      312.78432     -3921.3169      960.18531      0.99696118
   1497000  -314.71262      52.358055     -367.07067      278.8102       878.31117      960.18531      0.99696118
   1498000  -306.6042       51.261872     -357.86607      272.97295     -2896.7682      960.18531      0.99696118
   1499000  -327.93777      58.481853     -386.41962      311.41984     -229.55447      960.18531      0.99696118
   1500000  -282.65363      75.824371     -358.478        403.76992     -1683.2357      960.18531      0.99696118
   1501000  -308.13476      54.703781     -362.83854      291.30135      742.01076      960.18531      0.99696118
   1502000  -308.34772      52.685644     -361.03337      280.55463     -187.47797      960.18531      0.99696118
   1503000  -324.37549      48.289675     -372.66516      257.1458       5226.1943      960.18531      0.99696118
   1504000  -312.34755      55.176604     -367.52415      293.81916     -1092.2603      960.18531      0.99696118
   1505000  -313.31375      63.351727     -376.66547      337.35225     -747.29231      960.18531      0.99696118
   1506000  -318.18159      55.293798     -373.47539      294.44323     -2183.4305      960.18531      0.99696118
   1507000  -320.066        59.603832     -379.66983      317.39445     -586.13002      960.18531      0.99696118
   1508000  -302.45188      63.507225     -365.95911      338.18028      1818.1861      960.18531      0.99696118
   1509000  -318.04283      58.111456     -376.15429      309.44745     -653.1323       960.18531      0.99696118
   1510000  -304.34033      55.436457     -359.77679      295.2029       170.6663       960.18531      0.99696118
   1511000  -322.42771      52.11359      -374.5413       277.5084      -852.60645      960.18531      0.99696118
   1512000  -315.52701      59.559388     -375.0864       317.15779      250.56735      960.18531      0.99696118
   1513000  -313.98771      60.540282     -374.528        322.38111      489.64898      960.18531      0.99696118
   1514000  -324.55385      46.201296     -370.75514      246.02504      2455.2816      960.18531      0.99696118
   1515000  -312.46041      52.378599     -364.83901      278.91959     -3191.9397      960.18531      0.99696118
   1516000  -299.76748      62.591802     -362.35928      333.3056       4280.798       960.18531      0.99696118
   1517000  -316.77257      72.275627     -389.0482       384.87262     -996.82308      960.18531      0.99696118
   1518000  -337.29102      49.142937     -386.43395      261.68948      1895.2837      960.18531      0.99696118
   1519000  -341.27143      59.711523     -400.98296      317.96791      1841.9924      960.18531      0.99696118
   1520000  -329.74621      62.414245     -392.16045      332.36009     -383.8905       960.18531      0.99696118
   1521000  -325.19091      62.212506     -387.40342      331.28582      4103.4907      960.18531      0.99696118
   1522000  -323.59969      67.728366     -391.32806      360.65815      3254.337       960.18531      0.99696118
   1523000  -319.54222      60.499357     -380.04157      322.16318     -2100.2001      960.18531      0.99696118
   1524000  -307.21489      53.835736     -361.05063      286.67895      2196.5002      960.18531      0.99696118
   1525000  -323.05557      53.988389     -377.04396      287.49184     -466.79226      960.18531      0.99696118
   1526000  -300.59562      47.425323     -348.02094      252.54306      1630.4687      960.18531      0.99696118
   1527000  -319.24269      52.157019     -371.39971      277.73967      1857.9932      960.18531      0.99696118
   1528000  -337.21413      45.460103     -382.67423      242.07813      224.76671      960.18531      0.99696118
   1529000  -321.29326      55.255989     -376.54925      294.24189      2536.9773      960.18531      0.99696118
   1530000  -328.19735      61.158147     -389.3555       325.67128     -2870.3501      960.18531      0.99696118
   1531000  -309.09069      58.891822     -367.98251      313.60295      1008.7209      960.18531      0.99696118
   1532000  -330.54581      48.859263     -379.40508      260.17889     -4485.5736      960.18531      0.99696118
   1533000  -306.61101      63.13879      -369.7498       336.21835      566.33967      960.18531      0.99696118
   1534000  -316.57686      55.522778     -372.09963      295.66256     -773.31069      960.18531      0.99696118
   1535000  -314.10578      64.615817     -378.72159      344.08361      4303.5676      960.18531      0.99696118
   1536000  -305.65308      65.211759     -370.86484      347.25704      869.1912       960.18531      0.99696118
   1537000  -308.31267      63.405032     -371.71771      337.6361       3235.1556      960.18531      0.99696118
   1538000  -305.70093      55.049403     -360.75033      293.14181     -965.42546      960.18531      0.99696118
   1539000  -314.10666      58.234444     -372.3411       310.10237      188.63528      960.18531      0.99696118
   1540000  -321.67197      58.017258     -379.68923      308.94584     -2251.2687      960.18531      0.99696118
   1541000  -343.84428      50.541806     -394.38609      269.13855     -1218.9824      960.18531      0.99696118
   1542000  -332.40993      62.032479     -394.44241      330.32716     -974.09352      960.18531      0.99696118
   1543000  -336.39621      47.346914     -383.74313      252.12553      3200.8502      960.18531      0.99696118
   1544000  -333.75389      53.592197     -387.34609      285.38209      396.26399      960.18531      0.99696118
   1545000  -336.2575       55.693526     -391.95102      296.57181      1069.8328      960.18531      0.99696118
   1546000  -323.25562      56.834053     -380.08968      302.64519     -261.57333      960.18531      0.99696118
   1547000  -324.74367      49.783671     -374.52734      265.10143     -1418.4921      960.18531      0.99696118
   1548000  -328.6293       58.065265     -386.69457      309.20148     -477.01126      960.18531      0.99696118
   1549000  -345.16134      51.463517     -396.62486      274.04672     -698.34148      960.18531      0.99696118
   1550000  -340.93345      46.116866     -387.05032      245.57544     -1360.4054      960.18531      0.99696118
   1551000  -316.02928      50.5092       -366.53848      268.96492      1672.8507      960.18531      0.99696118
   1552000  -313.34208      48.86235      -362.20443      260.19533      205.79654      960.18531      0.99696118
   1553000  -328.85409      62.464584     -391.31867      332.62815     -3046.9024      960.18531      0.99696118
   1554000  -309.57086      64.610706     -374.18157      344.0564      -3426.1809      960.18531      0.99696118
   1555000  -335.67757      55.947253     -391.62483      297.92292     -1933.2363      960.18531      0.99696118
   1556000  -321.77886      50.989253     -372.76811      271.52123     -3201.6952      960.18531      0.99696118
   1557000  -328.28552      55.390457     -383.67598      294.95794     -2706.8626      960.18531      0.99696118
   1558000  -326.27253      48.388662     -374.66119      257.67291      1222.3467      960.18531      0.99696118
   1559000  -341.3863       47.24689      -388.63319      251.5929       555.16649      960.18531      0.99696118
   1560000  -329.40837      50.380248     -379.78862      268.27824     -497.38665      960.18531      0.99696118
   1561000  -308.17732      52.656493     -360.83381      280.3994      -2449.0382      960.18531      0.99696118
   1562000  -319.89508      59.610292     -379.50537      317.42885     -74.982038      960.18531      0.99696118
   1563000  -319.98601      61.897214     -381.88322      329.60687     -2399.0392      960.18531      0.99696118
   1564000  -329.62057      49.89863      -379.5192       265.71359      68.608419      960.18531      0.99696118
   1565000  -304.38006      59.82977      -364.20983      318.59759      373.08676      960.18531      0.99696118
   1566000  -310.47647      44.787893     -355.26436      238.49857      3876.9052      960.18531      0.99696118
   1567000  -314.25432      41.905052     -356.15937      223.14725     -15.819166      960.18531      0.99696118
   1568000  -309.92141      51.912174     -361.83359      276.43585     -61.040011      960.18531      0.99696118
   1569000  -306.28566      55.52087      -361.80653      295.6524       1242.1481      960.18531      0.99696118
   1570000  -328.50425      49.687217     -378.19146      264.5878       1148.0604      960.18531      0.99696118
   1571000  -312.29462      61.021837     -373.31646      324.94543     -426.95711      960.18531      0.99696118
   1572000  -333.7356       53.689454     -387.42506      285.89999      1930.5312      960.18531      0.99696118
   1573000  -312.14279      44.084977     -356.22776      234.75549     -1857.9559      960.18531      0.99696118
   1574000  -312.71151      56.588129     -369.29964      301.33563     -756.65421      960.18531      0.99696118
   1575000  -325.96377      52.117236     -378.08101      277.52782      180.12859      960.18531      0.99696118
   1576000  -328.58917      50.547881     -379.13705      269.1709      -446.39814      960.18531      0.99696118
   1577000  -303.53353      64.863863     -368.39739      345.40448     -2451.9329      960.18531      0.99696118
   1578000  -320.72715      60.328408     -381.05555      321.25287     -2644.0228      960.18531      0.99696118
   1579000  -306.79679      55.706197     -362.50299      296.63928     -550.42778      960.18531      0.99696118
   1580000  -333.03929      47.527432     -380.56672      253.0868      -3335.43        960.18531      0.99696118
   1581000  -330.08328      51.234761     -381.31804      272.82858      1051.88        960.18531      0.99696118
   1582000  -315.03998      50.112784     -365.15276      266.85397      2016.072       960.18531      0.99696118
   1583000  -303.28723      55.39394      -358.68117      294.97649      1696.9703      960.18531      0.99696118
   1584000  -304.42445      62.624856     -367.04931      333.48161      594.00574      960.18531      0.99696118
   1585000  -312.77545      52.67181      -365.44726      280.48096     -2517.3176      960.18531      0.99696118
   1586000  -304.41735      62.463977     -366.88132      332.62492      2426.635       960.18531      0.99696118
   1587000  -321.20839      55.602876     -376.81127      296.08909      455.94811      960.18531      0.99696118
   1588000  -312.13415      63.68634      -375.82049      339.13408     -2666.1983      960.18531      0.99696118
   1589000  -311.07568      66.90189      -377.97757      356.25711     -340.70679      960.18531      0.99696118
   1590000  -310.31546      61.298245     -371.61371      326.41731     -1564.9555      960.18531      0.99696118
   1591000  -316.18933      60.775893     -376.96522      323.63575     -307.34677      960.18531      0.99696118
   1592000  -342.36996      42.87018      -385.24014      228.28662     -4529.3649      960.18531      0.99696118
   1593000  -331.62317      58.038577     -389.66175      309.05936     -215.26712      960.18531      0.99696118
   1594000  -298.81656      58.997634     -357.81419      314.16641     -1588.8988      960.18531      0.99696118
   1595000  -314.74579      60.068071     -374.81386      319.86656     -2492.1265      960.18531      0.99696118
   1596000  -318.38845      58.737219     -377.12567      312.77968      2131.7948      960.18531      0.99696118
   1597000  -298.25493      69.691691     -367.94662      371.11298      4608.9549      960.18531      0.99696118
   1598000  -298.14553      55.48109      -353.62662      295.44057     -2025.7299      960.18531      0.99696118
   1599000  -315.36993      56.573183     -371.94311      301.25604      5027.4213      960.18531      0.99696118
   1600000  -320.8091       49.786172     -370.59527      265.11475     -1362.2163      960.18531      0.99696118
   1601000  -322.84946      52.546172     -375.39563      279.81193     -676.06936      960.18531      0.99696118
   1602000  -309.12788      54.554245     -363.68212      290.50506      1923.4856      960.18531      0.99696118
   1603000  -315.96878      59.940034     -375.90881      319.18475      1968.6338      960.18531      0.99696118
   1604000  -322.45141      52.131544     -374.58296      277.60401     -2831.3578      960.18531      0.99696118
   1605000  -327.87546      58.911795     -386.78726      313.70931     -406.48001      960.18531      0.99696118
   1606000  -318.55874      62.206401     -380.76514      331.25331      232.43184      960.18531      0.99696118
   1607000  -325.6587       52.007705     -377.66641      276.94456      622.35511      960.18531      0.99696118
   1608000  -315.79971      58.665311     -374.46503      312.39676      3147.7077      960.18531      0.99696118
   1609000  -306.26123      58.632459     -364.89369      312.22182      2637.5203      960.18531      0.99696118
   1610000  -304.08309      62.664166     -366.74726      333.69094     -2176.8692      960.18531      0.99696118
   1611000  -305.50488      56.357359     -361.86224      300.10676     -1908.3816      960.18531      0.99696118
   1612000  -297.98608      62.528868     -360.51494      332.97047     -3989.277       960.18531      0.99696118
   1613000  -319.91651      56.081438     -375.99794      298.63747     -1627.4586      960.18531      0.99696118
   1614000  -315.186        55.658822     -370.84482      296.38701      51.594142      960.18531      0.99696118
   1615000  -299.8868       62.28887      -362.17567      331.69246      815.17277      960.18531      0.99696118
   1616000  -315.30459      52.002715     -367.30731      276.91799     -1997.0029      960.18531      0.99696118
   1617000  -327.5533       50.443209     -377.99651      268.61351     -474.09046      960.18531      0.99696118
   1618000  -302.68476      58.672608     -361.35736      312.43562      1188.4494      960.18531      0.99696118
   1619000  -303.98958      61.131105     -365.12068      325.52729      1005.5889      960.18531      0.99696118
   1620000  -298.36703      59.479991     -357.84702      316.73499     -350.08128      960.18531      0.99696118
   1621000  -314.54357      62.110691     -376.65427      330.74365     -2138.4809      960.18531      0.99696118
   1622000  -306.63761      57.971738     -364.60935      308.70344      2058.7981      960.18531      0.99696118
   1623000  -327.59938      45.249595     -372.84897      240.95716     -2429.0182      960.18531      0.99696118
   1624000  -312.67291      65.035957     -377.70887      346.32089      2473.4316      960.18531      0.99696118
   1625000  -319.78265      58.584073     -378.36673      311.96417      1277.6731      960.18531      0.99696118
   1626000  -306.37867      73.623741     -380.00241      392.05142     -1607.5722      960.18531      0.99696118
   1627000  -305.40383      63.593929     -368.99776      338.64199     -358.24717      960.18531      0.99696118
   1628000  -323.17492      52.25873      -375.43366      278.28129     -4016.2699      960.18531      0.99696118
   1629000  -324.74946      54.548929     -379.29839      290.47675      3090.5443      960.18531      0.99696118
   1630000  -314.82975      53.910607     -368.74036      287.07764      1227.3067      960.18531      0.99696118
   1631000  -324.29648      49.753152     -374.04963      264.93891      772.87101      960.18531      0.99696118
   1632000  -316.81061      62.99845      -379.80906      335.47102      209.44124      960.18531      0.99696118
   1633000  -332.80296      54.27349      -387.07645      289.01002      2619.9145      960.18531      0.99696118
   1634000  -329.04614      57.462138     -386.50828      305.98979      87.252993      960.18531      0.99696118
   1635000  -317.8033       54.60738      -372.41068      290.788        2209.1531      960.18531      0.99696118
   1636000  -298.83521      64.185988     -363.0212       341.79474      2645.7177      960.18531      0.99696118
   1637000  -315.26871      67.864081     -383.13279      361.38084     -427.28491      960.18531      0.99696118
   1638000  -326.96951      50.31657      -377.28608      267.93915     -3223.0654      960.18531      0.99696118
   1639000  -328.52185      52.414242     -380.93609      279.1094      -1002.1937      960.18531      0.99696118
   1640000  -320.2878       52.954549     -373.24235      281.98657      1088.8389      960.18531      0.99696118
   1641000  -337.50053      49.127496     -386.62802      261.60725     -4514.5531      960.18531      0.99696118
   1642000  -324.78782      54.927535     -379.71535      292.49285     -2264.9593      960.18531      0.99696118
   1643000  -320.22828      57.357961     -377.58624      305.43504      1601.2907      960.18531      0.99696118
   1644000  -322.52455      53.489315     -376.01387      284.83424     -2883.673       960.18531      0.99696118
   1645000  -300.23317      61.224957     -361.45813      326.02705      553.86169      960.18531      0.99696118
   1646000  -299.31828      53.426292     -352.74458      284.49863     -2867.8641      960.18531      0.99696118
   1647000  -312.92037      48.85505      -361.77542      260.15646     -2195.3262      960.18531      0.99696118
   1648000  -309.90766      53.83253      -363.74019      286.66188      110.00792      960.18531      0.99696118
   1649000  -335.73217      44.44085      -380.17302      236.65054     -1870.1036      960.18531      0.99696118
   1650000  -322.94476      52.146446     -375.09121      277.68336     -3490.5083      960.18531      0.99696118
   1651000  -320.70214      62.491618     -383.19376      332.77211     -2223.9205      960.18531      0.99696118
   1652000  -313.41995      50.19105      -363.611        267.27075     -225.29211      960.18531      0.99696118
   1653000  -314.24916      55.081118     -369.33028      293.31069     -340.5816       960.18531      0.99696118
   1654000  -329.15519      41.071255     -370.22644      218.70722      3071.3434      960.18531      0.99696118
   1655000  -316.32884      47.878248     -364.20709      254.95492     -3261.2944      960.18531      0.99696118
   1656000  -315.1274       63.00909      -378.13649      335.52768     -1261.56        960.18531      0.99696118
   1657000  -297.74721      66.582218     -364.32943      354.55483      5064.0508      960.18531      0.99696118
   1658000  -315.35787      54.009117     -369.36699      287.60222     -1251.4442      960.18531      0.99696118
   1659000  -314.68447      55.594659     -370.27913      296.04534     -2432.5713      960.18531      0.99696118
   1660000  -321.87549      51.002386     -372.87788      271.59117     -1235.7459      960.18531      0.99696118
   1661000  -319.27052      46.899937     -366.17046      249.74535     -1402.6754      960.18531      0.99696118
   1662000  -314.48101      56.824912     -371.30592      302.59652      525.88841      960.18531      0.99696118
   1663000  -317.97399      55.218788     -373.19277      294.0438      -3368.1946      960.18531      0.99696118
   1664000  -320.38963      58.528717     -378.91835      311.66939     -2305.6436      960.18531      0.99696118
   1665000  -323.19134      49.633613     -372.82495      264.30236     -1355.7208      960.18531      0.99696118
   1666000  -312.72107      64.432245     -377.15331      343.10608      1043.6287      960.18531      0.99696118
   1667000  -293.34812      63.256253     -356.60438      336.84384     -1542.9467      960.18531      0.99696118
   1668000  -320.42252      58.283061     -378.70558      310.36126     -539.23765      960.18531      0.99696118
   1669000  -322.11451      51.975838     -374.09035      276.77487      3351.3817      960.18531      0.99696118
   1670000  -306.76662      65.199886     -371.96651      347.19382     -505.9599       960.18531      0.99696118
   1671000  -294.42288      67.020156     -361.44303      356.88688      3158.2798      960.18531      0.99696118
   1672000  -322.63249      53.594355     -376.22685      285.39358     -1796.8636      960.18531      0.99696118
   1673000  -319.69516      69.241292     -388.93645      368.71458      1123.8681      960.18531      0.99696118
   1674000  -312.53722      59.626884     -372.16411      317.51721      2018.0953      960.18531      0.99696118
   1675000  -317.07614      50.199519     -367.27566      267.31585      546.26629      960.18531      0.99696118
   1676000  -329.9858       52.506737     -382.49253      279.60194     -569.12968      960.18531      0.99696118
   1677000  -317.53451      51.85178      -369.38629      276.11425     -1055.862       960.18531      0.99696118
   1678000  -310.99205      54.795615     -365.78767      291.79037     -506.82049      960.18531      0.99696118
   1679000  -312.42604      59.298582     -371.72462      315.76897     -3674.4518      960.18531      0.99696118
   1680000  -316.30555      48.912707     -365.21826      260.46349     -1481.6706      960.18531      0.99696118
   1681000  -318.7161       60.800609     -379.51671      323.76737      2140.7919      960.18531      0.99696118
   1682000  -310.7557       54.784925     -365.54063      291.73344      536.18751      960.18531      0.99696118
   1683000  -304.73221      63.298887     -368.0311       337.07087      1914.5491      960.18531      0.99696118
   1684000  -319.98207      57.721599     -377.70366      307.37143      5289.3249      960.18531      0.99696118
   1685000  -308.19279      56.879169     -365.07196      302.88544     -1506.4259      960.18531      0.99696118
   1686000  -292.48264      67.122609     -359.60525      357.43245      1495.9317      960.18531      0.99696118
   1687000  -296.48581      61.260018     -357.74582      326.21376     -1840.0151      960.18531      0.99696118
   1688000  -305.36713      64.646848     -370.01398      344.24885      2229.2289      960.18531      0.99696118
   1689000  -318.65078      54.331029     -372.98181      289.31642      458.64954      960.18531      0.99696118
   1690000  -318.14605      55.682578     -373.82862      296.51351     -1987.902       960.18531      0.99696118
   1691000  -302.68458      57.57497      -360.25955      306.59063      4784.3964      960.18531      0.99696118
   1692000  -317.343        58.123371     -375.46637      309.51089      3076.4049      960.18531      0.99696118
   1693000  -306.38861      64.952395     -371.341        345.87591      2094.9061      960.18531      0.99696118
   1694000  -317.43473      57.97487      -375.4096       308.72012      1786.8537      960.18531      0.99696118
   1695000  -315.71189      58.277598     -373.98949      310.33217      420.84772      960.18531      0.99696118
   1696000  -311.40822      64.458293     -375.86651      343.24479     -2525.8424      960.18531      0.99696118
   1697000  -308.63319      61.584187     -370.21737      327.93997      2852.5417      960.18531      0.99696118
   1698000  -315.93484      56.699467     -372.63431      301.92851      1958.2029      960.18531      0.99696118
   1699000  -300.98118      60.68793      -361.66911      323.16734     -1038.0877      960.18531      0.99696118
   1700000  -301.07224      56.580896     -357.65313      301.29711      2060.05        960.18531      0.99696118
   1701000  -306.66569      55.361757     -362.02745      294.80511     -1885.7366      960.18531      0.99696118
   1702000  -322.67306      52.142734     -374.8158       277.6636       907.06777      960.18531      0.99696118
   1703000  -318.83325      57.531713     -376.36497      306.36028      16.620617      960.18531      0.99696118
   1704000  -307.97417      61.835386     -369.80955      329.27763     -1422.2753      960.18531      0.99696118
   1705000  -332.96617      55.990957     -388.95712      298.15565     -670.8059       960.18531      0.99696118
   1706000  -342.18116      48.916414     -391.09757      260.48322     -1187.6611      960.18531      0.99696118
   1707000  -332.93305      52.401398     -385.33445      279.041        1040.3492      960.18531      0.99696118
   1708000  -317.58221      56.355699     -373.9379       300.09792      2974.0112      960.18531      0.99696118
   1709000  -307.60839      69.93737      -377.54576      372.42124      3701.0075      960.18531      0.99696118
   1710000  -336.30873      44.092542     -380.40128      234.79578     -580.62877      960.18531      0.99696118
   1711000  -314.6507       58.254616     -372.90531      310.20979     -3415.7855      960.18531      0.99696118
   1712000  -324.61103      49.512904     -374.12393      263.65958      1952.8318      960.18531      0.99696118
   1713000  -318.43769      54.232991     -372.67068      288.79436      528.14933      960.18531      0.99696118
   1714000  -315.35749      56.025835     -371.38333      298.34138     -1967.8991      960.18531      0.99696118
   1715000  -314.5738       55.863791     -370.43759      297.47848     -1643.8812      960.18531      0.99696118
   1716000  -322.38034      54.016838     -376.39718      287.64333     -322.07164      960.18531      0.99696118
   1717000  -320.89578      61.267277     -382.16305      326.25241      1904.875       960.18531      0.99696118
   1718000  -352.09436      41.721833     -393.81619      222.17159     -2116.5384      960.18531      0.99696118
   1719000  -321.99268      50.328798     -372.32148      268.00427     -4205.947       960.18531      0.99696118
   1720000  -298.60624      62.020547     -360.62678      330.26362      1997.9554      960.18531      0.99696118
   1721000  -327.561        54.106881     -381.66788      288.12282      1066.7372      960.18531      0.99696118
   1722000  -309.33276      56.027253     -365.36002      298.34893     -1251.9402      960.18531      0.99696118
   1723000  -304.596        59.301705     -363.8977       315.7856       2015.1263      960.18531      0.99696118
   1724000  -296.35306      53.070433     -349.4235       282.60366      581.28266      960.18531      0.99696118
   1725000  -301.0077       62.061307     -363.06901      330.48067      2001.938       960.18531      0.99696118
   1726000  -301.47734      59.265092     -360.74243      315.59064     -334.50933      960.18531      0.99696118
   1727000  -333.12802      49.387959     -382.51597      262.99423     -1671.7617      960.18531      0.99696118
   1728000  -318.39498      59.21036      -377.60534      315.29918      1814.2853      960.18531      0.99696118
   1729000  -322.40384      59.969506     -382.37334      319.34169     -836.16152      960.18531      0.99696118
   1730000  -303.59786      55.027971     -358.62583      293.02768      419.6594       960.18531      0.99696118
   1731000  -346.68535      44.915277     -391.60063      239.1769      -710.98657      960.18531      0.99696118
   1732000  -303.98154      63.268505     -367.25005      336.90909      2158.9118      960.18531      0.99696118
   1733000  -314.61277      46.123571     -360.73634      245.61115      895.16074      960.18531      0.99696118
   1734000  -332.23807      51.450367     -383.68844      273.9767       4194.6083      960.18531      0.99696118
   1735000  -323.3073       58.702875     -382.01018      312.59679      301.04004      960.18531      0.99696118
   1736000  -311.64622      60.363092     -372.00931      321.43756      669.18447      960.18531      0.99696118
   1737000  -317.14409      50.381841     -367.52593      268.28672      1320.0069      960.18531      0.99696118
   1738000  -302.81221      57.333333     -360.14555      305.30389     -1868.5639      960.18531      0.99696118
   1739000  -307.67604      59.128673     -366.80471      314.8642       1505.0938      960.18531      0.99696118
   1740000  -307.38869      59.301468     -366.69016      315.78434     -2507.5886      960.18531      0.99696118
   1741000  -308.81204      58.043834     -366.85588      309.08736      1989.3338      960.18531      0.99696118
   1742000  -297.92055      56.66971      -354.59026      301.77006     -3174.1939      960.18531      0.99696118
   1743000  -313.73234      62.635998     -376.36834      333.54094     -1053.544       960.18531      0.99696118
   1744000  -314.74755      59.621147     -374.36869      317.48666     -512.02985      960.18531      0.99696118
   1745000  -322.08649      59.045054     -381.13155      314.41892      76.668687      960.18531      0.99696118
   1746000  -302.73589      54.924407     -357.6603       292.4762      -2709.262       960.18531      0.99696118
   1747000  -323.25375      43.376346     -366.63009      230.98199      2492.4842      960.18531      0.99696118
   1748000  -302.5323       67.520325     -370.05262      359.55032     -3228.0486      960.18531      0.99696118
   1749000  -312.32552      53.411469     -365.73699      284.4197      -4859.0283      960.18531      0.99696118
   1750000  -293.2471       64.967888     -358.21499      345.95841      3387.1701      960.18531      0.99696118
   1751000  -314.73207      55.037324     -369.76939      293.07749     -1177.4155      960.18531      0.99696118
   1752000  -315.88451      61.115965     -377.00048      325.44666     -2345.8374      960.18531      0.99696118
   1753000  -307.90404      56.023899     -363.92794      298.33106     -596.48069      960.18531      0.99696118
   1754000  -301.96965      58.958941     -360.92859      313.96036     -1574.8506      960.18531      0.99696118
   1755000  -332.08166      52.898058     -384.97972      281.68575     -2010.7217      960.18531      0.99696118
   1756000  -305.01446      62.569403     -367.58386      333.18632     -2076.5029      960.18531      0.99696118
   1757000  -311.08371      66.426821     -377.51053      353.72733     -440.72229      960.18531      0.99696118
   1758000  -311.62333      58.515857     -370.13919      311.60091      1129.5196      960.18531      0.99696118
   1759000  -310.99801      55.152795     -366.15081      293.69238     -2355.4793      960.18531      0.99696118
   1760000  -309.80337      57.339956     -367.14333      305.33916      160.83468      960.18531      0.99696118
   1761000  -310.52152      58.024046     -368.54557      308.98199     -1965.8175      960.18531      0.99696118
   1762000  -316.90287      53.354414     -370.25728      284.11587      1679.1295      960.18531      0.99696118
   1763000  -309.38181      61.099402     -370.48121      325.35846     -1643.0298      960.18531      0.99696118
   1764000  -312.87297      62.481052     -375.35402      332.71585     -2611.6867      960.18531      0.99696118
   1765000  -307.74158      63.385454     -371.12703      337.53185     -1761.8043      960.18531      0.99696118
   1766000  -322.57293      56.950287     -379.52321      303.26415      2284.3882      960.18531      0.99696118
   1767000  -326.1689       50.274616     -376.44352      267.71574      2174.2039      960.18531      0.99696118
   1768000  -336.16652      49.086772     -385.25329      261.39039      1181.2239      960.18531      0.99696118
   1769000  -311.67904      60.00049      -371.67953      319.50668      2549.8373      960.18531      0.99696118
   1770000  -307.05193      56.574671     -363.6266       301.26396     -527.98156      960.18531      0.99696118
   1771000  -314.2912       48.390102     -362.6813       257.68058     -220.76454      960.18531      0.99696118
   1772000  -323.57905      54.70934      -378.28839      291.33095      2126.7759      960.18531      0.99696118
   1773000  -331.84072      47.29396      -379.13468      251.84355     -688.77978      960.18531      0.99696118
   1774000  -309.96865      58.40007      -368.36873      310.98434      1431.3141      960.18531      0.99696118
   1775000  -332.18017      53.445876     -385.62604      284.60292     -2713.1036      960.18531      0.99696118
   1776000  -322.61638      61.276891     -383.89327      326.3036      -251.66405      960.18531      0.99696118
   1777000  -306.22047      58.887462     -365.10793      313.57973      3134.7887      960.18531      0.99696118
   1778000  -329.39564      47.231793     -376.62743      251.5125      -2857.1018      960.18531      0.99696118
   1779000  -317.57045      63.015414     -380.58587      335.56136      1906.9325      960.18531      0.99696118
   1780000  -306.81887      56.316828     -363.1357       299.89093     -3634.0033      960.18531      0.99696118
   1781000  -306.94282      48.932947     -355.87577      260.57127     -2350.1842      960.18531      0.99696118
   1782000  -325.07761      45.189174     -370.26678      240.63542     -3173.4557      960.18531      0.99696118
   1783000  -313.47389      54.013824     -367.48771      287.62728      2373.0277      960.18531      0.99696118
   1784000  -324.66743      50.941842     -375.60927      271.26877     -830.68675      960.18531      0.99696118
   1785000  -309.81809      58.996365     -368.81445      314.15965     -1766.0863      960.18531      0.99696118
   1786000  -321.65437      52.261407     -373.91577      278.29554     -533.20231      960.18531      0.99696118
   1787000  -313.85052      62.743125     -376.59364      334.1114       605.63582      960.18531      0.99696118
   1788000  -314.57068      58.454297     -373.02498      311.2731       741.7525       960.18531      0.99696118
   1789000  -327.11447      51.688321     -378.80279      275.24382     -4982.123       960.18531      0.99696118
   1790000  -305.98419      59.19237      -365.17656      315.20339     -761.7707       960.18531      0.99696118
   1791000  -296.86906      56.270738     -353.1398       299.6455      -4368.0616      960.18531      0.99696118
   1792000  -310.98527      59.904277     -370.88955      318.99434      4252.1173      960.18531      0.99696118
   1793000  -314.40154      65.03156      -379.4331       346.29747     -2073.307       960.18531      0.99696118
   1794000  -320.98221      56.597443     -377.57965      301.38522     -771.55362      960.18531      0.99696118
   1795000  -312.86338      49.213667     -362.07705      262.06612      102.37233      960.18531      0.99696118
   1796000  -317.92177      48.038561     -365.96033      255.8086      -4730.7567      960.18531      0.99696118
   1797000  -306.24609      57.176638     -363.42273      304.46948     -127.73726      960.18531      0.99696118
   1798000  -304.37898      64.100877     -368.47985      341.34152     -751.27418      960.18531      0.99696118
   1799000  -313.21741      54.809069     -368.02648      291.86201      124.81566      960.18531      0.99696118
   1800000  -306.76776      56.28226      -363.05002      299.70686      70.300613      960.18531      0.99696118
   1801000  -314.7661       58.823057     -373.58916      313.23677     -1903.7932      960.18531      0.99696118
   1802000  -308.52729      49.88673      -358.41402      265.65022      2877.3673      960.18531      0.99696118
   1803000  -309.33463      60.859669     -370.1943       324.08187     -1804.8918      960.18531      0.99696118
   1804000  -321.45557      52.170157     -373.62573      277.80963      379.67934      960.18531      0.99696118
   1805000  -334.65877      43.515919     -378.17469      231.72522     -1340.9407      960.18531      0.99696118
   1806000  -318.14556      60.236512     -378.38207      320.76351     -3432.8065      960.18531      0.99696118
   1807000  -309.18788      49.664894     -358.85277      264.46893      2625.6554      960.18531      0.99696118
   1808000  -306.64122      51.26313      -357.90435      272.97965     -2274.2862      960.18531      0.99696118
   1809000  -329.07414      50.918174     -379.99231      271.14273      2410.0927      960.18531      0.99696118
   1810000  -321.25685      54.344004     -375.60086      289.38551      532.71524      960.18531      0.99696118
   1811000  -346.16018      54.519589     -400.67977      290.32051     -500.93518      960.18531      0.99696118
   1812000  -321.935        56.652544     -378.58754      301.67864     -2078.9735      960.18531      0.99696118
   1813000  -320.8806       50.870297     -371.75089      270.88778      3169.6692      960.18531      0.99696118
   1814000  -320.49227      54.30247      -374.79474      289.16434      4499.5762      960.18531      0.99696118
   1815000  -316.89612      53.893238     -370.78936      286.98515     -4019.9453      960.18531      0.99696118
   1816000  -311.38802      55.560724     -366.94874      295.86462     -744.73375      960.18531      0.99696118
   1817000  -323.83908      50.243984     -374.08306      267.55262      1899.9907      960.18531      0.99696118
   1818000  -309.84493      53.370915     -363.21585      284.20375      2183.1832      960.18531      0.99696118
   1819000  -327.91771      51.04728      -378.96499      271.83023     -1131.8763      960.18531      0.99696118
   1820000  -317.54226      57.445982     -374.98824      305.90375      664.92085      960.18531      0.99696118
   1821000  -308.53133      60.1619       -368.69323      320.3662       680.88448      960.18531      0.99696118
   1822000  -319.99204      44.942125     -364.93416      239.31987      1349.5595      960.18531      0.99696118
   1823000  -307.32702      51.619089     -358.94611      274.87515     -1586.7953      960.18531      0.99696118
   1824000  -328.15291      46.357258     -374.51016      246.85554      3964.7456      960.18531      0.99696118
   1825000  -313.90811      67.251226     -381.15933      358.11735      442.5917       960.18531      0.99696118
   1826000  -296.02878      58.69726      -354.72604      312.5669       1320.2387      960.18531      0.99696118
   1827000  -314.19024      54.169445     -368.35969      288.45597      2464.6487      960.18531      0.99696118
   1828000  -305.90699      59.846763     -365.75375      318.68807      216.13715      960.18531      0.99696118
   1829000  -314.17589      65.715746     -379.89163      349.94081      3264.2598      960.18531      0.99696118
   1830000  -321.89318      50.025156     -371.91834      266.38735      3651.3258      960.18531      0.99696118
   1831000  -323.05289      55.18249      -378.23538      293.8505       4117.8047      960.18531      0.99696118
   1832000  -322.60556      57.941062     -380.54663      308.54009      2397.9235      960.18531      0.99696118
   1833000  -339.90591      46.263925     -386.16984      246.35854      1392.3292      960.18531      0.99696118
   1834000  -324.75852      48.19791      -372.95643      256.65714     -1021.0957      960.18531      0.99696118
   1835000  -317.69393      59.82212      -377.51605      318.55685     -1147.6481      960.18531      0.99696118
   1836000  -322.62543      65.180963     -387.8064       347.09306     -502.44794      960.18531      0.99696118
   1837000  -326.61261      49.821296     -376.43391      265.30178      885.83314      960.18531      0.99696118
   1838000  -307.29         65.497479     -372.78748      348.77852      1858.1026      960.18531      0.99696118
   1839000  -322.62721      49.465747     -372.09296      263.40846     -1785.9707      960.18531      0.99696118
   1840000  -322.90683      57.787294     -380.69412      307.72126     -952.38049      960.18531      0.99696118
   1841000  -326.00552      55.049288     -381.05481      293.14119     -4244.312       960.18531      0.99696118
   1842000  -296.44396      53.301189     -349.74515      283.83245      3264.1999      960.18531      0.99696118
   1843000  -307.20547      61.594571     -368.80004      327.99527      903.36827      960.18531      0.99696118
   1844000  -326.54423      50.566994     -377.11123      269.27268      1920.3601      960.18531      0.99696118
   1845000  -325.09624      56.179794     -381.27604      299.16122     -1068.3745      960.18531      0.99696118
   1846000  -301.34439      57.722362     -359.06675      307.3755       1234.9683      960.18531      0.99696118
   1847000  -301.52588      64.679096     -366.20498      344.42058      2583.689       960.18531      0.99696118
   1848000  -303.45409      65.008783     -368.46287      346.17618      769.1657       960.18531      0.99696118
   1849000  -323.12562      51.578269     -374.70389      274.65778      962.52376      960.18531      0.99696118
   1850000  -312.51232      57.892368     -370.40469      308.28079      2469.595       960.18531      0.99696118
   1851000  -305.05358      67.688589     -372.74217      360.44633      110.25179      960.18531      0.99696118
   1852000  -319.02021      50.904693     -369.92491      271.07095      410.26335      960.18531      0.99696118
   1853000  -317.59704      54.622831     -372.21987      290.87028     -480.13787      960.18531      0.99696118
   1854000  -332.63238      54.41346      -387.04584      289.75537     -693.18065      960.18531      0.99696118
   1855000  -327.98494      53.419296     -381.40424      284.46138      1809.0341      960.18531      0.99696118
   1856000  -333.46659      50.714932     -384.18152      270.06046     -2234.3004      960.18531      0.99696118
   1857000  -324.80259      57.209065     -382.01166      304.64215      596.52695      960.18531      0.99696118
   1858000  -317.50194      56.045355     -373.5473       298.44532     -1745.4749      960.18531      0.99696118
   1859000  -313.54957      54.493635     -368.04321      290.18231     -1005.0934      960.18531      0.99696118
   1860000  -295.96479      59.634992     -355.59978      317.56038      247.14409      960.18531      0.99696118
   1861000  -326.7593       45.739347     -372.49865      243.56513     -326.2278       960.18531      0.99696118
   1862000  -331.60402      46.003333     -377.60736      244.97087      4382.4752      960.18531      0.99696118
   1863000  -310.92163      55.638524     -366.56015      296.27892     -2002.6967      960.18531      0.99696118
   1864000  -329.34383      56.413383     -385.75721      300.40509     -1914.0109      960.18531      0.99696118
   1865000  -308.50348      62.699663     -371.20314      333.87996      1224.1964      960.18531      0.99696118
   1866000  -320.3133       62.379341     -382.69264      332.17423     -3107.9008      960.18531      0.99696118
   1867000  -319.40122      57.815358     -377.21658      307.87071     -1000.5331      960.18531      0.99696118
   1868000  -312.33911      52.223208     -364.56232      278.09213     -721.3751       960.18531      0.99696118
   1869000  -326.1298       46.375188     -372.50499      246.95103      3439.4963      960.18531      0.99696118
   1870000  -305.04377      58.282858     -363.32663      310.36018     -755.55134      960.18531      0.99696118
   1871000  -325.8465       49.718043     -375.56455      264.75195     -2177.4885      960.18531      0.99696118
   1872000  -315.14937      57.728711     -372.87808      307.40931     -595.42784      960.18531      0.99696118
   1873000  -312.04474      58.260561     -370.3053       310.24144      596.61714      960.18531      0.99696118
   1874000  -337.68516      60.120045     -397.8052       320.14332      1497.8282      960.18531      0.99696118
   1875000  -308.78762      49.268687     -358.05631      262.3591       5300.9161      960.18531      0.99696118
   1876000  -311.55779      51.246752     -362.80454      272.89243      2193.3678      960.18531      0.99696118
   1877000  -315.0232       52.276102     -367.29931      278.37379      233.03377      960.18531      0.99696118
   1878000  -304.66501      63.167627     -367.83264      336.3719      -1165.5601      960.18531      0.99696118
   1879000  -304.34661      60.773553     -365.12016      323.6233       191.17837      960.18531      0.99696118
   1880000  -312.38808      54.124632     -366.51271      288.21734      526.15184      960.18531      0.99696118
   1881000  -329.62609      51.864172     -381.49026      276.18024     -3669.3884      960.18531      0.99696118
   1882000  -319.75597      56.819938     -376.57591      302.57003     -924.31695      960.18531      0.99696118
   1883000  -297.0633       63.176771     -360.24007      336.4206       1446.2318      960.18531      0.99696118
   1884000  -332.78986      53.98658      -386.77644      287.4822       1477.1379      960.18531      0.99696118
   1885000  -315.4543       52.207698     -367.662        278.00954      3762.4844      960.18531      0.99696118
   1886000  -312.10777      52.351545     -364.45931      278.77553      1108.6538      960.18531      0.99696118
   1887000  -324.70787      54.680327     -379.3882       291.17645      1400.6852      960.18531      0.99696118
   1888000  -321.71757      50.067062     -371.78464      266.6105      -433.16781      960.18531      0.99696118
   1889000  -309.65698      58.25851      -367.91549      310.23052      1619.6512      960.18531      0.99696118
   1890000  -326.86932      59.911142     -386.78046      319.0309       2652.9707      960.18531      0.99696118
   1891000  -313.29065      64.28224      -377.57289      342.30729      1056.3834      960.18531      0.99696118
   1892000  -322.53663      48.731236     -371.26786      259.49714      2357.4356      960.18531      0.99696118
   1893000  -308.03727      52.916689     -360.95396      281.78496     -1669.5824      960.18531      0.99696118
   1894000  -328.86988      42.679544     -371.54943      227.27147      1573.6081      960.18531      0.99696118
   1895000  -311.3155       61.787425     -373.10293      329.02223     -1776.1673      960.18531      0.99696118
   1896000  -321.47551      57.256673     -378.73218      304.89567      304.76941      960.18531      0.99696118
   1897000  -319.70329      57.434879     -377.13817      305.84463     -4893.2252      960.18531      0.99696118
   1898000  -325.83559      45.561901     -371.39749      242.62022     -3142.3789      960.18531      0.99696118
   1899000  -303.53964      66.393308     -369.93295      353.54887      1523.194       960.18531      0.99696118
   1900000  -326.30783      54.828496     -381.13633      291.96546     -926.67116      960.18531      0.99696118
   1901000  -306.99826      59.193998     -366.19226      315.21206     -1455.5238      960.18531      0.99696118
   1902000  -319.99113      58.876568     -378.8677       313.52172      1923.9242      960.18531      0.99696118
   1903000  -312.91148      56.315497     -369.22698      299.88385     -3312.5157      960.18531      0.99696118
   1904000  -323.03418      53.556904     -376.59108      285.19415     -579.82748      960.18531      0.99696118
   1905000  -315.06755      59.579246     -374.64679      317.26353      2396.1334      960.18531      0.99696118
   1906000  -309.87996      60.296145     -370.17611      321.08106     -2222.6273      960.18531      0.99696118
   1907000  -298.0641       65.679691     -363.74379      349.74881     -992.04585      960.18531      0.99696118
   1908000  -323.56232      48.062024     -371.62434      255.93354      2173.5155      960.18531      0.99696118
   1909000  -312.63545      50.107034     -362.74248      266.82336     -4277.7299      960.18531      0.99696118
   1910000  -310.29223      60.214374     -370.50661      320.64563      1610.109       960.18531      0.99696118
   1911000  -309.34331      60.704404     -370.04771      323.25507     -540.60564      960.18531      0.99696118
   1912000  -330.70036      60.109906     -390.81026      320.08933      2375.9852      960.18531      0.99696118
   1913000  -319.25473      55.779375     -375.0341       297.02896      347.30024      960.18531      0.99696118
   1914000  -318.05587      48.974694     -367.03056      260.79357      1457.6361      960.18531      0.99696118
   1915000  -316.23859      52.266238     -368.50483      278.32126      407.09903      960.18531      0.99696118
   1916000  -325.28603      55.229037     -380.51507      294.09837      584.35706      960.18531      0.99696118
   1917000  -337.99329      50.309724     -388.30301      267.90269     -3575.3685      960.18531      0.99696118
   1918000  -321.45008      47.16012      -368.6102       251.13084      2058.7011      960.18531      0.99696118
   1919000  -325.70568      48.528243     -374.23393      258.41619      3478.277       960.18531      0.99696118
   1920000  -304.65844      62.652451     -367.3109       333.62855      1202.5942      960.18531      0.99696118
   1921000  -313.46725      59.061238     -372.52849      314.5051      -2056.1725      960.18531      0.99696118
   1922000  -314.73108      54.87458      -369.60566      292.21086     -1676.4429      960.18531      0.99696118
   1923000  -321.32485      54.965455     -376.2903       292.69478     -1301.4913      960.18531      0.99696118
   1924000  -314.79034      58.059386     -372.84973      309.17017     -2093.078       960.18531      0.99696118
   1925000  -318.44751      52.29679      -370.74431      278.48396     -1015.9231      960.18531      0.99696118
   1926000  -329.29139      60.212121     -389.50351      320.63363      1101.5819      960.18531      0.99696118
   1927000  -325.18312      46.595495     -371.77861      248.12417      3499.5169      960.18531      0.99696118
   1928000  -320.61385      49.139751     -369.7536       261.67251     -1946.7127      960.18531      0.99696118
   1929000  -303.35755      60.829304     -364.18685      323.92017     -252.15833      960.18531      0.99696118
   1930000  -319.62228      48.460069     -368.08235      258.05316     -1924.5383      960.18531      0.99696118
   1931000  -304.97316      63.169854     -368.14301      336.38376     -1001.7941      960.18531      0.99696118
   1932000  -311.52448      53.684307     -365.20879      285.87258      1365.7258      960.18531      0.99696118
   1933000  -308.22859      63.809888     -372.03848      339.79199     -746.45675      960.18531      0.99696118
   1934000  -309.48041      52.160129     -361.64054      277.75623     -550.99096      960.18531      0.99696118
   1935000  -304.88259      58.086698     -362.96929      309.31561      1801.9017      960.18531      0.99696118
   1936000  -322.46642      47.534317     -370.00074      253.12347     -176.11596      960.18531      0.99696118
   1937000  -330.44605      53.954974     -384.40102      287.3139       1242.2934      960.18531      0.99696118
   1938000  -318.98792      49.338395     -368.32632      262.7303      -3923.1283      960.18531      0.99696118
   1939000  -317.55079      62.495671     -380.04646      332.79369     -3597.1501      960.18531      0.99696118
   1940000  -305.38616      57.63005      -363.01621      306.88393      1640.2163      960.18531      0.99696118
   1941000  -308.69852      61.087313     -369.78584      325.29409      1722.9389      960.18531      0.99696118
   1942000  -314.93968      53.477687     -368.41737      284.77231     -3062.8448      960.18531      0.99696118
   1943000  -312.5321       57.163895     -369.696        304.40162      557.26491      960.18531      0.99696118
   1944000  -307.20496      59.413489     -366.61845      316.38086     -2091.3118      960.18531      0.99696118
   1945000  -324.6637       55.970728     -380.63443      298.04793      2380.1612      960.18531      0.99696118
   1946000  -305.22391      58.051052     -363.27496      309.12579      223.40277      960.18531      0.99696118
   1947000  -315.41677      55.25531      -370.67208      294.23828     -784.56408      960.18531      0.99696118
   1948000  -312.95532      56.899433     -369.85476      302.99334     -1981.815       960.18531      0.99696118
   1949000  -314.77697      62.698161     -377.47513      333.87196      510.60242      960.18531      0.99696118
   1950000  -320.8989       53.729998     -374.6289       286.11589      4393.6983      960.18531      0.99696118
   1951000  -311.90761      59.07613      -370.98374      314.5844      -4552.6338      960.18531      0.99696118
   1952000  -298.87187      58.292486     -357.16436      310.41145     -1231.4531      960.18531      0.99696118
   1953000  -316.8825       54.883146     -371.76564      292.25648      432.33151      960.18531      0.99696118
   1954000  -311.9956       70.07024      -382.06584      373.12878     -205.69032      960.18531      0.99696118
   1955000  -306.68489      52.098929     -358.78382      277.43034     -1047.0545      960.18531      0.99696118
   1956000  -312.83102      60.914467     -373.74549      324.37367     -208.9792       960.18531      0.99696118
   1957000  -319.14221      56.807271     -375.94948      302.50257     -2041.7997      960.18531      0.99696118
   1958000  -328.22046      44.158055     -372.37851      235.14464      2961.5468      960.18531      0.99696118
   1959000  -309.22416      56.25813      -365.48229      299.57836     -41.1264        960.18531      0.99696118
   1960000  -308.23192      56.094152     -364.32607      298.70517     -111.55621      960.18531      0.99696118
   1961000  -306.02334      67.85404      -373.87738      361.32737     -833.63588      960.18531      0.99696118
   1962000  -318.71461      54.983825     -373.69844      292.7926      -893.68272      960.18531      0.99696118
   1963000  -324.31434      54.304241     -378.61858      289.17377      507.51272      960.18531      0.99696118
   1964000  -310.45503      48.275616     -358.73064      257.07093      2473.71        960.18531      0.99696118
   1965000  -302.3883       67.915622     -370.30393      361.6553      -2067.7587      960.18531      0.99696118
   1966000  -324.44947      45.461653     -369.91112      242.08639     -2029.0315      960.18531      0.99696118
   1967000  -310.81575      56.192706     -367.00846      299.22998      523.5887       960.18531      0.99696118
   1968000  -315.18456      57.40035      -372.58491      305.66076     -958.86156      960.18531      0.99696118
   1969000  -321.7044       55.584833     -377.28924      295.99301     -1018.2869      960.18531      0.99696118
   1970000  -292.04838      63.930845     -355.97922      340.43609      1534.6988      960.18531      0.99696118
   1971000  -311.15456      58.183092     -369.33765      309.82891     -692.32859      960.18531      0.99696118
   1972000  -324.79377      51.364449     -376.15822      273.51918     -2869.5256      960.18531      0.99696118
   1973000  -326.57282      46.973008     -373.54583      250.13445      208.42768      960.18531      0.99696118
   1974000  -314.35806      58.518119     -372.87618      311.61296      2470.4362      960.18531      0.99696118
   1975000  -319.81714      51.879989     -371.69713      276.26446     -3646.2234      960.18531      0.99696118
   1976000  -315.44967      59.217442     -374.66711      315.3369      -3338.4174      960.18531      0.99696118
   1977000  -311.03621      57.304612     -368.34082      305.15095      1571.2093      960.18531      0.99696118
   1978000  -294.15328      70.613138     -364.76642      376.01975     -1668.4748      960.18531      0.99696118
   1979000  -311.45263      46.965345     -358.41797      250.09365     -4098.2532      960.18531      0.99696118
   1980000  -332.97224      53.68277      -386.65501      285.86439     -1545.8672      960.18531      0.99696118
   1981000  -318.86689      47.73065      -366.59754      254.16895      1586.4825      960.18531      0.99696118
   1982000  -319.51921      57.492876     -377.01208      306.15347     -3105.2837      960.18531      0.99696118
   1983000  -328.49562      51.928732     -380.42435      276.52403      2100.3775      960.18531      0.99696118
   1984000  -309.17729      59.513052     -368.69034      316.91104     -4769.0412      960.18531      0.99696118
   1985000  -307.40988      62.172703     -369.58258      331.07386     -2001.1345      960.18531      0.99696118
   1986000  -332.61952      53.482349     -386.10187      284.79714     -688.94166      960.18531      0.99696118
   1987000  -320.24062      51.833748     -372.07437      276.01823     -1769.5827      960.18531      0.99696118
   1988000  -299.51692      57.716539     -357.23345      307.34449     -3028.0279      960.18531      0.99696118
   1989000  -317.59964      54.144015     -371.74365      288.32056      731.00206      960.18531      0.99696118
   1990000  -309.73421      59.450833     -369.18504      316.57972     -825.24259      960.18531      0.99696118
   1991000  -292.63816      56.280007     -348.91817      299.69486      2427.0284      960.18531      0.99696118
   1992000  -312.14378      55.783583     -367.92736      297.05136      803.50411      960.18531      0.99696118
   1993000  -334.37225      48.158414     -382.53066      256.44682      1226.8896      960.18531      0.99696118
   1994000  -316.34017      55.964673     -372.30484      298.01568     -2939.5618      960.18531      0.99696118
   1995000  -316.95485      56.152088     -373.10694      299.01368      4547.6566      960.18531      0.99696118
   1996000  -333.34876      49.042716     -382.39147      261.15579     -974.14245      960.18531      0.99696118
   1997000  -309.75767      52.521882     -362.27955      279.68259      2155.6535      960.18531      0.99696118
   1998000  -310.14147      50.302351     -360.44382      267.86344      623.08547      960.18531      0.99696118
   1999000  -306.49013      61.73585      -368.22598      328.74759      3180.224       960.18531      0.99696118
   2000000  -316.94234      56.948033     -373.89037      303.25214     -910.17205      960.18531      0.99696118
   2001000  -309.77921      57.814073     -367.59328      307.86386      3086.5741      960.18531      0.99696118
   2002000  -338.91246      50.43327      -389.34573      268.56058      867.39594      960.18531      0.99696118
   2003000  -321.41381      53.214902     -374.62871      283.37296     -4903.3393      960.18531      0.99696118
   2004000  -309.79671      58.139311     -367.93602      309.59578      114.16769      960.18531      0.99696118
   2005000  -306.21221      59.961792     -366.174        319.30061      2061.568       960.18531      0.99696118
   2006000  -311.42516      55.439385     -366.86455      295.21849     -299.38312      960.18531      0.99696118
   2007000  -326.7173       50.143892     -376.8612       267.01963      1044.3703      960.18531      0.99696118
   2008000  -324.73741      52.203416     -376.94083      277.98673     -3902.2139      960.18531      0.99696118
   2009000  -319.96661      56.324325     -376.29093      299.93086     -2839.608       960.18531      0.99696118
   2010000  -325.4956       53.565464     -379.06107      285.23973     -4780.0274      960.18531      0.99696118
   2011000  -318.81101      55.675979     -374.48699      296.47837      940.93738      960.18531      0.99696118
   2012000  -303.28464      62.897677     -366.18232      334.9344      -3339.4792      960.18531      0.99696118
   2013000  -311.45248      60.328647     -371.78112      321.25414      1581.4417      960.18531      0.99696118
   2014000  -320.01274      47.477341     -367.49009      252.82006     -3063.6459      960.18531      0.99696118
   2015000  -316.63205      60.405439     -377.03749      321.66306     -2550.2169      960.18531      0.99696118
   2016000  -335.33039      54.66024      -389.99063      291.06949     -2939.9932      960.18531      0.99696118
   2017000  -322.50025      61.018017     -383.51827      324.92508     -1417.778       960.18531      0.99696118
   2018000  -303.5449       64.486913     -368.03181      343.39719      4239.3457      960.18531      0.99696118
   2019000  -336.46353      53.016848     -389.48037      282.31832     -1335.8334      960.18531      0.99696118
   2020000  -329.94064      52.306763     -382.2474       278.53706      1436.0175      960.18531      0.99696118
   2021000  -310.91118      64.953435     -375.86462      345.88145     -2992.8         960.18531      0.99696118
   2022000  -319.73499      56.497717     -376.2327       300.85418      5036.339       960.18531      0.99696118
   2023000  -324.38267      53.539284     -377.92196      285.10032      426.13106      960.18531      0.99696118
   2024000  -319.94796      58.938458     -378.88641      313.85129      1212.3562      960.18531      0.99696118
   2025000  -335.3571       54.13692      -389.49402      288.28278      2087.6886      960.18531      0.99696118
   2026000  -304.30887      61.11314      -365.42201      325.43162      174.71857      960.18531      0.99696118
   2027000  -334.53792      55.361228     -389.89915      294.8023      -3583.7639      960.18531      0.99696118
   2028000  -317.83209      61.381983     -379.21408      326.86323     -1031.8822      960.18531      0.99696118
   2029000  -327.68201      45.156192     -372.8382       240.45979      405.80903      960.18531      0.99696118
   2030000  -322.47336      55.174883     -377.64824      293.81        -1754.5594      960.18531      0.99696118
   2031000  -312.92878      59.645317     -372.57409      317.61536     -569.54206      960.18531      0.99696118
   2032000  -315.00562      59.392769     -374.39839      316.27053      582.25299      960.18531      0.99696118
   2033000  -307.25482      66.464583     -373.71941      353.92842      1540.076       960.18531      0.99696118
   2034000  -309.22678      63.345664     -372.57245      337.31996      985.60808      960.18531      0.99696118
   2035000  -329.2558       49.593572     -378.84937      264.08914     -2116.923       960.18531      0.99696118
   2036000  -314.48878      55.938735     -370.42751      297.87756     -494.92693      960.18531      0.99696118
   2037000  -320.99454      61.193522     -382.18807      325.85966      398.3228       960.18531      0.99696118
   2038000  -301.48117      62.651822     -364.13299      333.62521      486.04336      960.18531      0.99696118
   2039000  -297.5043       62.822005     -360.32631      334.53144      1034.1664      960.18531      0.99696118
   2040000  -311.61956      56.90268      -368.52224      303.01063      746.84181      960.18531      0.99696118
   2041000  -321.38811      60.167745     -381.55585      320.39733     -1498.0842      960.18531      0.99696118
   2042000  -323.09985      50.53324      -373.63309      269.09293      23.995921      960.18531      0.99696118
   2043000  -296.22771      63.009965     -359.23768      335.53234      890.95207      960.18531      0.99696118
   2044000  -316.2372       56.675903     -372.9131       301.80303     -374.716        960.18531      0.99696118
   2045000  -315.34254      51.313134     -366.65568      273.24592      706.25183      960.18531      0.99696118
   2046000  -309.09011      52.438489     -361.5286       279.23851     -494.61267      960.18531      0.99696118
   2047000  -307.74291      50.536734     -358.27964      269.11154      370.87712      960.18531      0.99696118
   2048000  -328.4189       44.211481     -372.63038      235.42914     -2026.2527      960.18531      0.99696118
   2049000  -315.56924      52.151208     -367.72045      277.70872     -1897.6549      960.18531      0.99696118
   2050000  -305.27487      54.238899     -359.51377      288.82582      1281.147       960.18531      0.99696118
   2051000  -315.25259      51.211921     -366.46451      272.70696     -530.01952      960.18531      0.99696118
   2052000  -305.1607       57.099904     -362.2606       304.06086     -1297.7608      960.18531      0.99696118
   2053000  -317.28477      58.385619     -375.67039      310.90739     -3231.5986      960.18531      0.99696118
   2054000  -314.80759      57.646968     -372.45456      306.97402      1049.7425      960.18531      0.99696118
   2055000  -307.9925       60.793161     -368.78566      323.72771      84.739484      960.18531      0.99696118
   2056000  -309.77847      58.613681     -368.39215      312.12183     -4438.5827      960.18531      0.99696118
   2057000  -323.6761       51.71353      -375.38963      275.37806     -721.91221      960.18531      0.99696118
   2058000  -313.37786      67.929203     -381.30706      361.72761      534.75139      960.18531      0.99696118
   2059000  -323.45741      48.165168     -371.62258      256.48279      4485.0409      960.18531      0.99696118
   2060000  -312.27425      58.892262     -371.16651      313.60529      4474.9506      960.18531      0.99696118
   2061000  -316.32681      66.60719      -382.934        354.68781      329.18475      960.18531      0.99696118
   2062000  -308.99433      53.685127     -362.67945      285.87695      5041.82        960.18531      0.99696118
   2063000  -314.36497      52.961088     -367.32606      282.02139     -2860.7081      960.18531      0.99696118
   2064000  -326.84469      57.378273     -384.22296      305.5432      -2274.3051      960.18531      0.99696118
   2065000  -318.58088      51.955928     -370.5368       276.66884     -1451.7629      960.18531      0.99696118
   2066000  -316.30723      50.127022     -366.43425      266.9298       350.1063       960.18531      0.99696118
   2067000  -322.13516      62.408175     -384.54333      332.32777      1229.3669      960.18531      0.99696118
   2068000  -320.81188      55.836997     -376.64888      297.3358       320.58046      960.18531      0.99696118
   2069000  -335.73946      46.83196      -382.57142      249.38337      144.10943      960.18531      0.99696118
   2070000  -320.38667      60.146341     -380.53301      320.28335     -46.357077      960.18531      0.99696118
   2071000  -325.41372      53.36812      -378.78184      284.18886     -1774.6817      960.18531      0.99696118
   2072000  -315.17505      60.531898     -375.70695      322.33647     -116.21639      960.18531      0.99696118
   2073000  -313.7122       53.021555     -366.73375      282.34338      755.81949      960.18531      0.99696118
   2074000  -287.08404      61.385073     -348.46911      326.87968      4745.0431      960.18531      0.99696118
   2075000  -305.19282      61.061763     -366.25459      325.15804      3390.1202      960.18531      0.99696118
   2076000  -308.95173      53.415494     -362.36723      284.44113     -3191.9084      960.18531      0.99696118
   2077000  -284.19389      64.690372     -348.88426      344.48062      3104.4698      960.18531      0.99696118
   2078000  -307.58813      57.669029     -365.25716      307.0915       1690.6451      960.18531      0.99696118
   2079000  -322.01471      57.7087       -379.72341      307.30275      1450.1127      960.18531      0.99696118
   2080000  -317.55072      57.154335     -374.70506      304.35071      41.418745      960.18531      0.99696118
   2081000  -312.86533      60.222861     -373.08819      320.69082      219.73596      960.18531      0.99696118
   2082000  -317.12364      59.874478     -376.99811      318.83566      1288.9821      960.18531      0.99696118
   2083000  -325.02733      61.278027     -386.30536      326.30965      5258.1249      960.18531      0.99696118
   2084000  -314.12273      59.045756     -373.16849      314.42266      890.17748      960.18531      0.99696118
   2085000  -315.25958      68.385795     -383.64537      364.159       -965.11709      960.18531      0.99696118
   2086000  -317.94119      60.690484     -378.63167      323.18095      1294.8279      960.18531      0.99696118
   2087000  -317.8978       50.709076     -368.60687      270.02927      1830.2079      960.18531      0.99696118
   2088000  -333.7543       51.184998     -384.9393       272.56359      1304.3078      960.18531      0.99696118
   2089000  -309.89983      53.061332     -362.96117      282.55519     -2169.6179      960.18531      0.99696118
   2090000  -323.81824      49.421713     -373.23995      263.17398      1532.4835      960.18531      0.99696118
   2091000  -310.90375      56.812999     -367.71675      302.53308     -1297.5844      960.18531      0.99696118
   2092000  -307.22474      56.513833     -363.73858      300.94        -304.01373      960.18531      0.99696118
   2093000  -307.30695      57.725821     -365.03277      307.39392     -363.32136      960.18531      0.99696118
   2094000  -297.50977      61.823437     -359.33321      329.214       -1912.6053      960.18531      0.99696118
   2095000  -323.04834      53.949852     -376.99819      287.28662     -778.08018      960.18531      0.99696118
   2096000  -325.09503      58.198129     -383.29316      309.90899      1440.7035      960.18531      0.99696118
   2097000  -318.99069      51.852217     -370.8429       276.11658     -2956.5059      960.18531      0.99696118
   2098000  -318.00069      67.463337     -385.46402      359.24685      304.89318      960.18531      0.99696118
   2099000  -335.08516      57.151098     -392.23626      304.33348      1892.6033      960.18531      0.99696118
   2100000  -318.92248      52.832597     -371.75507      281.33716     -4276.0057      960.18531      0.99696118
   2101000  -325.2049       46.832495     -372.03739      249.38621     -1619.0182      960.18531      0.99696118
   2102000  -322.09867      62.344491     -384.44316      331.98865     -505.65178      960.18531      0.99696118
   2103000  -302.90536      67.526626     -370.43199      359.58387      2491.1346      960.18531      0.99696118
   2104000  -317.07652      52.236388     -369.31291      278.16231      2120.7292      960.18531      0.99696118
   2105000  -319.493        51.650358     -371.14336      275.04166     -1053.947       960.18531      0.99696118
   2106000  -319.06183      57.606692     -376.66852      306.75954     -646.50914      960.18531      0.99696118
   2107000  -315.97514      62.297557     -378.2727       331.73872      2441.8754      960.18531      0.99696118
   2108000  -307.38497      55.359866     -362.74484      294.79504     -459.25409      960.18531      0.99696118
   2109000  -315.14784      50.88205      -366.02989      270.95037      1869.6074      960.18531      0.99696118
   2110000  -330.87615      55.357161     -386.23331      294.78064     -56.198173      960.18531      0.99696118
   2111000  -322.41895      60.36627      -382.78522      321.45449     -739.26633      960.18531      0.99696118
   2112000  -312.78714      50.002943     -362.79008      266.26907      3060.974       960.18531      0.99696118
   2113000  -314.09362      63.513638     -377.60726      338.21444     -207.23368      960.18531      0.99696118
   2114000  -310.50819      65.475981     -375.98418      348.66404     -444.01343      960.18531      0.99696118
   2115000  -308.66348      46.930439     -355.59392      249.90778      1294.0083      960.18531      0.99696118
   2116000  -305.47053      61.420168     -366.8907       327.06656      429.58863      960.18531      0.99696118
   2117000  -324.05125      48.936053     -372.9873       260.5878       3343.792       960.18531      0.99696118
   2118000  -306.57125      60.835823     -367.40708      323.95489      339.92398      960.18531      0.99696118
   2119000  -320.25973      55.878403     -376.13813      297.55629     -230.14653      960.18531      0.99696118
   2120000  -304.64881      62.2525       -366.90131      331.49879      2782.0694      960.18531      0.99696118
   2121000  -320.6267       55.338132     -375.96483      294.67931      70.040323      960.18531      0.99696118
   2122000  -308.07101      61.93339      -370.0044       329.79951      480.66376      960.18531      0.99696118
   2123000  -310.84693      57.670576     -368.51751      307.09973     -24.349645      960.18531      0.99696118
   2124000  -308.79891      60.277867     -369.07678      320.98374     -765.1909       960.18531      0.99696118
   2125000  -337.088        49.198438     -386.28644      261.98502      3065.9028      960.18531      0.99696118
   2126000  -310.00218      58.406032     -368.40821      311.01609     -2723.6622      960.18531      0.99696118
   2127000  -312.34502      59.489198     -371.83422      316.78402     -4200.5701      960.18531      0.99696118
   2128000  -324.26401      54.285255     -378.54927      289.07267     -1790.2246      960.18531      0.99696118
   2129000  -311.83734      56.403248     -368.24059      300.35112      380.6094       960.18531      0.99696118
   2130000  -325.2199       56.994281     -382.21418      303.49841     -801.93821      960.18531      0.99696118
   2131000  -305.86393      54.62774      -360.49167      290.89642      3060.6603      960.18531      0.99696118
   2132000  -308.22072      57.543493     -365.76421      306.42301      397.74702      960.18531      0.99696118
   2133000  -322.48804      58.071878     -380.55991      309.23669      1366.1299      960.18531      0.99696118
   2134000  -330.33405      53.703848     -384.0379       285.97664      880.44391      960.18531      0.99696118
   2135000  -331.78989      55.89876      -387.68865      297.66469      794.91704      960.18531      0.99696118
   2136000  -309.24256      56.351289     -365.59385      300.07444     -256.57383      960.18531      0.99696118
   2137000  -308.27219      58.941299     -367.21349      313.86642      806.11292      960.18531      0.99696118
   2138000  -329.04112      59.550274     -388.59139      317.10925     -1456.5224      960.18531      0.99696118
   2139000  -324.0355       51.877403     -375.91291      276.25069     -1648.9201      960.18531      0.99696118
   2140000  -321.75051      59.749242     -381.49975      318.16877     -1196.4056      960.18531      0.99696118
   2141000  -320.75237      58.882676     -379.63505      313.55425     -1691.4033      960.18531      0.99696118
   2142000  -326.62284      50.816256     -377.4391       270.60001      4210.2507      960.18531      0.99696118
   2143000  -327.77726      54.909952     -382.68721      292.39922      1304.5285      960.18531      0.99696118
   2144000  -316.05847      49.634809     -365.69328      264.30873      346.75463      960.18531      0.99696118
   2145000  -307.32206      51.668705     -358.99076      275.13936     -2868.0812      960.18531      0.99696118
   2146000  -319.60116      62.66585      -382.26701      333.69991     -1132.888       960.18531      0.99696118
   2147000  -312.54829      59.788348     -372.33664      318.37701      541.21251      960.18531      0.99696118
   2148000  -330.73902      55.26064      -385.99966      294.26666     -393.66107      960.18531      0.99696118
   2149000  -300.19996      68.829556     -369.02951      366.52206      1585.0197      960.18531      0.99696118
   2150000  -321.63238      50.485706     -372.11809      268.83981     -3403.8365      960.18531      0.99696118
   2151000  -314.40247      64.636567     -379.03904      344.19411      993.7058       960.18531      0.99696118
   2152000  -321.4729       60.502877     -381.97578      322.18193      1585.5863      960.18531      0.99696118
   2153000  -303.46825      61.858792     -365.32704      329.40227     -2384.5038      960.18531      0.99696118
   2154000  -314.49723      64.803592     -379.30082      345.08353      399.28797      960.18531      0.99696118
   2155000  -308.00088      57.966322     -365.9672       308.6746      -959.08387      960.18531      0.99696118
   2156000  -317.44585      59.132112     -376.57796      314.88251     -1459.5788      960.18531      0.99696118
   2157000  -309.89136      57.263383     -367.15475      304.9314      -764.53411      960.18531      0.99696118
   2158000  -323.95503      58.898887     -382.85392      313.64057      2014.8051      960.18531      0.99696118
   2159000  -319.20047      56.553446     -375.75391      301.15094      1261.0941      960.18531      0.99696118
   2160000  -317.19114      55.906966     -373.09811      297.70839      549.14839      960.18531      0.99696118
   2161000  -322.50175      48.137532     -370.63928      256.33563      2554.9389      960.18531      0.99696118
   2162000  -320.41919      52.934319     -373.35351      281.87884     -1661.9581      960.18531      0.99696118
   2163000  -297.60349      55.302046     -352.90553      294.48715      771.42923      960.18531      0.99696118
   2164000  -317.65715      55.22384      -372.88099      294.0707      -1503.9898      960.18531      0.99696118
   2165000  -308.88648      63.113098     -371.99957      336.08153     -1125.6897      960.18531      0.99696118
   2166000  -321.82748      62.129237     -383.95672      330.84241     -449.16152      960.18531      0.99696118
   2167000  -348.41233      44.730711     -393.14304      238.19407     -258.41244      960.18531      0.99696118
   2168000  -311.95563      58.421589     -370.37722      311.09893     -29.887747      960.18531      0.99696118
   2169000  -310.73747      55.163739     -365.90121      293.75066     -1737.9631      960.18531      0.99696118
   2170000  -315.24581      51.631532     -366.87734      274.94141      1202.1317      960.18531      0.99696118
   2171000  -299.52376      58.732054     -358.25582      312.75218      2353.115       960.18531      0.99696118
   2172000  -323.16998      50.504322     -373.6743       268.93894      712.91164      960.18531      0.99696118
   2173000  -325.71182      48.672195     -374.38402      259.18274      309.71703      960.18531      0.99696118
   2174000  -327.79036      60.178115     -387.96847      320.45255      432.28332      960.18531      0.99696118
   2175000  -323.63852      52.144378     -375.7829       277.67235      1365.0836      960.18531      0.99696118
   2176000  -320.76552      63.908775     -384.6743       340.31856     -2245.6717      960.18531      0.99696118
   2177000  -321.33321      56.649331     -377.98254      301.66153     -1644.5712      960.18531      0.99696118
   2178000  -324.10152      57.791196     -381.89272      307.74204     -817.64482      960.18531      0.99696118
   2179000  -311.70557      57.188452     -368.89402      304.53239      265.05018      960.18531      0.99696118
   2180000  -301.51659      58.343727     -359.86032      310.68431      858.64394      960.18531      0.99696118
   2181000  -325.59263      53.149555     -378.74219      283.02499     -215.13577      960.18531      0.99696118
   2182000  -319.11734      51.013505     -370.13084      271.65038     -2325.5096      960.18531      0.99696118
   2183000  -313.68646      58.965904     -372.65237      313.99744     -463.21156      960.18531      0.99696118
   2184000  -299.41858      57.686855     -357.10544      307.18642      840.32819      960.18531      0.99696118
   2185000  -309.98597      61.017464     -371.00344      324.92214      1923.9068      960.18531      0.99696118
   2186000  -318.12353      50.501833     -368.62536      268.92569     -969.77016      960.18531      0.99696118
   2187000  -304.91616      61.028287     -365.94445      324.97977     -1164.9623      960.18531      0.99696118
   2188000  -298.8972       57.954485     -356.85169      308.61156     -251.6707       960.18531      0.99696118
   2189000  -317.92444      60.59353      -378.51797      322.66466     -1660.3168      960.18531      0.99696118
   2190000  -310.42475      56.254727     -366.67948      299.56024      3818.977       960.18531      0.99696118
   2191000  -313.28318      54.885706     -368.16889      292.27011      1012.5567      960.18531      0.99696118
   2192000  -328.5229       53.346504     -381.8694       284.07376      524.54661      960.18531      0.99696118
   2193000  -308.05476      57.608329     -365.66309      306.76826     -1143.5258      960.18531      0.99696118
   2194000  -321.74049      48.975438     -370.71593      260.79753     -1929.8387      960.18531      0.99696118
   2195000  -315.58853      55.092989     -370.68152      293.37391      81.83659       960.18531      0.99696118
   2196000  -330.28944      50.348685     -380.63813      268.11017      2647.2959      960.18531      0.99696118
   2197000  -299.11688      51.50076      -350.61764      274.24504      1514.6307      960.18531      0.99696118
   2198000  -314.06266      61.517456     -375.58012      327.58463      4515.0619      960.18531      0.99696118
   2199000  -324.04889      55.328218     -379.3771       294.62651      894.7996       960.18531      0.99696118
   2200000  -310.99366      63.126193     -374.11986      336.15126     -594.82406      960.18531      0.99696118
   2201000  -305.12256      56.420276     -361.54283      300.4418       1229.707       960.18531      0.99696118
   2202000  -329.78158      53.13206      -382.91364      282.93183     -5952.7483      960.18531      0.99696118
   2203000  -314.22788      62.564985     -376.79286      333.16279     -2980.8595      960.18531      0.99696118
   2204000  -324.80406      50.964993     -375.76905      271.39205      1721.3432      960.18531      0.99696118
   2205000  -316.8327       53.340544     -370.17324      284.04202     -2478.3289      960.18531      0.99696118
   2206000  -315.55665      58.121087     -373.67773      309.49874     -675.94734      960.18531      0.99696118
   2207000  -328.22491      52.64924      -380.87415      280.36078      1429.2329      960.18531      0.99696118
   2208000  -325.83209      55.848436     -381.68052      297.39671     -721.45939      960.18531      0.99696118
   2209000  -316.2677       59.238849     -375.50655      315.45089     -1544.2685      960.18531      0.99696118
   2210000  -316.94341      50.4706       -367.41401      268.75937     -3174.06        960.18531      0.99696118
   2211000  -333.97644      51.299768     -385.27621      273.17475     -1093.1293      960.18531      0.99696118
   2212000  -316.68718      56.770073     -373.45726      302.30449      1589.1934      960.18531      0.99696118
   2213000  -341.99455      50.340521     -392.33507      268.06669     -349.17363      960.18531      0.99696118
   2214000  -326.75827      51.814094     -378.57237      275.91357      1644.1809      960.18531      0.99696118
   2215000  -321.61134      54.158185     -375.76953      288.39601     -1856.7027      960.18531      0.99696118
   2216000  -306.74012      63.263329     -370.00345      336.88152      460.85879      960.18531      0.99696118
   2217000  -308.41399      57.872962     -366.28696      308.17745      933.23864      960.18531      0.99696118
   2218000  -329.34061      53.710141     -383.05075      286.01015     -855.51088      960.18531      0.99696118
   2219000  -310.13181      52.920947     -363.05276      281.80764     -1633.1547      960.18531      0.99696118
   2220000  -302.35375      54.730896     -357.08464      291.44574      601.93295      960.18531      0.99696118
   2221000  -325.09229      52.367552     -377.45985      278.86077      2158.7207      960.18531      0.99696118
   2222000  -307.8124       58.631102     -366.4435       312.2146       64.101325      960.18531      0.99696118
   2223000  -305.76093      65.313647     -371.07458      347.79961      1829.3759      960.18531      0.99696118
   2224000  -319.92995      56.767608     -376.69756      302.29136     -966.00901      960.18531      0.99696118
   2225000  -323.98477      45.665656     -369.65043      243.17272     -746.12128      960.18531      0.99696118
   2226000  -290.31235      75.50237      -365.81472      402.05525      778.69341      960.18531      0.99696118
   2227000  -316.19409      54.059344     -370.25344      287.86967      1069.1375      960.18531      0.99696118
   2228000  -318.15967      57.003657     -375.16333      303.54834     -2505.3443      960.18531      0.99696118
   2229000  -329.6252       55.709244     -385.33444      296.6555      -1519.655       960.18531      0.99696118
   2230000  -333.79156      55.260009     -389.05157      294.2633      -3127.0664      960.18531      0.99696118
   2231000  -313.30463      55.467869     -368.7725       295.37017      513.7521       960.18531      0.99696118
   2232000  -325.97567      56.17735      -382.15302      299.1482      -2040.5468      960.18531      0.99696118
   2233000  -333.97165      53.946214     -387.91787      287.26725     -958.50132      960.18531      0.99696118
   2234000  -316.30324      58.393849     -374.69709      310.95121      1170.9113      960.18531      0.99696118
   2235000  -325.4137       55.454627     -380.86833      295.29965     -344.71428      960.18531      0.99696118
   2236000  -326.48615      50.7278       -377.21395      270.12898      453.67595      960.18531      0.99696118
   2237000  -313.91539      48.385378     -362.30076      257.65542     -127.94035      960.18531      0.99696118
   2238000  -300.71597      69.21266      -369.92863      368.56212      3394.8149      960.18531      0.99696118
   2239000  -313.04732      50.684867     -363.73219      269.90036     -583.11147      960.18531      0.99696118
   2240000  -304.79907      56.287319     -361.08639      299.73379     -5900.0651      960.18531      0.99696118
   2241000  -304.28556      57.310428     -361.59599      305.18192      1190.6442      960.18531      0.99696118
   2242000  -326.36603      50.129293     -376.49532      266.94189     -1400.7029      960.18531      0.99696118
   2243000  -313.71505      67.63732      -381.35237      360.17332     -3595.5646      960.18531      0.99696118
   2244000  -312.7103       64.463213     -377.17351      343.27098      2387.7722      960.18531      0.99696118
   2245000  -313.66012      60.382898     -374.04302      321.54303     -878.55836      960.18531      0.99696118
   2246000  -308.02752      56.204243     -364.23176      299.29141      1372.7809      960.18531      0.99696118
   2247000  -324.48098      54.088557     -378.56954      288.02524      1914.8364      960.18531      0.99696118
   2248000  -304.79318      70.944307     -375.73748      377.78325      367.26703      960.18531      0.99696118
   2249000  -319.27462      58.36409      -377.63871      310.79274      1387.2188      960.18531      0.99696118
   2250000  -303.94366      69.620579     -373.56424      370.73431      3153.9807      960.18531      0.99696118
   2251000  -302.87756      60.904836     -363.7824       324.32239     -1140.0007      960.18531      0.99696118
   2252000  -318.42991      42.595543     -361.02546      226.82416     -5018.6467      960.18531      0.99696118
   2253000  -304.09169      66.516015     -370.6077       354.2023       2954.4849      960.18531      0.99696118
   2254000  -327.09228      50.054849     -377.14713      266.54547      3050.7798      960.18531      0.99696118
   2255000  -307.65309      60.773971     -368.42706      323.62552      1991.8254      960.18531      0.99696118
   2256000  -321.86716      60.125918     -381.99307      320.17459      2261.2134      960.18531      0.99696118
   2257000  -314.58964      55.705493     -370.29513      296.63553     -702.14956      960.18531      0.99696118
   2258000  -303.28756      56.161966     -359.44953      299.06628     -2791.1459      960.18531      0.99696118
   2259000  -319.43794      50.160619     -369.59856      267.1087      -998.35357      960.18531      0.99696118
   2260000  -299.64931      54.230197     -353.8795       288.77948     -2629.4678      960.18531      0.99696118
   2261000  -316.18526      53.12074      -369.306        282.87155     -1390.223       960.18531      0.99696118
   2262000  -323.41379      50.437648     -373.85143      268.5839       295.99495      960.18531      0.99696118
   2263000  -310.78364      55.601941     -366.38558      296.08411     -1146.9241      960.18531      0.99696118
   2264000  -305.36331      64.234408     -369.59772      342.05259     -261.43535      960.18531      0.99696118
   2265000  -302.25928      59.979755     -362.23904      319.39627      1755.297       960.18531      0.99696118
   2266000  -308.45981      55.144732     -363.60454      293.64944     -355.114        960.18531      0.99696118
   2267000  -326.89846      56.79585      -383.6943       302.44175     -1312.008       960.18531      0.99696118
   2268000  -314.74512      68.23245      -382.97757      363.34243     -2232.056       960.18531      0.99696118
   2269000  -320.91125      51.346829     -372.25808      273.42535      4651.155       960.18531      0.99696118
   2270000  -317.33668      51.913113     -369.24979      276.44085     -2363.1462      960.18531      0.99696118
   2271000  -327.32434      55.469059     -382.7934       295.3765      -1004.8863      960.18531      0.99696118
   2272000  -322.39613      56.798641     -379.19477      302.45662      2632.6432      960.18531      0.99696118
   2273000  -332.82371      50.83886      -383.66257      270.72038      226.04896      960.18531      0.99696118
   2274000  -296.28704      52.756632     -349.04367      280.93265      60.300545      960.18531      0.99696118
   2275000  -328.55957      53.19002      -381.74959      283.24047     -111.17279      960.18531      0.99696118
   2276000  -323.85147      56.519071     -380.37054      300.96789      2221.2435      960.18531      0.99696118
   2277000  -293.63366      71.669809     -365.30347      381.6466       237.01057      960.18531      0.99696118
   2278000  -314.10295      55.404304     -369.50726      295.03168     -897.28185      960.18531      0.99696118
   2279000  -296.24715      67.692791     -363.93994      360.46871     -1745.2546      960.18531      0.99696118
   2280000  -326.34269      57.811673     -384.15436      307.85108     -1010.5948      960.18531      0.99696118
   2281000  -316.48385      59.753293     -376.23714      318.19034     -1672.7288      960.18531      0.99696118
   2282000  -325.89664      54.395658     -380.2923       289.66057     -2983.4347      960.18531      0.99696118
   2283000  -317.95684      62.239852     -380.19669      331.43144     -952.15304      960.18531      0.99696118
   2284000  -317.02527      47.461016     -364.48629      252.73313     -2216.8452      960.18531      0.99696118
   2285000  -314.92217      56.243947     -371.16611      299.50283     -5176.625       960.18531      0.99696118
   2286000  -328.06486      52.78939      -380.85425      281.10708     -3239.0348      960.18531      0.99696118
   2287000  -313.70791      60.882514     -374.59042      324.20352     -417.93212      960.18531      0.99696118
   2288000  -317.20915      55.206526     -372.41568      293.9785      -1220.9835      960.18531      0.99696118
   2289000  -302.42471      66.942737     -369.36744      356.47462      868.1997       960.18531      0.99696118
   2290000  -294.36833      62.397231     -356.76556      332.26949      1974.1738      960.18531      0.99696118
   2291000  -288.71072      69.959174     -358.66989      372.53735      2348.7977      960.18531      0.99696118
   2292000  -311.96482      53.391208     -365.35603      284.31181      2647.8924      960.18531      0.99696118
   2293000  -301.70473      62.25195      -363.95668      331.49586      2668.1764      960.18531      0.99696118
   2294000  -331.82414      55.061158     -386.8853       293.20441     -1343.5696      960.18531      0.99696118
   2295000  -317.1229       60.305939     -377.42884      321.13322      873.46684      960.18531      0.99696118
   2296000  -322.87199      51.064247     -373.93624      271.92058     -2150.154       960.18531      0.99696118
   2297000  -315.60726      60.984437     -376.5917       324.74627     -2668.653       960.18531      0.99696118
   2298000  -324.80759      53.885823     -378.69341      286.94566      3896.8662      960.18531      0.99696118
   2299000  -326.05177      52.556158     -378.60792      279.86511      354.22875      960.18531      0.99696118
   2300000  -313.72403      57.046888     -370.77092      303.77855     -624.12456      960.18531      0.99696118
   2301000  -334.14108      52.391918     -386.533        278.99052     -1586.9886      960.18531      0.99696118
   2302000  -312.50912      52.603244     -365.11237      280.11585     -847.28259      960.18531      0.99696118
   2303000  -301.40949      67.074488     -368.48398      357.1762       1107.5797      960.18531      0.99696118
   2304000  -320.02896      45.923295     -365.95225      244.54466      1474.5107      960.18531      0.99696118
   2305000  -325.07369      55.507484     -380.58117      295.58112     -2636.6413      960.18531      0.99696118
   2306000  -317.3432       57.173955     -374.51716      304.45519     -4938.176       960.18531      0.99696118
   2307000  -304.2303       59.953828     -364.18413      319.2582      -2169.5833      960.18531      0.99696118
   2308000  -319.62411      58.456727     -378.08084      311.28604      2088.0858      960.18531      0.99696118
   2309000  -330.60246      50.549665     -381.15212      269.1804       752.17876      960.18531      0.99696118
   2310000  -332.09885      56.240588     -388.33944      299.48495     -437.89512      960.18531      0.99696118
   2311000  -326.44183      56.210648     -382.65248      299.32551     -436.75438      960.18531      0.99696118
   2312000  -315.98777      55.180541     -371.16831      293.84013     -488.75465      960.18531      0.99696118
   2313000  -324.91563      44.682424     -369.59805      237.93694      1322.581       960.18531      0.99696118
   2314000  -301.44459      66.566833     -368.01142      354.4729       3338.657       960.18531      0.99696118
   2315000  -323.2165       52.9602       -376.1767       282.01666     -430.58585      960.18531      0.99696118
   2316000  -312.68853      50.520012     -363.20854      269.02249     -679.42292      960.18531      0.99696118
   2317000  -306.60552      54.412111     -361.01764      289.74819     -1812.4429      960.18531      0.99696118
   2318000  -318.57505      47.868468     -366.44352      254.90284     -254.3048       960.18531      0.99696118
   2319000  -297.78834      62.38601      -360.17435      332.20974     -144.55429      960.18531      0.99696118
   2320000  -312.96788      54.552676     -367.52055      290.4967      -1183.1128      960.18531      0.99696118
   2321000  -323.09372      55.616915     -378.71063      296.16385     -358.76516      960.18531      0.99696118
   2322000  -320.32977      60.103365     -380.43313      320.0545       3537.69        960.18531      0.99696118
   2323000  -319.18133      60.461908     -379.64324      321.96377      2453.6981      960.18531      0.99696118
   2324000  -319.55584      53.683443     -373.23928      285.86798      1323.4278      960.18531      0.99696118
   2325000  -316.32074      55.938769     -372.2595       297.87774     -614.55637      960.18531      0.99696118
   2326000  -319.81947      59.614131     -379.4336       317.44929     -2133.1411      960.18531      0.99696118
   2327000  -305.22127      56.433416     -361.65468      300.51177     -1342.2139      960.18531      0.99696118
   2328000  -313.54323      54.267053     -367.81028      288.97574     -218.33949      960.18531      0.99696118
   2329000  -321.92163      57.475536     -379.39717      306.06113     -149.30157      960.18531      0.99696118
   2330000  -328.63473      49.662898     -378.29763      264.4583       746.44342      960.18531      0.99696118
   2331000  -311.22928      51.064692     -362.29397      271.92295      1605.1252      960.18531      0.99696118
   2332000  -325.60501      53.322257     -378.92727      283.94464     -588.94122      960.18531      0.99696118
   2333000  -315.57483      70.972254     -386.54708      377.93207      1206.357       960.18531      0.99696118
   2334000  -303.87774      66.816517     -370.69426      355.80249      798.31933      960.18531      0.99696118
   2335000  -313.38736      46.46428      -359.85164      247.42545      851.81119      960.18531      0.99696118
   2336000  -300.35425      55.654582     -356.00883      296.36443      4428.3524      960.18531      0.99696118
   2337000  -302.8338       64.847012     -367.68081      345.31474     -508.12938      960.18531      0.99696118
   2338000  -322.12432      53.027422     -375.15175      282.37462     -3190.0139      960.18531      0.99696118
   2339000  -307.82602      69.151788     -376.97781      368.23797     -2080.2558      960.18531      0.99696118
   2340000  -305.55027      56.848181     -362.39845      302.72043      440.10586      960.18531      0.99696118
   2341000  -326.60076      51.875977     -378.47673      276.2431       1573.8998      960.18531      0.99696118
   2342000  -314.84544      53.260209     -368.10565      283.61423      1800.6112      960.18531      0.99696118
   2343000  -338.73352      44.744292     -383.47781      238.26639     -2828.1989      960.18531      0.99696118
   2344000  -316.82756      54.929922     -371.75748      292.50556      1221.1442      960.18531      0.99696118
   2345000  -302.89348      62.568695     -365.46218      333.18255      1165.7395      960.18531      0.99696118
   2346000  -319.44765      60.17422      -379.62187      320.4318      -1667.0971      960.18531      0.99696118
   2347000  -304.69461      65.322543     -370.01716      347.84698      5105.2418      960.18531      0.99696118
   2348000  -321.03682      57.909669     -378.94649      308.37292      3089.7296      960.18531      0.99696118
   2349000  -306.3871       58.485201     -364.8723       311.43766     -2810.1057      960.18531      0.99696118
   2350000  -312.85957      59.122034     -371.98161      314.82885     -818.02593      960.18531      0.99696118
   2351000  -319.08356      51.882399     -370.96596      276.2773      -151.85747      960.18531      0.99696118
   2352000  -313.38395      55.807344     -369.19129      297.17789     -2192.633       960.18531      0.99696118
   2353000  -317.58162      52.427814     -370.00943      279.18167      1644.5788      960.18531      0.99696118
   2354000  -304.29391      60.803539     -365.09745      323.78297     -1684.1916      960.18531      0.99696118
   2355000  -294.97751      65.282238     -360.25975      347.63235      1472.3652      960.18531      0.99696118
   2356000  -325.18755      52.635042     -377.82259      280.28517     -3212.699       960.18531      0.99696118
   2357000  -315.45713      50.960293     -366.41743      271.36702     -953.04321      960.18531      0.99696118
   2358000  -307.75649      51.996218     -359.75271      276.88339      2367.4632      960.18531      0.99696118
   2359000  -321.17916      59.294154     -380.47331      315.7454       413.16956      960.18531      0.99696118
   2360000  -317.29267      60.312768     -377.60544      321.16958     -252.83085      960.18531      0.99696118
   2361000  -296.94265      62.663775     -359.60643      333.68886      4253.6889      960.18531      0.99696118
   2362000  -306.34777      60.091223     -366.43899      319.98984     -69.502801      960.18531      0.99696118
   2363000  -318.55377      48.834174     -367.38795      260.04529      1422.6893      960.18531      0.99696118
   2364000  -317.87627      46.573731     -364.45         248.00828      337.34853      960.18531      0.99696118
   2365000  -315.05599      56.393201     -371.44919      300.29763      977.11115      960.18531      0.99696118
   2366000  -305.18815      67.43077      -372.61892      359.07343     -1063.0092      960.18531      0.99696118
   2367000  -320.86216      54.716288     -375.57844      291.36795     -3049.5206      960.18531      0.99696118
   2368000  -328.20688      54.616364     -382.82324      290.83585      2831.551       960.18531      0.99696118
   2369000  -301.92406      58.869529     -360.79359      313.48424      1081.0731      960.18531      0.99696118
   2370000  -310.07771      56.384709     -366.46242      300.2524       1237.2816      960.18531      0.99696118
   2371000  -336.77025      52.351855     -389.1221       278.77718     -170.79209      960.18531      0.99696118
   2372000  -305.29806      64.339427     -369.63749      342.61182      1171.9369      960.18531      0.99696118
   2373000  -318.38755      55.395341     -373.78289      294.98395      859.91877      960.18531      0.99696118
   2374000  -320.38363      60.395183     -380.77881      321.60845     -1586.779       960.18531      0.99696118
   2375000  -323.63652      57.33484      -380.97136      305.31192      2024.9115      960.18531      0.99696118
   2376000  -330.0493       59.124514     -389.17382      314.84205     -712.6805       960.18531      0.99696118
   2377000  -316.11779      51.681304     -367.79909      275.20645     -3842.1844      960.18531      0.99696118
   2378000  -322.33168      57.905688     -380.23737      308.35172      2403.0537      960.18531      0.99696118
   2379000  -333.0732       48.411502     -381.4847       257.79454      644.98455      960.18531      0.99696118
   2380000  -328.89549      55.28022      -384.17571      294.37092      1955.4934      960.18531      0.99696118
   2381000  -331.38702      48.644635     -380.03166      259.03598     -693.27292      960.18531      0.99696118
   2382000  -319.04409      58.99946      -378.04355      314.17613      1596.1795      960.18531      0.99696118
   2383000  -329.28556      50.234474     -379.52003      267.50199      2552.4722      960.18531      0.99696118
   2384000  -307.06233      64.873975     -371.93631      345.45832     -1483.3372      960.18531      0.99696118
   2385000  -307.63871      62.637912     -370.27663      333.55114      1446.8818      960.18531      0.99696118
   2386000  -328.21921      56.434225     -384.65343      300.51608      1988.1117      960.18531      0.99696118
   2387000  -307.00752      53.785184     -360.79271      286.40976     -202.94125      960.18531      0.99696118
   2388000  -315.39576      55.062877     -370.45864      293.21356      877.07782      960.18531      0.99696118
   2389000  -330.16157      53.870167     -384.03173      286.8623       2209.9221      960.18531      0.99696118
   2390000  -323.65087      55.785204     -379.43608      297.06         925.00437      960.18531      0.99696118
   2391000  -322.36041      66.797823     -389.15823      355.70294      1699.2299      960.18531      0.99696118
   2392000  -325.89125      54.167032     -380.05828      288.44312      417.04236      960.18531      0.99696118
   2393000  -319.50887      52.598857     -372.10772      280.09249      1436.6367      960.18531      0.99696118
   2394000  -320.75589      55.999579     -376.75547      298.20156     -686.84283      960.18531      0.99696118
   2395000  -298.94183      59.927917     -358.86975      319.12023      821.67032      960.18531      0.99696118
   2396000  -317.53104      59.036591     -376.56763      314.37385     -238.76394      960.18531      0.99696118
   2397000  -321.23825      53.313892     -374.55214      283.90009     -579.83574      960.18531      0.99696118
   2398000  -301.64207      55.923413     -357.56549      297.79597     -803.85275      960.18531      0.99696118
   2399000  -316.58761      53.765543     -370.35315      286.30517      3890.2523      960.18531      0.99696118
   2400000  -331.00327      46.607547     -377.61082      248.18835     -3269.9689      960.18531      0.99696118
   2401000  -308.54053      62.312625     -370.85315      331.81896      2081.5539      960.18531      0.99696118
   2402000  -330.2237       56.156396     -386.38009      299.03662     -1457.0946      960.18531      0.99696118
   2403000  -322.11532      47.237935     -369.35325      251.54521     -2372.7247      960.18531      0.99696118
   2404000  -328.26063      50.107731     -378.36836      266.82707      4590.1585      960.18531      0.99696118
   2405000  -297.07113      55.057183     -352.12831      293.18324      1362.9256      960.18531      0.99696118
   2406000  -322.92519      50.71377      -373.63897      270.05427      2296.26        960.18531      0.99696118
   2407000  -331.54005      57.797482     -389.33753      307.77551     -1741.9249      960.18531      0.99696118
   2408000  -315.40882      54.916849     -370.32566      292.43595      198.40159      960.18531      0.99696118
   2409000  -317.0212       56.166485     -373.18769      299.09034      1444.5792      960.18531      0.99696118
   2410000  -323.08759      51.19737      -374.28496      272.62947      2361.3809      960.18531      0.99696118
   2411000  -321.6868       55.225554     -376.91235      294.07983     -603.1212       960.18531      0.99696118
   2412000  -326.17595      60.116248     -386.2922       320.1231       663.07184      960.18531      0.99696118
   2413000  -318.63276      60.27938      -378.91214      320.99179     -2994.2751      960.18531      0.99696118
   2414000  -326.8953       60.304138     -387.19944      321.12363     -7027.9987      960.18531      0.99696118
   2415000  -320.90489      55.768974     -376.67386      296.97357     -2206.3026      960.18531      0.99696118
   2416000  -322.45185      52.182322     -374.63417      277.87441      2655.3621      960.18531      0.99696118
   2417000  -334.60298      43.236489     -377.83946      230.23724     -2055.7591      960.18531      0.99696118
   2418000  -301.6013       58.271229     -359.87253      310.29825      2664.2139      960.18531      0.99696118
   2419000  -345.711        44.544866     -390.25587      237.20444     -1959.6681      960.18531      0.99696118
   2420000  -315.87175      61.443553     -377.3153       327.19109     -360.89591      960.18531      0.99696118
   2421000  -332.08299      58.635211     -390.7182       312.23648      2050.1329      960.18531      0.99696118
   2422000  -312.30681      57.344001     -369.65081      305.3607      -798.47983      960.18531      0.99696118
   2423000  -336.56026      44.615755     -381.17602      237.58192      3744.457       960.18531      0.99696118
   2424000  -308.66852      55.173038     -363.84155      293.80017      760.43602      960.18531      0.99696118
   2425000  -329.47224      47.58858      -377.06082      253.41242      1982.2564      960.18531      0.99696118
   2426000  -323.05944      59.674207     -382.73364      317.7692       474.32957      960.18531      0.99696118
   2427000  -322.87315      50.347886     -373.22104      268.10591     -1549.6774      960.18531      0.99696118
   2428000  -307.92193      64.675592     -372.59752      344.40192     -1285.0797      960.18531      0.99696118
   2429000  -323.78265      54.20865      -377.9913       288.66474     -510.97907      960.18531      0.99696118
   2430000  -317.42625      52.971372     -370.39762      282.07615     -570.27657      960.18531      0.99696118
   2431000  -331.60047      53.386537     -384.98701      284.28694      4680.2543      960.18531      0.99696118
   2432000  -323.50974      59.367121     -382.87686      316.13395     -170.2585       960.18531      0.99696118
   2433000  -297.89838      75.093327     -372.9917       399.87706      2127.7335      960.18531      0.99696118
   2434000  -308.83436      56.968861     -365.80322      303.36305      3597.1086      960.18531      0.99696118
   2435000  -314.63877      54.84216      -369.48093      292.03823      142.81561      960.18531      0.99696118
   2436000  -322.85228      55.841016     -378.6933       297.3572      -1735.7413      960.18531      0.99696118
   2437000  -314.9014       57.634821     -372.53622      306.90933     -2585.5821      960.18531      0.99696118
   2438000  -302.07311      50.248584     -352.3217       267.57712      205.88424      960.18531      0.99696118
   2439000  -324.34004      60.642843     -384.98288      322.92726     -1953.0697      960.18531      0.99696118
   2440000  -339.56735      54.331885     -393.89924      289.32098      1581.7313      960.18531      0.99696118
   2441000  -336.5603       47.874233     -384.43453      254.93354     -2482.1743      960.18531      0.99696118
   2442000  -316.25383      56.22504      -372.47887      299.40216     -4241.7354      960.18531      0.99696118
   2443000  -315.13168      67.525024     -382.65671      359.57534     -128.17816      960.18531      0.99696118
   2444000  -303.6888       66.203489     -369.89229      352.53808      1560.6767      960.18531      0.99696118
   2445000  -296.73584      64.536099     -361.27194      343.65911      6192.5344      960.18531      0.99696118
   2446000  -311.06392      53.973864     -365.03779      287.41449     -2692.9441      960.18531      0.99696118
   2447000  -304.68155      63.95158      -368.63313      340.54651     -482.35917      960.18531      0.99696118
   2448000  -319.72468      61.189639     -380.91432      325.83898     -2030.8184      960.18531      0.99696118
   2449000  -321.40361      53.974028     -375.37764      287.41536     -677.67864      960.18531      0.99696118
   2450000  -316.86885      60.752883     -377.62173      323.51323      1632.6346      960.18531      0.99696118
   2451000  -328.59893      58.657402     -387.25633      312.35465      22.769562      960.18531      0.99696118
   2452000  -297.37774      63.062887     -360.44063      335.81415     -1030.1991      960.18531      0.99696118
   2453000  -311.09211      52.584517     -363.67663      280.01612      2722.4771      960.18531      0.99696118
   2454000  -313.56313      50.013604     -363.57673      266.32584      3204.0086      960.18531      0.99696118
   2455000  -306.49222      61.5295       -368.02172      327.64876      6070.0316      960.18531      0.99696118
   2456000  -318.40713      56.739001     -375.14613      302.13903      306.41957      960.18531      0.99696118
   2457000  -316.46198      55.638427     -372.10041      296.2784      -1082.6696      960.18531      0.99696118
   2458000  -314.40057      51.641987     -366.04255      274.99708     -2122.9851      960.18531      0.99696118
   2459000  -335.75748      44.813748     -380.57123      238.63625     -3185.7394      960.18531      0.99696118
   2460000  -325.65971      50.257539     -375.91725      267.6248      -1784.349       960.18531      0.99696118
   2461000  -327.37738      44.662369     -372.03975      237.83014     -2389.4997      960.18531      0.99696118
   2462000  -309.19093      58.587268     -367.7782       311.98118     -392.23012      960.18531      0.99696118
   2463000  -327.29533      55.329314     -382.62464      294.63235      772.92219      960.18531      0.99696118
   2464000  -315.51531      51.494812     -367.01012      274.21337      2327.0056      960.18531      0.99696118
   2465000  -328.56153      49.720186     -378.28172      264.76337      375.23538      960.18531      0.99696118
   2466000  -308.87546      65.139234     -374.01469      346.87084      553.67247      960.18531      0.99696118
   2467000  -331.22169      53.86305      -385.08474      286.8244      -2102.0782      960.18531      0.99696118
   2468000  -313.43771      56.409269     -369.84697      300.38319     -3743.0596      960.18531      0.99696118
   2469000  -330.55916      56.005267     -386.56443      298.23185      2369.8889      960.18531      0.99696118
   2470000  -325.10116      52.427569     -377.52873      279.18037      172.52417      960.18531      0.99696118
   2471000  -296.99004      55.052441     -352.04248      293.15798      198.95354      960.18531      0.99696118
   2472000  -305.62036      56.604971     -362.22533      301.42531     -1560.0196      960.18531      0.99696118
   2473000  -318.49981      57.960335     -376.46014      308.64272      1602.2524      960.18531      0.99696118
   2474000  -327.13093      54.142167     -381.27309      288.31071     -2414.5747      960.18531      0.99696118
   2475000  -322.30139      49.031188     -371.33258      261.0944      -2286.0326      960.18531      0.99696118
   2476000  -313.72467      54.00006      -367.72473      287.55399     -773.83657      960.18531      0.99696118
   2477000  -332.34785      48.347155     -380.695        257.45188      663.05736      960.18531      0.99696118
   2478000  -321.07867      50.610481     -371.68916      269.50425      525.28649      960.18531      0.99696118
   2479000  -327.8515       47.023076     -374.87458      250.40107      327.35421      960.18531      0.99696118
   2480000  -327.63913      55.874085     -383.51321      297.53329      5372.0602      960.18531      0.99696118
   2481000  -321.6183       56.249843     -377.86814      299.53423     -3169.9915      960.18531      0.99696118
   2482000  -303.10599      65.797039     -368.90303      350.3737       7660.8374      960.18531      0.99696118
   2483000  -319.88071      49.325134     -369.20585      262.65969     -2616.988       960.18531      0.99696118
   2484000  -311.20813      56.094644     -367.30277      298.70779      105.3916       960.18531      0.99696118
   2485000  -315.71445      61.97304      -377.68749      330.01064      3804.9037      960.18531      0.99696118
   2486000  -330.82344      61.348413     -392.17185      326.68447     -846.37402      960.18531      0.99696118
   2487000  -331.39715      44.59639      -375.99354      237.4788      -722.20129      960.18531      0.99696118
   2488000  -310.2644       60.549214     -370.81361      322.42867      1980.2947      960.18531      0.99696118
   2489000  -334.09927      43.306982     -377.40626      230.61262      36.592141      960.18531      0.99696118
   2490000  -312.43759      60.709965     -373.14755      323.28469      132.61035      960.18531      0.99696118
   2491000  -316.98609      57.767717     -374.7538       307.61701      928.83581      960.18531      0.99696118
   2492000  -314.43961      60.607865     -375.04748      322.741        1539.5972      960.18531      0.99696118
   2493000  -301.8035       62.342032     -364.14553      331.97555     -2853.0424      960.18531      0.99696118
   2494000  -301.6666       63.427834     -365.09443      337.75752      1108.5963      960.18531      0.99696118
   2495000  -312.20446      50.970604     -363.17506      271.42193      494.57539      960.18531      0.99696118
   2496000  -280.37157      67.426188     -347.79776      359.04903     -246.10486      960.18531      0.99696118
   2497000  -320.69404      65.699647     -386.39369      349.85508      1683.1814      960.18531      0.99696118
   2498000  -332.30446      51.477554     -383.78202      274.12147      1042.6755      960.18531      0.99696118
   2499000  -286.67977      62.581493     -349.26126      333.2507       1664.685       960.18531      0.99696118
   2500000  -312.12544      51.345949     -363.47139      273.42066     -1239.287       960.18531      0.99696118
   2501000  -321.34096      51.817651     -373.15861      275.93251      1560.5653      960.18531      0.99696118
   2502000  -321.54048      57.010104     -378.55058      303.58268      641.57363      960.18531      0.99696118
   2503000  -309.11578      49.236271     -358.35205      262.18649      1787.7799      960.18531      0.99696118
   2504000  -307.83109      57.719403     -365.55049      307.35974     -1214.5965      960.18531      0.99696118
   2505000  -321.86418      49.017735     -370.88192      261.02277     -50.916835      960.18531      0.99696118
   2506000  -307.20287      56.753563     -363.95644      302.21658     -1398.0004      960.18531      0.99696118
   2507000  -328.83354      55.927056     -384.76059      297.81537      1396.2786      960.18531      0.99696118
   2508000  -316.2088       55.118317     -371.32712      293.50878     -3377.2831      960.18531      0.99696118
   2509000  -321.14669      53.919435     -375.06613      287.12465      359.46752      960.18531      0.99696118
   2510000  -311.6305       55.104837     -366.73533      293.437       -4156.0621      960.18531      0.99696118
   2511000  -310.55301      50.860091     -361.4131       270.83344      639.97174      960.18531      0.99696118
   2512000  -321.67453      45.583777     -367.25831      242.73671      1848.9595      960.18531      0.99696118
   2513000  -314.47863      58.236397     -372.71502      310.11276      1242.7104      960.18531      0.99696118
   2514000  -305.25774      57.444218     -362.70196      305.89436     -4078.0062      960.18531      0.99696118
   2515000  -310.71405      55.907021     -366.62108      297.70868     -152.17566      960.18531      0.99696118
   2516000  -311.76345      59.972351     -371.7358       319.35684      1116.1742      960.18531      0.99696118
   2517000  -308.35523      60.89355      -369.24878      324.26229      174.52858      960.18531      0.99696118
   2518000  -324.84278      58.326376     -383.16916      310.59191      2171.6342      960.18531      0.99696118
   2519000  -322.92063      52.570198     -375.49083      279.93987      7333.3528      960.18531      0.99696118
   2520000  -328.64839      55.852995     -384.50138      297.42099      2421.7829      960.18531      0.99696118
   2521000  -326.74296      54.919196     -381.66216      292.44845     -2038.4976      960.18531      0.99696118
   2522000  -310.14578      57.084311     -367.23009      303.97783      2578.235       960.18531      0.99696118
   2523000  -336.35937      50.796505     -387.15587      270.49484     -306.4837       960.18531      0.99696118
   2524000  -315.01686      54.519959     -369.53682      290.32248      656.56161      960.18531      0.99696118
   2525000  -313.91666      55.794919     -369.71158      297.11173     -1648.7817      960.18531      0.99696118
   2526000  -310.64876      50.393571     -361.04233      268.34919     -1031.7591      960.18531      0.99696118
   2527000  -322.785        59.634889     -382.41989      317.55983     -1396.129       960.18531      0.99696118
   2528000  -314.37098      55.587851     -369.95883      296.00908     -2343.6646      960.18531      0.99696118
   2529000  -320.51617      51.502074     -372.01825      274.25204      647.9706       960.18531      0.99696118
   2530000  -337.94509      54.593119     -392.53821      290.71206     -265.4825       960.18531      0.99696118
   2531000  -324.82621      46.374727     -371.20093      246.94857     -1697.6724      960.18531      0.99696118
   2532000  -317.20188      64.117486     -381.31936      341.42997      39.303932      960.18531      0.99696118
   2533000  -300.04324      63.492458     -363.5357       338.10165     -390.13209      960.18531      0.99696118
   2534000  -322.34541      47.338582     -369.68399      252.08117     -1218.7849      960.18531      0.99696118
   2535000  -310.59084      62.001771     -372.59261      330.16364     -4206.6231      960.18531      0.99696118
   2536000  -316.75227      48.499438     -365.25171      258.2628      -2796.5031      960.18531      0.99696118
   2537000  -337.39894      55.150536     -392.54947      293.68035     -1687.9755      960.18531      0.99696118
   2538000  -330.46407      58.285307     -388.74938      310.37322      2350.7475      960.18531      0.99696118
   2539000  -318.3038       65.581617     -383.88541      349.22656      1030.763       960.18531      0.99696118
   2540000  -325.06607      53.034705     -378.10077      282.4134      -2291.3528      960.18531      0.99696118
   2541000  -310.168        54.575871     -364.74387      290.62022      1923.3102      960.18531      0.99696118
   2542000  -303.87107      53.29597      -357.16704      283.80466     -2987.7425      960.18531      0.99696118
   2543000  -318.87346      55.781399     -374.65486      297.03974     -1463.0869      960.18531      0.99696118
   2544000  -311.22005      57.111535     -368.33159      304.1228      -4999.3406      960.18531      0.99696118
   2545000  -335.19677      54.706236     -389.90301      291.31442      2.8566225      960.18531      0.99696118
   2546000  -309.07474      53.810054     -362.88479      286.54219      4390.5217      960.18531      0.99696118
   2547000  -316.44999      60.948994     -377.39899      324.55753     -2430.9195      960.18531      0.99696118
   2548000  -312.33224      54.996752     -367.32899      292.86144      1647.3127      960.18531      0.99696118
   2549000  -302.36802      59.667447     -362.03546      317.73321      757.62372      960.18531      0.99696118
   2550000  -298.41513      59.34823      -357.76336      316.03335      289.84155      960.18531      0.99696118
   2551000  -319.49583      59.045313     -378.54115      314.4203      -484.51164      960.18531      0.99696118
   2552000  -319.61078      57.127573     -376.73835      304.20821     -1789.2873      960.18531      0.99696118
   2553000  -316.93613      55.282701     -372.21883      294.38413     -476.46304      960.18531      0.99696118
   2554000  -326.74708      55.770091     -382.51717      296.97952      4084.8462      960.18531      0.99696118
   2555000  -311.5457       55.639776     -367.18548      296.28558     -3089.5922      960.18531      0.99696118
   2556000  -333.10149      61.022495     -394.12399      324.94893     -2090.6077      960.18531      0.99696118
   2557000  -333.79873      50.889793     -384.68853      270.9916      -1202.0315      960.18531      0.99696118
   2558000  -318.90683      51.234766     -370.1416       272.82861      5673.3741      960.18531      0.99696118
   2559000  -313.78648      65.528899     -379.31538      348.94584     -2908.1344      960.18531      0.99696118
   2560000  -320.82183      67.59204      -388.41387      359.9322      -1974.4578      960.18531      0.99696118
   2561000  -308.97496      67.693351     -376.66831      360.47169     -402.68692      960.18531      0.99696118
   2562000  -321.2617       52.780177     -374.04188      281.05803     -606.18034      960.18531      0.99696118
   2563000  -343.3115       50.39996      -393.71146      268.38321     -2158.2379      960.18531      0.99696118
   2564000  -327.16729      47.818307     -374.9856       254.63573     -2461.4223      960.18531      0.99696118
   2565000  -308.06816      43.895758     -351.96392      233.74789     -2006.3382      960.18531      0.99696118
   2566000  -305.02251      53.449922     -358.47243      284.62446     -1774.9916      960.18531      0.99696118
   2567000  -318.06422      61.42726      -379.49148      327.10433      477.32508      960.18531      0.99696118
   2568000  -313.99098      57.477446     -371.46842      306.0713      -1505.6138      960.18531      0.99696118
   2569000  -322.9033       47.407355     -370.31065      252.44738      783.94798      960.18531      0.99696118
   2570000  -325.97696      53.766508     -379.74347      286.3103      -1800.9499      960.18531      0.99696118
   2571000  -287.398        62.389743     -349.78775      332.22962      2707.7357      960.18531      0.99696118
   2572000  -319.00827      52.650251     -371.65852      280.36616      2311.531       960.18531      0.99696118
   2573000  -305.43583      50.970845     -356.40668      271.42321     -1207.4277      960.18531      0.99696118
   2574000  -324.24972      48.504557     -372.75428      258.29006     -1303.2575      960.18531      0.99696118
   2575000  -315.03597      51.12198      -366.15795      272.22801      445.13896      960.18531      0.99696118
   2576000  -294.58497      60.803067     -355.38804      323.78046      1184.8182      960.18531      0.99696118
   2577000  -303.25233      59.782223     -363.03455      318.3444      -673.13535      960.18531      0.99696118
   2578000  -308.32028      61.476154     -369.79643      327.3647      -1720.0542      960.18531      0.99696118
   2579000  -320.08348      56.69667      -376.78015      301.91362     -3469.2667      960.18531      0.99696118
   2580000  -336.67614      50.487819     -387.16396      268.85106     -1151.9755      960.18531      0.99696118
   2581000  -308.96532      57.252718     -366.21804      304.87461     -853.88514      960.18531      0.99696118
   2582000  -328.75027      52.760679     -381.51095      280.9542       1320.6412      960.18531      0.99696118
   2583000  -318.2363       51.284826     -369.52113      273.09518      811.22722      960.18531      0.99696118
   2584000  -309.12237      59.693442     -368.81581      317.87163     -1554.2043      960.18531      0.99696118
   2585000  -306.0888       58.950882     -365.03969      313.91745     -4715.8597      960.18531      0.99696118
   2586000  -324.95803      51.127986     -376.08601      272.25999     -3656.6894      960.18531      0.99696118
   2587000  -309.18967      53.950501     -363.14017      287.29008      228.5772       960.18531      0.99696118
   2588000  -299.12575      62.739247     -361.865        334.09075     -437.99367      960.18531      0.99696118
   2589000  -319.62337      53.982901     -373.60627      287.46261     -3283.2313      960.18531      0.99696118
   2590000  -325.85335      53.448545     -379.3019       284.61713      1000.0186      960.18531      0.99696118
   2591000  -309.0592       49.426215     -358.48542      263.19795      1680.7606      960.18531      0.99696118
   2592000  -306.99527      55.442047     -362.43731      295.23267      2478.603       960.18531      0.99696118
   2593000  -324.67357      53.558945     -378.23251      285.20502      195.1547       960.18531      0.99696118
   2594000  -330.34053      49.509898     -379.85043      263.64357      3380.4867      960.18531      0.99696118
   2595000  -322.00724      48.241339     -370.24858      256.88841     -2101.3894      960.18531      0.99696118
   2596000  -327.2101       55.402753     -382.61286      295.02342      180.51578      960.18531      0.99696118
   2597000  -326.5828       48.479424     -375.06223      258.15622      995.76556      960.18531      0.99696118
   2598000  -321.95171      59.850159     -381.80187      318.70616     -3408.1589      960.18531      0.99696118
   2599000  -310.79867      68.355539     -379.15421      363.99789     -3354.7866      960.18531      0.99696118
   2600000  -322.9368       59.061941     -381.99874      314.50885      843.09679      960.18531      0.99696118
   2601000  -319.24919      51.635971     -370.88516      274.96505      1673.5362      960.18531      0.99696118
   2602000  -323.26201      45.883393     -369.14541      244.33218     -2725.6273      960.18531      0.99696118
   2603000  -316.30319      60.69754      -377.00073      323.21852     -3865.1356      960.18531      0.99696118
   2604000  -323.54888      54.945049     -378.49393      292.58612     -4229.0788      960.18531      0.99696118
   2605000  -329.56886      50.947114     -380.51597      271.29684     -1036.7981      960.18531      0.99696118
   2606000  -321.62291      52.391134     -374.01404      278.98635      5236.9759      960.18531      0.99696118
   2607000  -303.95589      62.55354      -366.50943      333.10185     -2312.2917      960.18531      0.99696118
   2608000  -322.14135      49.822713     -371.96406      265.30933      3245.0401      960.18531      0.99696118
   2609000  -318.59767      49.890716     -368.48839      265.67145     -29.957023      960.18531      0.99696118
   2610000  -337.8554       47.760977     -385.61637      254.33045     -1001.4328      960.18531      0.99696118
   2611000  -333.48537      47.332829     -380.8182       252.05053     -1682.1286      960.18531      0.99696118
   2612000  -305.70321      62.566098     -368.2693       333.16872      765.6081       960.18531      0.99696118
   2613000  -321.6069       60.012306     -381.61921      319.5696       2966.053       960.18531      0.99696118
   2614000  -299.91123      57.824844     -357.73607      307.92122     -1353.7562      960.18531      0.99696118
   2615000  -323.89792      53.047364     -376.94528      282.48081     -2603.192       960.18531      0.99696118
   2616000  -322.00203      58.993328     -380.99535      314.14347     -931.59865      960.18531      0.99696118
   2617000  -292.72345      57.875633     -350.59908      308.19167     -124.78596      960.18531      0.99696118
   2618000  -324.43653      48.462226     -372.89875      258.06464     -2639.0374      960.18531      0.99696118
   2619000  -308.9668       57.465954     -366.43276      306.01011      1105.5847      960.18531      0.99696118
   2620000  -319.52903      53.024223     -372.55325      282.35759      4344.5717      960.18531      0.99696118
   2621000  -314.73203      57.910443     -372.64248      308.37704      796.36008      960.18531      0.99696118
   2622000  -300.19578      63.62838      -363.82416      338.82544      1592.1153      960.18531      0.99696118
   2623000  -331.7378       46.39113      -378.12893      247.03592     -1375.7471      960.18531      0.99696118
   2624000  -320.45124      48.031946     -368.48319      255.77338      1850.0452      960.18531      0.99696118
   2625000  -327.00571      54.763794     -381.76951      291.62092     -698.69524      960.18531      0.99696118
   2626000  -317.29822      53.198025     -370.49624      283.28309     -393.78478      960.18531      0.99696118
   2627000  -322.39024      45.937523     -368.32776      244.62043      4673.6933      960.18531      0.99696118
   2628000  -325.2779       53.774202     -379.0521       286.35128     -181.70669      960.18531      0.99696118
   2629000  -340.61092      48.613081     -389.22401      258.86796     -3106.3963      960.18531      0.99696118
   2630000  -317.36375      64.943906     -382.30765      345.83071     -3455.6526      960.18531      0.99696118
   2631000  -308.871        58.573473     -367.44448      311.90772     -2321.3487      960.18531      0.99696118
   2632000  -320.10663      53.362156     -373.46879      284.1571       2412.651       960.18531      0.99696118
   2633000  -326.78529      48.641116     -375.4264       259.01724     -1062.536       960.18531      0.99696118
   2634000  -318.41025      48.347055     -366.75731      257.45135     -3099.9172      960.18531      0.99696118
   2635000  -304.45276      59.672798     -364.12555      317.7617       3471.1955      960.18531      0.99696118
   2636000  -317.65644      55.567336     -373.22378      295.89983     -874.14877      960.18531      0.99696118
   2637000  -339.36135      48.773539     -388.13489      259.7224      -1021.402       960.18531      0.99696118
   2638000  -325.97409      50.808537     -376.78263      270.55891      1200.6603      960.18531      0.99696118
   2639000  -313.19665      59.829509     -373.02616      318.5962      -1138.7769      960.18531      0.99696118
   2640000  -334.40289      46.30839      -380.71128      246.59532     -4305.3339      960.18531      0.99696118
   2641000  -322.36079      61.187811     -383.5486       325.82925     -4078.0528      960.18531      0.99696118
   2642000  -314.65828      58.350545     -373.00882      310.72061      2703.8423      960.18531      0.99696118
   2643000  -321.87133      52.451715     -374.32304      279.30894     -2373.5192      960.18531      0.99696118
   2644000  -310.31675      59.404471     -369.72122      316.33284     -201.71441      960.18531      0.99696118
   2645000  -317.3148       60.52574      -377.84053      322.30367     -1257.0582      960.18531      0.99696118
   2646000  -293.5473       59.239512     -352.78681      315.45442      3547.9781      960.18531      0.99696118
   2647000  -303.97089      50.279159     -354.25005      267.73993      1494.8028      960.18531      0.99696118
   2648000  -313.79597      54.239728     -368.03569      288.83023     -1224.7484      960.18531      0.99696118
   2649000  -307.6775       60.395762     -368.07326      321.61153     -2613.6814      960.18531      0.99696118
   2650000  -334.35409      53.203075     -387.55717      283.30999     -528.38566      960.18531      0.99696118
   2651000  -307.78244      69.026534     -376.80897      367.57098     -451.75164      960.18531      0.99696118
   2652000  -324.90774      47.67238      -372.58012      253.85866     -476.2333       960.18531      0.99696118
   2653000  -323.08986      62.839481     -385.92934      334.6245      -760.17009      960.18531      0.99696118
   2654000  -319.47838      54.266559     -373.74494      288.97311      127.97508      960.18531      0.99696118
   2655000  -315.58645      55.074575     -370.66102      293.27585     -4432           960.18531      0.99696118
   2656000  -333.43853      53.418292     -386.85683      284.45603      675.31422      960.18531      0.99696118
   2657000  -341.44223      50.82537      -392.2676       270.64854     -2907.2069      960.18531      0.99696118
   2658000  -328.1872       52.122441     -380.30964      277.55554     -3502.1973      960.18531      0.99696118
   2659000  -317.79975      52.92053      -370.72028      281.80541      2641.1522      960.18531      0.99696118
   2660000  -307.77905      68.815527     -376.59458      366.44735     -1770.2799      960.18531      0.99696118
   2661000  -311.52681      60.815213     -372.34202      323.84514     -1082.9221      960.18531      0.99696118
   2662000  -316.44383      59.57888      -376.02271      317.26158      951.05411      960.18531      0.99696118
   2663000  -325.24316      54.08755      -379.33071      288.01988      1540.7365      960.18531      0.99696118
   2664000  -321.29127      61.049061     -382.34033      325.09039     -2717.1973      960.18531      0.99696118
   2665000  -334.75563      55.473134     -390.22876      295.3982      -1605.6611      960.18531      0.99696118
   2666000  -315.21572      55.055953     -370.27167      293.17669     -2986.4757      960.18531      0.99696118
   2667000  -300.5604       58.135085     -358.69549      309.57328     -1893.6278      960.18531      0.99696118
   2668000  -303.65531      61.890065     -365.54537      329.5688      -1818.7785      960.18531      0.99696118
   2669000  -315.05581      54.222423     -369.27824      288.73808     -509.99437      960.18531      0.99696118
   2670000  -323.9555       54.177805     -378.13331      288.50049     -2397.348       960.18531      0.99696118
   2671000  -313.40505      59.612601     -373.01765      317.44115      646.07268      960.18531      0.99696118
   2672000  -312.29282      59.519864     -371.81268      316.94731      402.957        960.18531      0.99696118
   2673000  -311.23946      59.5964       -370.83586      317.35488     -3136.744       960.18531      0.99696118
   2674000  -320.96398      48.003721     -368.96771      255.62307     -3104.9285      960.18531      0.99696118
   2675000  -310.98494      56.333128     -367.31807      299.97773     -2911.2363      960.18531      0.99696118
   2676000  -307.81945      63.907049     -371.7265       340.30937     -842.4336       960.18531      0.99696118
   2677000  -320.72708      54.131276     -374.85836      288.25272     -6.6824028      960.18531      0.99696118
   2678000  -314.02019      51.150805     -365.171        272.38151      5652.1968      960.18531      0.99696118
   2679000  -308.6464       59.650335     -368.29673      317.64209     -2108.2241      960.18531      0.99696118
   2680000  -317.48772      53.571343     -371.05906      285.27104     -1371.4966      960.18531      0.99696118
   2681000  -320.40298      62.116765     -382.51974      330.77599     -641.39434      960.18531      0.99696118
   2682000  -335.44639      47.010103     -382.45649      250.33199     -1559.534       960.18531      0.99696118
   2683000  -322.07866      67.490951     -389.56961      359.3939      -3409.1643      960.18531      0.99696118
   2684000  -319.48475      55.701955     -375.18671      296.61669      1791.9849      960.18531      0.99696118
   2685000  -299.25137      59.390918     -358.64229      316.26067      1481.6089      960.18531      0.99696118
   2686000  -318.33286      53.419766     -371.75262      284.46388     -1551.6992      960.18531      0.99696118
   2687000  -318.7984       56.021529     -374.81993      298.31845     -6520.3337      960.18531      0.99696118
   2688000  -310.09086      60.124539     -370.2154       320.16725     -2462.491       960.18531      0.99696118
   2689000  -314.25458      67.645547     -381.90013      360.21713     -2612.8722      960.18531      0.99696118
   2690000  -305.50927      57.359547     -362.86882      305.44348     -686.54284      960.18531      0.99696118
   2691000  -310.29916      59.697455     -369.99662      317.893       -1002.6669      960.18531      0.99696118
   2692000  -307.20268      60.937706     -368.14038      324.49742      1074.6356      960.18531      0.99696118
   2693000  -297.33306      68.542253     -365.87532      364.99215      2902.7152      960.18531      0.99696118
   2694000  -316.82488      51.147069     -367.97195      272.36162      3301.7556      960.18531      0.99696118
   2695000  -312.23399      63.668401     -375.90239      339.03856     -1823.8303      960.18531      0.99696118
   2696000  -313.30167      55.9263       -369.22797      297.81135     -1143.8695      960.18531      0.99696118
   2697000  -330.98894      48.359138     -379.34808      257.51569     -1102.2068      960.18531      0.99696118
   2698000  -312.0152       51.76098      -363.77618      275.63073      1855.8019      960.18531      0.99696118
   2699000  -285.81036      68.503794     -354.31415      364.78735      618.09565      960.18531      0.99696118
   2700000  -318.24276      56.108021     -374.35078      298.77902     -2032.0922      960.18531      0.99696118
   2701000  -332.50719      49.311066     -381.81826      262.58477     -5191.0859      960.18531      0.99696118
   2702000  -323.03324      60.179103     -383.21234      320.45781     -2.329791       960.18531      0.99696118
   2703000  -336.68908      51.695279     -388.38435      275.28087     -698.58498      960.18531      0.99696118
   2704000  -309.08631      56.22518      -365.31149      299.4029      -1158.6866      960.18531      0.99696118
   2705000  -301.57239      50.351615     -351.92401      268.12577     -893.65021      960.18531      0.99696118
   2706000  -310.71383      60.779077     -371.49291      323.65271      455.63875      960.18531      0.99696118
   2707000  -322.8046       51.855107     -374.6597       276.13197      2125.903       960.18531      0.99696118
   2708000  -317.12018      52.562213     -369.68239      279.89735     -2031.3009      960.18531      0.99696118
   2709000  -297.82153      59.927279     -357.74881      319.11683      4014.9884      960.18531      0.99696118
   2710000  -307.65093      55.244504     -362.89544      294.18073      2439.5457      960.18531      0.99696118
   2711000  -304.9474       52.625347     -357.57274      280.23355      1651.4107      960.18531      0.99696118
   2712000  -309.15658      50.74864      -359.90522      270.23996     -830.38221      960.18531      0.99696118
   2713000  -314.15194      53.771079     -367.92302      286.33465     -2617.1206      960.18531      0.99696118
   2714000  -314.56475      51.228702     -365.79346      272.79632     -1631.0472      960.18531      0.99696118
   2715000  -304.02057      60.613092     -364.63367      322.76883     -336.80555      960.18531      0.99696118
   2716000  -330.95844      51.10729      -382.06573      272.14979      416.15334      960.18531      0.99696118
   2717000  -318.68661      50.45492      -369.14153      268.67587      3964.9987      960.18531      0.99696118
   2718000  -325.64638      58.578062     -384.22444      311.93216     -891.76634      960.18531      0.99696118
   2719000  -296.93679      56.841801     -353.77859      302.68645     -174.09911      960.18531      0.99696118
   2720000  -322.57327      59.950169     -382.52343      319.23872      2464.4178      960.18531      0.99696118
   2721000  -330.39521      43.797256     -374.19246      233.22336      1601.6991      960.18531      0.99696118
   2722000  -329.46565      44.900833     -374.36649      239.09999     -1954.6376      960.18531      0.99696118
   2723000  -325.50224      46.143346     -371.64559      245.71645      600.57211      960.18531      0.99696118
   2724000  -309.48728      59.447949     -368.93523      316.56436      4263.6877      960.18531      0.99696118
   2725000  -328.19119      47.299693     -375.49088      251.87408     -5301.2107      960.18531      0.99696118
   2726000  -295.88838      55.944328     -351.83271      297.90735      1684.9652      960.18531      0.99696118
   2727000  -307.65165      53.035914     -360.68756      282.41984      2266.6376      960.18531      0.99696118
   2728000  -304.39268      59.922459     -364.31513      319.09116     -157.62698      960.18531      0.99696118
   2729000  -325.17143      52.527215     -377.69865      279.71099      5010.0518      960.18531      0.99696118
   2730000  -324.04547      52.893014     -376.93848      281.65889     -1404.8752      960.18531      0.99696118
   2731000  -320.34381      55.069236     -375.41304      293.24742     -1333.9151      960.18531      0.99696118
   2732000  -317.46483      56.767995     -374.23283      302.29343      481.16536      960.18531      0.99696118
   2733000  -328.14749      50.673126     -378.82062      269.83784      2334.5377      960.18531      0.99696118
   2734000  -307.9888       67.232986     -375.22179      358.02022     -2322.077       960.18531      0.99696118
   2735000  -316.64348      60.302112     -376.94559      321.11284     -2113.7888      960.18531      0.99696118
   2736000  -314.62909      64.604414     -379.2335       344.02289      3025.1004      960.18531      0.99696118
   2737000  -322.10303      59.474514     -381.57755      316.70583      3134.0399      960.18531      0.99696118
   2738000  -316.65261      55.931196     -372.58381      297.83742     -3567.3744      960.18531      0.99696118
   2739000  -315.24904      66.048211     -381.29725      351.71121     -2814.8367      960.18531      0.99696118
   2740000  -316.17753      49.888781     -366.06631      265.66115     -15.313739      960.18531      0.99696118
   2741000  -311.14933      64.547654     -375.69698      343.72064      2673.7102      960.18531      0.99696118
   2742000  -327.5937       49.961758     -377.55546      266.04976     -1241.3902      960.18531      0.99696118
   2743000  -322.2228       50.499131     -372.72193      268.9113      -842.41551      960.18531      0.99696118
   2744000  -296.68855      56.07628      -352.76483      298.61        -211.67614      960.18531      0.99696118
   2745000  -305.75891      52.743517     -358.50242      280.86281     -1805.8344      960.18531      0.99696118
   2746000  -311.3556       58.330521     -369.68612      310.61399     -2415.8917      960.18531      0.99696118
   2747000  -321.51993      46.797906     -368.31784      249.20203     -777.53056      960.18531      0.99696118
   2748000  -298.99468      52.831724     -351.8264       281.33251     -3235.6979      960.18531      0.99696118
   2749000  -322.98147      53.166424     -376.14789      283.11482      2150.3689      960.18531      0.99696118
   2750000  -326.0655       49.800311     -375.86581      265.19004     -81.586772      960.18531      0.99696118
   2751000  -317.9243       60.953531     -378.87783      324.58169     -964.68987      960.18531      0.99696118
   2752000  -302.85622      61.831812     -364.68803      329.2586       1041.4706      960.18531      0.99696118
   2753000  -310.39288      53.879718     -364.2726       286.91316     -63.284459      960.18531      0.99696118
   2754000  -300.53916      67.843476     -368.38263      361.27111      455.4419       960.18531      0.99696118
   2755000  -301.3096       56.176971     -357.48658      299.14618     -2902.671       960.18531      0.99696118
   2756000  -311.17624      63.493586     -374.66983      338.10765      2484.5881      960.18531      0.99696118
   2757000  -318.92922      56.869622     -375.79884      302.8346      -275.63139      960.18531      0.99696118
   2758000  -321.27628      53.748387     -375.02467      286.21381      1528.1409      960.18531      0.99696118
   2759000  -313.22197      64.577629     -377.7996       343.88026      53.309707      960.18531      0.99696118
   2760000  -312.4872       60.733041     -373.22024      323.40756      537.26572      960.18531      0.99696118
   2761000  -320.04969      47.770664     -367.82035      254.38203     -1893.2637      960.18531      0.99696118
   2762000  -317.24014      51.791652     -369.03179      275.79406     -930.67363      960.18531      0.99696118
   2763000  -316.61573      43.711314     -360.32704      232.76571     -2039.6094      960.18531      0.99696118
   2764000  -318.683        55.107379     -373.79038      293.45053      1342.9311      960.18531      0.99696118
   2765000  -329.56189      60.602238     -390.16412      322.71103     -1520.3893      960.18531      0.99696118
   2766000  -306.69498      60.804286     -367.49927      323.78695      5755.8461      960.18531      0.99696118
   2767000  -319.9651       64.045645     -384.01075      341.04741      3772.292       960.18531      0.99696118
   2768000  -312.89712      61.965752     -374.86287      329.97183      1807.0727      960.18531      0.99696118
   2769000  -337.00216      52.433545     -389.4357       279.21219     -1358.3881      960.18531      0.99696118
   2770000  -313.75597      69.605189     -383.36115      370.65236      796.50561      960.18531      0.99696118
   2771000  -302.68005      62.481139     -365.16119      332.71631     -315.52502      960.18531      0.99696118
   2772000  -300.91998      55.103236     -356.02322      293.42848      490.9456       960.18531      0.99696118
   2773000  -313.45842      54.083332     -367.54175      287.99741     -2085.5065      960.18531      0.99696118
   2774000  -325.49218      48.768108     -374.26028      259.69348      16.527691      960.18531      0.99696118
   2775000  -323.00974      45.433029     -368.44277      241.93397     -2562.2147      960.18531      0.99696118
   2776000  -320.10064      41.872192     -361.97283      222.97226     -1407.0749      960.18531      0.99696118
   2777000  -307.59731      68.686419     -376.28373      365.75984      750.52309      960.18531      0.99696118
   2778000  -311.88826      59.741568     -371.62983      318.12791     -717.34791      960.18531      0.99696118
   2779000  -313.36513      63.909391     -377.27452      340.32184     -1443.2094      960.18531      0.99696118
   2780000  -306.91962      55.869744     -362.78937      297.51018     -2535.2605      960.18531      0.99696118
   2781000  -323.57538      47.15222      -370.7276       251.08877     -899.87399      960.18531      0.99696118
   2782000  -319.09768      52.130045     -371.22772      277.59603      3240.3339      960.18531      0.99696118
   2783000  -308.29582      57.253669     -365.54949      304.87967     -1826.5284      960.18531      0.99696118
   2784000  -312.69978      47.151865     -359.85165      251.08688      254.74239      960.18531      0.99696118
   2785000  -313.41632      63.149843     -376.56617      336.2772       1780.5832      960.18531      0.99696118
   2786000  -303.99681      57.627508     -361.62432      306.87039      1241.2843      960.18531      0.99696118
   2787000  -329.26041      52.459056     -381.71947      279.34803     -1543.2597      960.18531      0.99696118
   2788000  -307.39593      51.040995     -358.43693      271.79676     -5575.8547      960.18531      0.99696118
   2789000  -305.15972      64.367122     -369.52684      342.75929     -2345.7152      960.18531      0.99696118
   2790000  -320.00868      44.272159     -364.28084      235.75225      1834.6827      960.18531      0.99696118
   2791000  -307.75559      52.68741      -360.443        280.56403      676.9635       960.18531      0.99696118
   2792000  -301.11902      56.679993     -357.79902      301.82481      567.26931      960.18531      0.99696118
   2793000  -314.71452      62.169816     -376.88434      331.05849     -162.38096      960.18531      0.99696118
   2794000  -321.01488      55.660393     -376.67527      296.39537     -295.61793      960.18531      0.99696118
   2795000  -319.82409      48.50245      -368.32654      258.27884     -2800.7286      960.18531      0.99696118
   2796000  -311.59094      46.422649     -358.01359      247.20375      831.13904      960.18531      0.99696118
   2797000  -324.32873      53.771574     -378.10031      286.33728     -3290.0569      960.18531      0.99696118
   2798000  -313.60183      59.57675      -373.17858      317.25024     -3680.53        960.18531      0.99696118
   2799000  -327.73446      51.336997     -379.07146      273.373       -4212.8257      960.18531      0.99696118
   2800000  -324.20236      58.278397     -382.48076      310.33642     -2257.2551      960.18531      0.99696118
   2801000  -314.08616      63.458994     -377.54515      337.92345      311.78049      960.18531      0.99696118
   2802000  -303.73519      64.661966     -368.39716      344.32936      597.13227      960.18531      0.99696118
   2803000  -304.93973      58.477763     -363.4175       311.39806     -2077.474       960.18531      0.99696118
   2804000  -335.07468      47.813725     -382.8884       254.61133     -2623.6301      960.18531      0.99696118
   2805000  -320.21087      58.759931     -378.9708       312.90062     -5259.0106      960.18531      0.99696118
   2806000  -295.83771      56.534294     -352.37201      301.04896     -1432.6533      960.18531      0.99696118
   2807000  -324.54057      46.42813      -370.9687       247.23295     -2941.1592      960.18531      0.99696118
   2808000  -321.54656      53.321832     -374.8684       283.94238     -1338.5958      960.18531      0.99696118
   2809000  -331.59966      45.754163     -377.35382      243.64402     -1263.2972      960.18531      0.99696118
   2810000  -317.52202      64.094973     -381.617        341.31008      2506.9177      960.18531      0.99696118
   2811000  -327.36103      54.579536     -381.94057      290.63974      705.21926      960.18531      0.99696118
   2812000  -332.47551      57.802941     -390.27845      307.80458     -458.85648      960.18531      0.99696118
   2813000  -316.41539      59.492719     -375.90811      316.80277      566.76373      960.18531      0.99696118
   2814000  -345.35094      45.059727     -390.41067      239.9461       1036.1056      960.18531      0.99696118
   2815000  -318.59199      54.640303     -373.23229      290.96332      2702.5151      960.18531      0.99696118
   2816000  -334.33253      50.346366     -384.6789       268.09782      4806.3933      960.18531      0.99696118
   2817000  -310.94625      54.303326     -365.24958      289.1689      -639.26171      960.18531      0.99696118
   2818000  -313.2148       49.127801     -362.3426       261.60887      5.4099655      960.18531      0.99696118
   2819000  -305.86216      55.497307     -361.35947      295.52693      4567.2594      960.18531      0.99696118
   2820000  -322.43183      47.878368     -370.31019      254.95556     -3730.1236      960.18531      0.99696118
   2821000  -319.05885      62.431048     -381.4899       332.44957      78.015039      960.18531      0.99696118
   2822000  -316.6743       51.030314     -367.70461      271.73989      1011.5485      960.18531      0.99696118
   2823000  -325.56843      49.534924     -375.10336      263.77684     -2518.4146      960.18531      0.99696118
   2824000  -310.09951      68.157369     -378.25688      362.94262      2214.7357      960.18531      0.99696118
   2825000  -314.39125      52.857119     -367.24837      281.46775     -4402.067       960.18531      0.99696118
   2826000  -321.54462      58.446067     -379.99069      311.22927      1031.1578      960.18531      0.99696118
   2827000  -313.27262      56.24112      -369.51374      299.48778     -2890.7847      960.18531      0.99696118
   2828000  -313.91078      53.015389     -366.92617      282.31054      1249.5296      960.18531      0.99696118
   2829000  -330.737        54.984178     -385.72118      292.79448     -248.25623      960.18531      0.99696118
   2830000  -327.54479      56.930848     -384.47564      303.16063     -1590.8068      960.18531      0.99696118
   2831000  -320.4453       59.1603       -379.6056       315.03261     -113.53396      960.18531      0.99696118
   2832000  -325.61264      49.884314     -375.49696      265.63736      1741.3516      960.18531      0.99696118
   2833000  -312.85211      59.939573     -372.79168      319.1823       1148.781       960.18531      0.99696118
   2834000  -317.78532      55.858221     -373.64354      297.44882     -1957.0885      960.18531      0.99696118
   2835000  -302.48767      59.886572     -362.37425      318.90006      2297.2079      960.18531      0.99696118
   2836000  -327.49945      52.90939      -380.40884      281.74609      1186.8076      960.18531      0.99696118
   2837000  -301.59599      62.132649     -363.72864      330.86057      2421.4232      960.18531      0.99696118
   2838000  -314.04477      53.436334     -367.4811       284.55211     -1765.2044      960.18531      0.99696118
   2839000  -344.11502      38.546973     -382.66199      205.26525      1090.8611      960.18531      0.99696118
   2840000  -317.46446      55.222033     -372.68649      294.06108      678.32368      960.18531      0.99696118
   2841000  -294.11899      74.461891     -368.58089      396.51462     -531.8144       960.18531      0.99696118
   2842000  -323.19945      53.252121     -376.45157      283.57116     -2332.0417      960.18531      0.99696118
   2843000  -323.47968      64.092944     -387.57262      341.29928      1765.2653      960.18531      0.99696118
   2844000  -327.22212      55.758315     -382.98044      296.91681     -1390.97        960.18531      0.99696118
   2845000  -306.85978      53.886599     -360.74638      286.9498       2680.4741      960.18531      0.99696118
   2846000  -315.5545       54.110036     -369.66454      288.13962      1823.3343      960.18531      0.99696118
   2847000  -322.09631      55.035141     -377.13145      293.06586      655.09453      960.18531      0.99696118
   2848000  -302.10146      59.116914     -361.21837      314.80158     -2228.8383      960.18531      0.99696118
   2849000  -319.52857      51.922535     -371.4511       276.49103      3216.0603      960.18531      0.99696118
   2850000  -325.28255      48.581121     -373.86367      258.69776     -1530.334       960.18531      0.99696118
   2851000  -318.54874      50.637759     -369.1865       269.6495      -1745.8705      960.18531      0.99696118
   2852000  -313.89359      53.973489     -367.86708      287.41249      2325.3226      960.18531      0.99696118
   2853000  -329.44069      48.587688     -378.02838      258.73274      5103.6495      960.18531      0.99696118
   2854000  -307.147        62.525731     -369.67273      332.95376      4440.3152      960.18531      0.99696118
   2855000  -331.17374      48.295049     -379.46879      257.17441      1645.8757      960.18531      0.99696118
   2856000  -302.47717      57.339919     -359.81709      305.33896     -2112.48        960.18531      0.99696118
   2857000  -291.7755       74.091845     -365.86734      394.54411      5226.2255      960.18531      0.99696118
   2858000  -315.06335      58.677443     -373.74079      312.46137     -1392.3826      960.18531      0.99696118
   2859000  -311.70675      61.585517     -373.29227      327.94706     -3532.5368      960.18531      0.99696118
   2860000  -327.24035      50.507153     -377.7475       268.95402     -3442.4586      960.18531      0.99696118
   2861000  -318.21251      63.124261     -381.33677      336.14098      1392.378       960.18531      0.99696118
   2862000  -325.2968       54.162382     -379.45918      288.41836      69.85144       960.18531      0.99696118
   2863000  -322.28932      57.518055     -379.80738      306.28755     -904.07489      960.18531      0.99696118
   2864000  -348.60592      50.130688     -398.7366       266.94931     -3335.1683      960.18531      0.99696118
   2865000  -313.36647      59.212526     -372.579        315.31072     -811.67814      960.18531      0.99696118
   2866000  -312.64557      60.511992     -373.15756      322.23046      871.52306      960.18531      0.99696118
   2867000  -325.05173      45.508538     -370.56027      242.33606      813.59011      960.18531      0.99696118
   2868000  -301.88141      65.734897     -367.61631      350.04279      2588.7199      960.18531      0.99696118
   2869000  -313.90184      69.306538     -383.20838      369.06202     -1003.347       960.18531      0.99696118
   2870000  -322.20428      53.20231      -375.40659      283.30591      192.96789      960.18531      0.99696118
   2871000  -315.47732      58.901161     -374.37848      313.65268     -391.09704      960.18531      0.99696118
   2872000  -314.47845      50.206945     -364.68539      267.35539      1284.9137      960.18531      0.99696118
   2873000  -324.27017      55.439574     -379.70974      295.2195      -1190.5084      960.18531      0.99696118
   2874000  -316.02436      58.882366     -374.90673      313.5526       200.45892      960.18531      0.99696118
   2875000  -317.90423      56.780555     -374.68478      302.36031      1621.8583      960.18531      0.99696118
   2876000  -299.77778      54.372437     -354.15021      289.53692     -994.76202      960.18531      0.99696118
   2877000  -299.23351      68.855883     -368.08939      366.66225      468.55255      960.18531      0.99696118
   2878000  -330.5386       51.023114     -381.56172      271.70155      2746.9953      960.18531      0.99696118
   2879000  -306.51754      62.746865     -369.2644       334.13132      2699.9634      960.18531      0.99696118
   2880000  -315.63806      61.841528     -377.47959      329.31033      2122.3971      960.18531      0.99696118
   2881000  -302.58799      67.519026     -370.10702      359.5434      -1041.7172      960.18531      0.99696118
   2882000  -298.14655      64.155691     -362.30224      341.63341      2892.9273      960.18531      0.99696118
   2883000  -295.9145       68.515362     -364.42986      364.84896     -2843.7574      960.18531      0.99696118
   2884000  -328.32171      53.818557     -382.14027      286.58747     -497.14374      960.18531      0.99696118
   2885000  -300.10826      68.078982     -368.18725      362.5252       574.87763      960.18531      0.99696118
   2886000  -325.02819      58.536005     -383.5642       311.7082      -1836.9174      960.18531      0.99696118
   2887000  -320.36815      60.845899     -381.21405      324.00854     -3136.6934      960.18531      0.99696118
   2888000  -327.6092       49.662157     -377.27135      264.45436     -1355.6184      960.18531      0.99696118
   2889000  -325.74451      62.849639     -388.59415      334.6786       17.595591      960.18531      0.99696118
   2890000  -324.65137      45.554839     -370.2062       242.58261     -261.3412       960.18531      0.99696118
   2891000  -319.29088      55.526146     -374.81702      295.68049     -423.08221      960.18531      0.99696118
   2892000  -324.017        59.355911     -383.37291      316.07425      2574.1752      960.18531      0.99696118
   2893000  -319.57467      55.837691     -375.41236      297.3395       112.6441       960.18531      0.99696118
   2894000  -302.19229      56.783395     -358.97568      302.37543      124.71799      960.18531      0.99696118
   2895000  -318.72252      50.75842      -369.48094      270.29203     -2652.7851      960.18531      0.99696118
   2896000  -320.77283      57.662336     -378.43516      307.05585      1317.3704      960.18531      0.99696118
   2897000  -323.67946      47.003303     -370.68276      250.29578      3192.9464      960.18531      0.99696118
   2898000  -301.8441       49.569249     -351.41335      263.95962      7235.3411      960.18531      0.99696118
   2899000  -326.22852      51.350455     -377.57898      273.44466      201.50716      960.18531      0.99696118
   2900000  -302.49492      74.51776      -377.01268      396.81213     -2392.8393      960.18531      0.99696118
   2901000  -326.58004      56.847898     -383.42794      302.71892      2887.6121      960.18531      0.99696118
   2902000  -317.86285      64.508777     -382.37163      343.51362      1069.8068      960.18531      0.99696118
   2903000  -309.71872      64.864219     -374.58294      345.40637     -1123.0351      960.18531      0.99696118
   2904000  -321.17208      49.508973     -370.68105      263.63864     -2368.5694      960.18531      0.99696118
   2905000  -321.61952      61.960969     -383.58049      329.94637      2243.3198      960.18531      0.99696118
   2906000  -318.18469      60.342172     -378.52686      321.32616     -2315.3642      960.18531      0.99696118
   2907000  -307.9567       57.701861     -365.65856      307.26633     -1427.1581      960.18531      0.99696118
   2908000  -314.82759      55.987995     -370.81559      298.13987     -2359.9608      960.18531      0.99696118
   2909000  -323.24617      57.865559     -381.11173      308.13803     -1107.217       960.18531      0.99696118
   2910000  -313.33358      52.259689     -365.59327      278.28639     -2457.7218      960.18531      0.99696118
   2911000  -312.04316      55.901551     -367.94471      297.67955     -850.71989      960.18531      0.99696118
   2912000  -332.51471      59.218952     -391.73366      315.34494     -1072.8385      960.18531      0.99696118
   2913000  -329.33729      52.427968     -381.76526      279.18249     -3141.2659      960.18531      0.99696118
   2914000  -326.14265      53.392731     -379.53539      284.31991     -1923.8971      960.18531      0.99696118
   2915000  -316.16939      50.284318     -366.45371      267.76741     -532.23292      960.18531      0.99696118
   2916000  -313.84234      51.981265     -365.8236       276.80377     -2094.2164      960.18531      0.99696118
   2917000  -312.38899      56.411308     -368.8003       300.39405      4535.4917      960.18531      0.99696118
   2918000  -285.26285      64.956237     -350.21909      345.89637      34.708335      960.18531      0.99696118
   2919000  -315.47922      58.931343     -374.41056      313.8134       2862.296       960.18531      0.99696118
   2920000  -321.86657      47.538196     -369.40477      253.14412     -3114.6464      960.18531      0.99696118
   2921000  -305.38441      55.522655     -360.90707      295.66191      471.50732      960.18531      0.99696118
   2922000  -327.9964       51.92252      -379.91892      276.49094      444.47919      960.18531      0.99696118
   2923000  -304.34237      63.732996     -368.07537      339.38253     -795.26516      960.18531      0.99696118
   2924000  -296.98122      62.411005     -359.39223      332.34284      1753.1838      960.18531      0.99696118
   2925000  -299.23308      70.170851     -369.40393      373.66454     -1802.8243      960.18531      0.99696118
   2926000  -329.82087      49.760922     -379.58179      264.98029     -121.87265      960.18531      0.99696118
   2927000  -316.13563      57.716061     -373.85169      307.34194      2906.6785      960.18531      0.99696118
   2928000  -307.69017      53.959139     -361.64931      287.33608      4453.7622      960.18531      0.99696118
   2929000  -327.941        58.728707     -386.66971      312.73435     -2041.6715      960.18531      0.99696118
   2930000  -316.184        48.160228     -364.34422      256.45648     -273.7702       960.18531      0.99696118
   2931000  -324.14534      49.141556     -373.2869       261.68212      24.66075       960.18531      0.99696118
   2932000  -298.21812      62.524523     -360.74264      332.94733     -245.2337       960.18531      0.99696118
   2933000  -315.00713      54.622665     -369.6298       290.8694      -993.89645      960.18531      0.99696118
   2934000  -320.6753       57.717182     -378.39248      307.34791     -2873.6793      960.18531      0.99696118
   2935000  -309.0767       61.65186      -370.72856      328.30034      446.39887      960.18531      0.99696118
   2936000  -328.9242       58.299789     -387.22399      310.45034      1242.341       960.18531      0.99696118
   2937000  -303.28695      61.209578     -364.49653      325.94516      1184.5284      960.18531      0.99696118
   2938000  -322.90323      56.582425     -379.48565      301.30525     -526.09142      960.18531      0.99696118
   2939000  -322.27679      46.75268      -369.02947      248.9612       274.05933      960.18531      0.99696118
   2940000  -314.31619      55.158796     -369.47499      293.72433     -23.975597      960.18531      0.99696118
   2941000  -323.8726       56.385745     -380.25834      300.25792     -603.02094      960.18531      0.99696118
   2942000  -332.71664      49.681821     -382.39846      264.55907      461.58598      960.18531      0.99696118
   2943000  -316.53575      55.244841     -371.78059      294.18253      3603.9335      960.18531      0.99696118
   2944000  -319.36601      58.800308     -378.16632      313.11563     -236.09265      960.18531      0.99696118
   2945000  -311.72897      65.829879     -377.55885      350.54858     -883.42133      960.18531      0.99696118
   2946000  -310.00454      66.608461     -376.613        354.69458     -1244.9191      960.18531      0.99696118
   2947000  -313.96073      57.699916     -371.66065      307.25597      2249.9696      960.18531      0.99696118
   2948000  -320.07345      58.545316     -378.61877      311.75778     -1870.7183      960.18531      0.99696118
   2949000  -329.30305      53.153548     -382.4566       283.04625     -690.07711      960.18531      0.99696118
   2950000  -326.04191      53.648936     -379.69085      285.68422     -2974.6968      960.18531      0.99696118
   2951000  -321.29928      49.836402     -371.13569      265.38222      130.80032      960.18531      0.99696118
   2952000  -314.93044      53.438661     -368.3691       284.5645      -1641.711       960.18531      0.99696118
   2953000  -301.15986      67.435011     -368.59487      359.09601      1981.9347      960.18531      0.99696118
   2954000  -323.30631      57.695122     -381.00143      307.23044     -281.52993      960.18531      0.99696118
   2955000  -302.08105      61.804917     -363.88596      329.11538     -4187.5429      960.18531      0.99696118
   2956000  -330.7985       48.909562     -379.70806      260.44674     -4571.8736      960.18531      0.99696118
   2957000  -316.73211      54.619597     -371.35171      290.85306     -2159.8111      960.18531      0.99696118
   2958000  -321.698        58.274956     -379.97295      310.3181       1778.8351      960.18531      0.99696118
   2959000  -327.88585      50.877558     -378.76341      270.92645     -1088.5859      960.18531      0.99696118
   2960000  -317.60736      55.137826     -372.74519      293.61267     -4278.9709      960.18531      0.99696118
   2961000  -315.25261      52.410901     -367.66351      279.0916      -1987.6989      960.18531      0.99696118
   2962000  -320.57376      60.420281     -380.99404      321.7421      -553.24431      960.18531      0.99696118
   2963000  -330.61074      48.131939     -378.74268      256.30584     -1975.7072      960.18531      0.99696118
   2964000  -315.70541      54.940054     -370.64546      292.55952      4690.3816      960.18531      0.99696118
   2965000  -318.0633       61.507999     -379.5713       327.53427     -6064.6939      960.18531      0.99696118
   2966000  -308.35355      54.098744     -362.45229      288.07949      1581.7851      960.18531      0.99696118
   2967000  -314.85636      55.451481     -370.30784      295.2829      -3359.3682      960.18531      0.99696118
   2968000  -324.02576      46.083422     -370.10918      245.39735     -3434.7309      960.18531      0.99696118
   2969000  -342.51468      51.308284     -393.82296      273.2201      -547.22245      960.18531      0.99696118
   2970000  -315.43721      50.658222     -366.09543      269.75847      426.27133      960.18531      0.99696118
   2971000  -316.91161      56.847673     -373.75928      302.71772     -1229.6799      960.18531      0.99696118
   2972000  -320.5104       53.629125     -374.13952      285.57873      3104.6749      960.18531      0.99696118
   2973000  -312.05352      53.429746     -365.48327      284.51702      2214.8933      960.18531      0.99696118
   2974000  -301.01536      56.786396     -357.80175      302.39141      235.87972      960.18531      0.99696118
   2975000  -329.51074      55.133726     -384.64446      293.59084      1467.0885      960.18531      0.99696118
   2976000  -304.43577      65.688712     -370.12449      349.79685     -1672.8882      960.18531      0.99696118
   2977000  -332.86825      48.943861     -381.81211      260.62938      1351.3369      960.18531      0.99696118
   2978000  -316.36826      62.841689     -379.20995      334.63626     -1887.418       960.18531      0.99696118
   2979000  -328.07717      54.809845     -382.88702      291.86615      2132.1642      960.18531      0.99696118
   2980000  -327.21343      51.423828     -378.63726      273.83538     -3864.7923      960.18531      0.99696118
   2981000  -299.04173      59.547671     -358.5894       317.09539      1390.6049      960.18531      0.99696118
   2982000  -311.82675      50.551021     -362.37777      269.18762      1647.4051      960.18531      0.99696118
   2983000  -326.31151      53.312416     -379.62393      283.89223      1749.9669      960.18531      0.99696118
   2984000  -321.80379      62.721804     -384.5256       333.99787     -1468.5704      960.18531      0.99696118
   2985000  -308.67977      56.838851     -365.51862      302.67074      224.32661      960.18531      0.99696118
   2986000  -328.55009      54.65859      -383.20868      291.0607      -2954.3486      960.18531      0.99696118
   2987000  -330.45753      50.289056     -380.74659      267.79263      842.66588      960.18531      0.99696118
   2988000  -318.3743       53.384169     -371.75847      284.27432     -1481.338       960.18531      0.99696118
   2989000  -311.75595      65.447625     -377.20358      348.51305     -1207.6742      960.18531      0.99696118
   2990000  -328.2694       52.625087     -380.89449      280.23216      48.387699      960.18531      0.99696118
   2991000  -311.24053      62.940675     -374.1812       335.16337     -351.37058      960.18531      0.99696118
   2992000  -328.47549      60.090817     -388.56631      319.98768     -605.32763      960.18531      0.99696118
   2993000  -315.61739      57.17051      -372.7879       304.43685     -173.39964      960.18531      0.99696118
   2994000  -303.13976      55.261195     -358.40096      294.26962     -2533.9653      960.18531      0.99696118
   2995000  -324.66673      55.326814     -379.99354      294.61904     -1467.0072      960.18531      0.99696118
   2996000  -303.01678      63.693128     -366.70991      339.17023      562.15921      960.18531      0.99696118
   2997000  -326.46497      51.065027     -377.52999      271.92474     -544.18116      960.18531      0.99696118
   2998000  -314.24924      58.219788     -372.46903      310.02432     -1874.6949      960.18531      0.99696118
   2999000  -302.67007      61.733515     -364.40358      328.73516      2030.8258      960.18531      0.99696118
   3000000  -313.77409      50.748046     -364.52214      270.23679     -1671.4394      960.18531      0.99696118
Loop time of 866.34 on 1 procs for 2000000 steps with 96 atoms

Performance: 199.460 ns/day, 0.120 hours/ns, 2308.564 timesteps/s
99.7% CPU use with 1 MPI tasks x 1 OpenMP threads

MPI task timing breakdown:
Section |  min time  |  avg time  |  max time  |%varavg| %total
---------------------------------------------------------------
Pair    | 678.03     | 678.03     | 678.03     |   0.0 | 78.26
Bond    | 0.10626    | 0.10626    | 0.10626    |   0.0 |  0.01
Kspace  | 117.91     | 117.91     | 117.91     |   0.0 | 13.61
Neigh   | 32.379     | 32.379     | 32.379     |   0.0 |  3.74
Comm    | 23.244     | 23.244     | 23.244     |   0.0 |  2.68
Output  | 0.24837    | 0.24837    | 0.24837    |   0.0 |  0.03
Modify  | 11.083     | 11.083     | 11.083     |   0.0 |  1.28
Other   |            | 3.344      |            |       |  0.39

Nlocal:             96 ave          96 max          96 min
Histogram: 1 0 0 0 0 0 0 0 0 0
Nghost:           3741 ave        3741 max        3741 min
Histogram: 1 0 0 0 0 0 0 0 0 0
Neighs:          34765 ave       34765 max       34765 min
Histogram: 1 0 0 0 0 0 0 0 0 0

Total # of neighbors = 34765
Ave neighs/atom = 362.13542
Ave special neighs/atom = 2
Neighbor list builds = 45180
Dangerous builds = 0

# write data file
write_data data.after_prod.lmp
System init for write_data ...
PPPM initialization ...
  using 12-bit tables for long-range coulomb (src/kspace.cpp:342)
  G vector (1/distance) = 0.30847861
  grid = 9 9 9
  stencil order = 5
  estimated absolute RMS force accuracy = 0.0027675926
  estimated relative force accuracy = 8.334523e-06
  using double precision FFTW3
  3d grid and FFT values/proc = 4096 729
Generated 1 of 1 mixed pair_coeff terms from geometric mixing rule

# clean up
undump dPROD
unfix fTHERMO
unfix fMOM
unfix fSHAKE
Total wall time: 0:21:39
