LAMMPS (23 Jun 2022 - Update 4)
  using 1 OpenMP thread(s) per MPI task
# created by fftool

# System settings
units real
boundary p p p  # Periodic boundary conditions

# definition of atoms, bonds, angles
atom_style full
bond_style harmonic
angle_style harmonic

# definition of pair potentials
special_bonds lj/coul 0.0 0.0 0.5
pair_style lj/cut/coul/long 10.0 10.0
pair_modify mix geometric tail yes
kspace_style pppm 1.0e-5

# read data file
read_data data.lmp
Reading data file ...
  orthogonal box = (0 0 0) to (9.865483 9.865483 9.865483)
  1 by 1 by 1 MPI processor grid
  reading atoms ...
  96 atoms
  scanning bonds ...
  1 = max bonds/atom
  scanning angles ...
  1 = max angles/atom
  reading bonds ...
  64 bonds
  reading angles ...
  32 angles
Finding 1-2 1-3 1-4 neighbors ...
  special bond factors lj:    0        0        0.5
  special bond factors coul:  0        0        0.5
     2 = max # of 1-2 neighbors
     1 = max # of 1-3 neighbors
     1 = max # of 1-4 neighbors
     2 = max # of special neighbors
  special bonds CPU = 0.000 seconds
  read_data CPU = 0.004 seconds

# definition of LJ parameters
pair_coeff    1    1     0.000000     0.000000  # Hw Hw
pair_coeff    2    2     0.163315     3.168823  # Ow-Ow

############################################

# remove energy hotspots
minimize 1.0e-4 1.0e-6 100 1000
WARNING: Using 'neigh_modify every 1 delay 0 check yes' setting during minimization (src/min.cpp:187)
PPPM initialization ...
  using 12-bit tables for long-range coulomb (src/kspace.cpp:342)
  G vector (1/distance) = 0.30847861
  grid = 9 9 9
  stencil order = 5
  estimated absolute RMS force accuracy = 0.0027675926
  estimated relative force accuracy = 8.334523e-06
  using double precision FFTW3
  3d grid and FFT values/proc = 4096 729
Generated 1 of 1 mixed pair_coeff terms from geometric mixing rule
Neighbor list info ...
  update every 1 steps, delay 0 steps, check yes
  max neighbors/atom: 2000, page size: 100000
  master list distance cutoff = 12
  ghost atom cutoff = 12
  binsize = 6, bins = 2 2 2
  1 neighbor lists, perpetual/occasional/extra = 1 0 0
  (1) pair lj/cut/coul/long, perpetual
      attributes: half, newton on
      pair build: half/bin/newton
      stencil: half/bin/3d
      bin: standard
Per MPI rank memory allocation (min/avg/max) = 8.323 | 8.323 | 8.323 Mbytes
   Step          Temp          E_pair         E_mol          TotEng         Press
         0   0              107169.72      6.4704025e-09  107169.72      30678616
       100   0             -491.0784       44.987799     -446.0906      -4107.8084
Loop time of 0.109543 on 1 procs for 100 steps with 96 atoms

99.6% CPU use with 1 MPI tasks x 1 OpenMP threads

Minimization stats:
  Stopping criterion = max iterations
  Energy initial, next-to-last, final =
      107169.723011962  -445.776488558793  -446.090604385508
  Force two-norm initial, final = 1512841.6 17.172303
  Force max component initial, final = 1035603.8 3.3780747
  Final line search alpha, max atom move = 0.0053740489 0.018153939
  Iterations, force evaluations = 100 177

MPI task timing breakdown:
Section |  min time  |  avg time  |  max time  |%varavg| %total
---------------------------------------------------------------
Pair    | 0.092564   | 0.092564   | 0.092564   |   0.0 | 84.50
Bond    | 0.00071261 | 0.00071261 | 0.00071261 |   0.0 |  0.65
Kspace  | 0.010742   | 0.010742   | 0.010742   |   0.0 |  9.81
Neigh   | 0.0028371  | 0.0028371  | 0.0028371  |   0.0 |  2.59
Comm    | 0.0021141  | 0.0021141  | 0.0021141  |   0.0 |  1.93
Output  | 9.651e-06  | 9.651e-06  | 9.651e-06  |   0.0 |  0.01
Modify  | 0          | 0          | 0          |   0.0 |  0.00
Other   |            | 0.0005644  |            |       |  0.52

Nlocal:             96 ave          96 max          96 min
Histogram: 1 0 0 0 0 0 0 0 0 0
Nghost:           3896 ave        3896 max        3896 min
Histogram: 1 0 0 0 0 0 0 0 0 0
Neighs:          34640 ave       34640 max       34640 min
Histogram: 1 0 0 0 0 0 0 0 0 0

Total # of neighbors = 34640
Ave neighs/atom = 360.83333
Ave special neighs/atom = 2
Neighbor list builds = 4
Dangerous builds = 0
reset_timestep 0

# constrain water bonds and angles
fix fSHAKE all shake 0.0001 20 0 b 1 a 1
       0 = # of size 2 clusters
       0 = # of size 3 clusters
       0 = # of size 4 clusters
      32 = # of frozen angles
  find clusters CPU = 0.000 seconds

# remove Center of Mass movement every 100 steps
fix fMOM all momentum 100 linear 1 1 1

# define the neighbor list
neighbor 2.0 bin

# IMPORTANT: timestep and temperature and pressure
timestep 1.0
variable vTK equal 298.15
variable vPBAR equal 1.0

# randomize velocities
velocity all create ${vTK} 45338
velocity all create 298.15 45338

# thermostat (solving the ODE)
fix fTHERMO all nvt temp ${vTK} ${vTK} 100
fix fTHERMO all nvt temp 298.15 ${vTK} 100
fix fTHERMO all nvt temp 298.15 298.15 100

# print settings
thermo 1000
thermo_style custom step etotal ke pe temp press vol density
# trajectory output
dump dEQUI all custom 1000 equi.lammpstrj id element xu yu zu
dump_modify dEQUI element H O sort id

# equilibration
# 1 ns
run 1000000
PPPM initialization ...
  using 12-bit tables for long-range coulomb (src/kspace.cpp:342)
  G vector (1/distance) = 0.30847861
  grid = 9 9 9
  stencil order = 5
  estimated absolute RMS force accuracy = 0.0027675926
  estimated relative force accuracy = 8.334523e-06
  using double precision FFTW3
  3d grid and FFT values/proc = 4096 729
Generated 1 of 1 mixed pair_coeff terms from geometric mixing rule
Per MPI rank memory allocation (min/avg/max) = 9.332 | 9.332 | 9.332 Mbytes
   Step         TotEng         KinEng         PotEng          Temp          Press          Volume        Density
         0  -435.08851      55.989897     -491.0784       298.15        -21144.6        960.18531      0.99696118
      1000  -310.8254       60.43347      -371.25887      321.81233     -970.93059      960.18531      0.99696118
      2000  -304.73207      59.926872     -364.65894      319.11466      412.56223      960.18531      0.99696118
      3000  -303.76744      57.740008     -361.50745      307.46946      3245.5457      960.18531      0.99696118
      4000  -321.64904      53.61087      -375.25991      285.48152     -2451.1012      960.18531      0.99696118
      5000  -322.50366      55.403187     -377.90684      295.02573     -1495.5706      960.18531      0.99696118
      6000  -310.32767      63.602392     -373.93006      338.68705     -748.35196      960.18531      0.99696118
      7000  -337.61087      44.010258     -381.62113      234.35761     -2227.2186      960.18531      0.99696118
      8000  -309.57365      52.712256     -362.2859       280.69634     -1127.0891      960.18531      0.99696118
      9000  -311.52858      54.729495     -366.25807      291.43827     -0.081334007    960.18531      0.99696118
     10000  -317.44231      52.354382     -369.79669      278.79064      305.69134      960.18531      0.99696118
     11000  -318.58304      57.422161     -376.0052       305.7769      -1060.5091      960.18531      0.99696118
     12000  -323.187        59.113695     -382.30069      314.78444      923.23013      960.18531      0.99696118
     13000  -333.23182      62.160528     -395.39234      331.00903      211.31581      960.18531      0.99696118
     14000  -313.93285      70.996714     -384.92956      378.06232      274.88529      960.18531      0.99696118
     15000  -315.78878      55.415068     -371.20385      295.089       -1350.7397      960.18531      0.99696118
     16000  -323.51588      47.526637     -371.04252      253.08257      1030.6213      960.18531      0.99696118
     17000  -328.08389      53.990958     -382.07484      287.50552     -1244.971       960.18531      0.99696118
     18000  -328.33704      57.850247     -386.18729      308.05649      66.716925      960.18531      0.99696118
     19000  -325.30436      60.98658      -386.29094      324.75768      3413.639       960.18531      0.99696118
     20000  -331.4219       49.012643     -380.43455      260.99565     -3885.0808      960.18531      0.99696118
     21000  -319.47732      56.234356     -375.71168      299.45176      2084.0068      960.18531      0.99696118
     22000  -322.79462      61.511631     -384.30625      327.55361      386.85681      960.18531      0.99696118
     23000  -319.54528      59.204965     -378.75025      315.27046     -2830.5245      960.18531      0.99696118
     24000  -341.42406      46.451012     -387.87507      247.35479     -2277.3563      960.18531      0.99696118
     25000  -337.5298       55.807695     -393.3375       297.17977     -1255.8188      960.18531      0.99696118
     26000  -315.5142       56.906463     -372.42066      303.03078      281.32767      960.18531      0.99696118
     27000  -316.79465      55.6736       -372.46825      296.4657      -418.06863      960.18531      0.99696118
     28000  -336.84707      51.771621     -388.61869      275.68739     -591.88898      960.18531      0.99696118
     29000  -302.14513      64.39828      -366.54341      342.92521      2963.4095      960.18531      0.99696118
     30000  -323.02752      51.583804     -374.61132      274.68726     -1255.1155      960.18531      0.99696118
     31000  -329.47015      50.344086     -379.81423      268.08568      2487.0169      960.18531      0.99696118
     32000  -316.39178      57.184797     -373.57658      304.51293     -4001.4588      960.18531      0.99696118
     33000  -326.81528      56.412517     -383.22779      300.40048     -4442.4072      960.18531      0.99696118
     34000  -320.41558      62.821624     -383.2372       334.52941     -3066.429       960.18531      0.99696118
     35000  -316.19895      59.45564      -375.65459      316.60532     -2412.3532      960.18531      0.99696118
     36000  -326.71944      49.770597     -376.49004      265.03181      72.356558      960.18531      0.99696118
     37000  -326.7708       60.579862     -387.35067      322.59188     -3247.646       960.18531      0.99696118
     38000  -336.90478      51.211604     -388.11638      272.70527     -2079.6218      960.18531      0.99696118
     39000  -323.32018      53.981476     -377.30166      287.45503      302.35551      960.18531      0.99696118
     40000  -331.93227      49.922971     -381.85524      265.84321      1564.5768      960.18531      0.99696118
     41000  -325.23495      52.475933     -377.71088      279.43791     -973.89005      960.18531      0.99696118
     42000  -319.25345      53.516792     -372.77024      284.98055      1342.6083      960.18531      0.99696118
     43000  -327.59115      58.352192     -385.94334      310.72939      246.62288      960.18531      0.99696118
     44000  -331.42609      51.649877     -383.07596      275.0391       594.29217      960.18531      0.99696118
     45000  -327.58342      51.01514      -378.59856      271.65908     -3597.4237      960.18531      0.99696118
     46000  -330.9856       55.141243     -386.12685      293.63086      822.27404      960.18531      0.99696118
     47000  -321.82947      61.980976     -383.81045      330.0529      -1126.5677      960.18531      0.99696118
     48000  -308.48026      53.571032     -362.05129      285.26938     -3438.7257      960.18531      0.99696118
     49000  -329.67143      59.904862     -389.57629      318.99746      1250.6334      960.18531      0.99696118
     50000  -342.1172       56.002966     -398.12016      298.2196      -1607.0354      960.18531      0.99696118
     51000  -318.34759      58.537977     -376.88556      311.7187      -1121.4382      960.18531      0.99696118
     52000  -318.6211       59.15975      -377.78085      315.02969     -2320.9652      960.18531      0.99696118
     53000  -322.26935      53.889183     -376.15853      286.96356     -907.72457      960.18531      0.99696118
     54000  -337.41501      58.60248      -396.01749      312.06218      1115.8232      960.18531      0.99696118
     55000  -339.41031      54.766654     -394.17697      291.63615      1995.7056      960.18531      0.99696118
     56000  -328.24025      61.114622     -389.35487      325.43951      453.98262      960.18531      0.99696118
     57000  -311.54502      53.444342     -364.98937      284.59475     -1136.467       960.18531      0.99696118
     58000  -313.01115      53.505475     -366.51663      284.92028     -1607.3867      960.18531      0.99696118
     59000  -304.38317      61.129626     -365.51279      325.51941      4405.2517      960.18531      0.99696118
     60000  -326.41626      53.448234     -379.8645       284.61548     -4825.1841      960.18531      0.99696118
     61000  -328.30783      58.118421     -386.42626      309.48454     -2862.2837      960.18531      0.99696118
     62000  -340.36112      54.285909     -394.64703      289.07615      4169.2002      960.18531      0.99696118
     63000  -338.06364      50.655225     -388.71886      269.74251     -353.85439      960.18531      0.99696118
     64000  -324.20561      62.234207     -386.43981      331.40138      1095.7254      960.18531      0.99696118
     65000  -305.33722      65.807864     -371.14509      350.43134      760.55825      960.18531      0.99696118
     66000  -324.4489       49.475822     -373.92472      263.46211     -3409.7751      960.18531      0.99696118
     67000  -324.315        52.102007     -376.41701      277.44672     -2079.8129      960.18531      0.99696118
     68000  -332.53746      62.430191     -394.96765      332.44501     -1407.3767      960.18531      0.99696118
     69000  -351.3607       36.754309     -388.11501      195.71919     -1051.2962      960.18531      0.99696118
     70000  -322.2192       51.906982     -374.12619      276.4082      -1925.8658      960.18531      0.99696118
     71000  -330.99184      51.328772     -382.32061      273.3292      -1746.0032      960.18531      0.99696118
     72000  -323.57018      51.519314     -375.0895       274.34384      1499.8963      960.18531      0.99696118
     73000  -330.942        58.694702     -389.63671      312.55327      529.46275      960.18531      0.99696118
     74000  -325.26615      61.247447     -386.51359      326.14681      193.67217      960.18531      0.99696118
     75000  -334.03024      52.11786      -386.1481       277.53114     -479.78627      960.18531      0.99696118
     76000  -314.59341      48.321501     -362.91491      257.31527     -1530.2437      960.18531      0.99696118
     77000  -331.0452       62.038338     -393.08354      330.35836     -3699.8219      960.18531      0.99696118
     78000  -314.76042      66.810505     -381.57093      355.77047      483.96751      960.18531      0.99696118
     79000  -326.72193      53.361822     -380.08375      284.15532     -2639.1329      960.18531      0.99696118
     80000  -313.04584      58.763605     -371.80945      312.92019     -916.12837      960.18531      0.99696118
     81000  -310.08338      54.956782     -365.04017      292.6486      -1563.2824      960.18531      0.99696118
     82000  -323.61377      57.492151     -381.10592      306.14961     -102.08988      960.18531      0.99696118
     83000  -339.70303      54.495853     -394.19888      290.19412     -3532.7787      960.18531      0.99696118
     84000  -333.6587       53.9258       -387.5845       287.15855     -393.34896      960.18531      0.99696118
     85000  -337.93582      58.844008     -396.77983      313.34833     -2427.3243      960.18531      0.99696118
     86000  -325.22255      56.963115     -382.18566      303.33246      1589.5205      960.18531      0.99696118
     87000  -335.49017      50.943504     -386.43367      271.27762     -843.96842      960.18531      0.99696118
     88000  -326.93034      55.715235     -382.64557      296.68741      883.68182      960.18531      0.99696118
     89000  -305.80303      62.061715     -367.86475      330.48285      401.32643      960.18531      0.99696118
     90000  -309.94001      52.108007     -362.04801      277.47867     -695.90392      960.18531      0.99696118
     91000  -321.29352      57.298509     -378.59202      305.11845     -1803.6688      960.18531      0.99696118
     92000  -328.0809       69.942714     -398.02361      372.4497      -131.50426      960.18531      0.99696118
     93000  -333.72086      55.940486     -389.66135      297.88689      1148.3528      960.18531      0.99696118
     94000  -339.24148      52.39508      -391.63656      279.00736     -2424.1394      960.18531      0.99696118
     95000  -316.66952      60.205645     -376.87517      320.59915     -1568.4731      960.18531      0.99696118
     96000  -305.36053      55.799998     -361.16053      297.13878     -145.04779      960.18531      0.99696118
     97000  -316.38213      55.93384      -372.31597      297.85149      890.05293      960.18531      0.99696118
     98000  -305.91051      64.388029     -370.29854      342.87063      3519.8422      960.18531      0.99696118
     99000  -324.54677      56.511514     -381.05828      300.92765      713.21487      960.18531      0.99696118
    100000  -326.23125      55.563332     -381.79459      295.87851      3166.1459      960.18531      0.99696118
    101000  -318.75096      51.627364     -370.37832      274.91922      1336.6657      960.18531      0.99696118
    102000  -333.8133       42.224506     -376.03781      224.84836     -408.73413      960.18531      0.99696118
    103000  -322.344        55.896743     -378.24074      297.65395     -2250.4643      960.18531      0.99696118
    104000  -317.92667      58.111727     -376.03839      309.44889     -2135.7387      960.18531      0.99696118
    105000  -325.27148      51.033147     -376.30463      271.75497     -3256.9373      960.18531      0.99696118
    106000  -323.01866      48.71567      -371.73433      259.41425      596.2832       960.18531      0.99696118
    107000  -310.3468       59.846843     -370.19364      318.6885      -2312.7532      960.18531      0.99696118
    108000  -331.36893      52.410819     -383.77975      279.09117     -204.34428      960.18531      0.99696118
    109000  -317.27783      51.149229     -368.42706      272.37311     -1246.9768      960.18531      0.99696118
    110000  -324.48068      49.039674     -373.52036      261.13959      632.40018      960.18531      0.99696118
    111000  -325.7308       57.708705     -383.4395       307.30277      99.60612       960.18531      0.99696118
    112000  -319.77316      57.16724      -376.9404       304.41943      1150.2449      960.18531      0.99696118
    113000  -310.38825      55.37789      -365.76614      294.89103      1590.9147      960.18531      0.99696118
    114000  -322.21241      57.742389     -379.9548       307.48214     -858.56342      960.18531      0.99696118
    115000  -332.75312      52.417782     -385.1709       279.12825      303.38412      960.18531      0.99696118
    116000  -328.6296       48.586285     -377.21589      258.72527     -1907.8183      960.18531      0.99696118
    117000  -323.50842      51.149565     -374.65799      272.37491     -4290.1596      960.18531      0.99696118
    118000  -303.1641       57.280664     -360.44477      305.02343      1321.053       960.18531      0.99696118
    119000  -320.11395      58.442369     -378.55632      311.20958     -2192.1631      960.18531      0.99696118
    120000  -325.09826      63.480564     -388.57882      338.03831     -3559.8131      960.18531      0.99696118
    121000  -303.56158      66.956192     -370.51778      356.54627     -671.14192      960.18531      0.99696118
    122000  -322.29642      58.589454     -380.88588      311.99282      2103.4906      960.18531      0.99696118
    123000  -330.89695      61.053902     -391.95086      325.11617     -729.97369      960.18531      0.99696118
    124000  -319.9176       56.15455      -376.07215      299.02679      2541.9768      960.18531      0.99696118
    125000  -324.19803      56.030637     -380.22867      298.36695      585.8327       960.18531      0.99696118
    126000  -318.22688      59.098142     -377.32502      314.70162     -1536.6096      960.18531      0.99696118
    127000  -319.3009       62.280316     -381.58122      331.64691     -1493.2309      960.18531      0.99696118
    128000  -300.62155      62.828719     -363.45027      334.56719     -1775.6778      960.18531      0.99696118
    129000  -314.98277      62.427034     -377.4098       332.4282       154.70504      960.18531      0.99696118
    130000  -304.13985      55.705403     -359.84526      296.63505      367.67829      960.18531      0.99696118
    131000  -324.06403      55.901954     -379.96598      297.6817      -2589.2032      960.18531      0.99696118
    132000  -308.659        63.623828     -372.28283      338.8012       1599.3059      960.18531      0.99696118
    133000  -335.57542      61.588041     -397.16346      327.9605      -3742.5781      960.18531      0.99696118
    134000  -328.24053      64.512825     -392.75336      343.53517     -1825.0694      960.18531      0.99696118
    135000  -316.58349      55.496289     -372.07978      295.52151      212.27096      960.18531      0.99696118
    136000  -299.36895      64.466481     -363.83543      343.28839     -2315.6699      960.18531      0.99696118
    137000  -326.91314      54.632038     -381.54518      290.91931     -1946.909       960.18531      0.99696118
    138000  -311.64466      60.27887      -371.92353      320.98907     -2832.8424      960.18531      0.99696118
    139000  -331.5729       61.483502     -393.0564       327.40382     -2393.2442      960.18531      0.99696118
    140000  -320.0149       59.917461     -379.93236      319.06455      2035.0931      960.18531      0.99696118
    141000  -350.22742      45.18787      -395.41529      240.62847     -2788.0558      960.18531      0.99696118
    142000  -320.49755      56.294753     -376.79231      299.77338     -3169.2606      960.18531      0.99696118
    143000  -306.47085      62.031041     -368.50189      330.31951     -4070.3641      960.18531      0.99696118
    144000  -320.31059      60.972023     -381.28261      324.68016      1460.1395      960.18531      0.99696118
    145000  -312.04198      68.653203     -380.69518      365.58296     -1105.0022      960.18531      0.99696118
    146000  -309.65658      57.354506     -367.01108      305.41664      176.99309      960.18531      0.99696118
    147000  -317.47913      56.84635      -374.32548      302.71067     -2180.3419      960.18531      0.99696118
    148000  -325.97852      55.041087     -381.0196       293.09752      1229.7369      960.18531      0.99696118
    149000  -335.88754      53.102824     -388.99036      282.77614      4167.6287      960.18531      0.99696118
    150000  -334.56684      49.189748     -383.75659      261.93874     -1218.4954      960.18531      0.99696118
    151000  -304.71697      59.777584     -364.49455      318.31969      1114.0621      960.18531      0.99696118
    152000  -336.25726      51.164096     -387.42136      272.45228     -170.80774      960.18531      0.99696118
    153000  -329.96986      51.136216     -381.10607      272.30382     -1330.4242      960.18531      0.99696118
    154000  -314.43874      64.51582      -378.95456      343.55112      1722.0932      960.18531      0.99696118
    155000  -325.13837      49.390685     -374.52905      263.00875     -110.55859      960.18531      0.99696118
    156000  -328.35903      59.313106     -387.67213      315.84632      201.85144      960.18531      0.99696118
    157000  -313.80227      54.053074     -367.85534      287.83629     -576.27915      960.18531      0.99696118
    158000  -321.57734      53.281314     -374.85866      283.72662      1567.15        960.18531      0.99696118
    159000  -325.60772      59.631257     -385.23898      317.54049     -1938.7206      960.18531      0.99696118
    160000  -342.33485      53.479786     -395.81464      284.78349     -620.25243      960.18531      0.99696118
    161000  -326.40172      54.330607     -380.73233      289.31417     -2659.5629      960.18531      0.99696118
    162000  -336.0979       52.019767     -388.11767      277.00879      3679.9259      960.18531      0.99696118
    163000  -306.13268      63.084285     -369.21697      335.9281      -366.03193      960.18531      0.99696118
    164000  -335.01815      49.956533     -384.97468      266.02193      509.65531      960.18531      0.99696118
    165000  -310.05274      57.358114     -367.41085      305.43585     -1350.984       960.18531      0.99696118
    166000  -330.72979      45.904493     -376.63428      244.44454     -3567.6476      960.18531      0.99696118
    167000  -351.42494      47.378203     -398.80314      252.29215     -1398.668       960.18531      0.99696118
    168000  -334.0183       63.755004     -397.77331      339.49972      937.65575      960.18531      0.99696118
    169000  -352.36587      50.40117      -402.76704      268.38965     -4952.9943      960.18531      0.99696118
    170000  -317.13672      62.389851     -379.52657      332.23019     -434.72782      960.18531      0.99696118
    171000  -331.0476       55.131996     -386.1796       293.58162     -3881.0691      960.18531      0.99696118
    172000  -310.55514      59.977994     -370.53314      319.38689      2404.6441      960.18531      0.99696118
    173000  -351.64145      50.802066     -402.44352      270.52445     -610.10645      960.18531      0.99696118
    174000  -326.8017       64.005861     -390.80756      340.83556     -2363.2693      960.18531      0.99696118
    175000  -334.63186      43.385659     -378.01752      231.03158     -2947.0902      960.18531      0.99696118
    176000  -320.68541      53.662497     -374.34791      285.75644      206.73581      960.18531      0.99696118
    177000  -346.94472      45.785424     -392.73015      243.81049     -544.16862      960.18531      0.99696118
    178000  -311.99942      57.814823     -369.81424      307.86786      279.54825      960.18531      0.99696118
    179000  -339.27743      50.072701     -389.35013      266.64053     -1733.0038      960.18531      0.99696118
    180000  -329.45887      52.449417     -381.90829      279.29671     -3306.8358      960.18531      0.99696118
    181000  -319.90753      58.684933     -378.59246      312.50125      68.473669      960.18531      0.99696118
    182000  -327.38185      50.603102     -377.98495      269.46495     -410.26589      960.18531      0.99696118
    183000  -315.20888      62.129656     -377.33854      330.84464      41.405627      960.18531      0.99696118
    184000  -332.62395      59.682        -392.30595      317.8107      -2552.0588      960.18531      0.99696118
    185000  -335.42355      55.930351     -391.35391      297.83292      2536.5283      960.18531      0.99696118
    186000  -319.75201      66.454512     -386.20652      353.87479     -1006.0566      960.18531      0.99696118
    187000  -335.9467       58.87979      -394.82649      313.53888     -1955.4669      960.18531      0.99696118
    188000  -319.23903      63.79653      -383.03556      339.72085      2399.2569      960.18531      0.99696118
    189000  -317.1419       60.884859     -378.02676      324.21601      2601.9709      960.18531      0.99696118
    190000  -339.78337      54.32725      -394.11062      289.29629     -2385.1836      960.18531      0.99696118
    191000  -326.81824      57.611784     -384.43003      306.78666     -2175.9951      960.18531      0.99696118
    192000  -332.85584      51.99975      -384.85559      276.9022       2213.8349      960.18531      0.99696118
    193000  -316.3965       63.450973     -379.84747      337.88074      803.48059      960.18531      0.99696118
    194000  -329.25365      41.974697     -371.22835      223.51811     -1449.3781      960.18531      0.99696118
    195000  -317.77548      59.135794     -376.91128      314.90212     -1200.412       960.18531      0.99696118
    196000  -322.13173      54.857862     -376.98959      292.12184     -2866.8527      960.18531      0.99696118
    197000  -328.00345      59.638111     -387.64156      317.57699     -2187.2694      960.18531      0.99696118
    198000  -340.04927      55.616114     -395.66538      296.15958     -145.11599      960.18531      0.99696118
    199000  -350.18484      51.995351     -402.18019      276.87877     -359.06505      960.18531      0.99696118
    200000  -319.85274      59.628195     -379.48093      317.52419     -2983.3088      960.18531      0.99696118
    201000  -332.53212      52.941756     -385.47388      281.91845     -232.82954      960.18531      0.99696118
    202000  -337.23293      42.583965     -379.81689      226.76251     -1562.487       960.18531      0.99696118
    203000  -336.55128      48.555531     -385.10681      258.5615       798.19549      960.18531      0.99696118
    204000  -331.11148      55.966527     -387.07801      298.02556     -1957.7198      960.18531      0.99696118
    205000  -344.70293      60.652899     -405.35583      322.9808      -686.38025      960.18531      0.99696118
    206000  -324.51306      53.328685     -377.84174      283.97887     -4269.4808      960.18531      0.99696118
    207000  -320.74996      47.942106     -368.69207      255.29497      1545.9378      960.18531      0.99696118
    208000  -328.29145      53.434944     -381.72639      284.54471     -4176.9493      960.18531      0.99696118
    209000  -336.32769      51.658995     -387.98669      275.08765      397.02592      960.18531      0.99696118
    210000  -323.96529      53.846923     -377.81222      286.73852      4547.6844      960.18531      0.99696118
    211000  -335.9718       48.492387     -384.46418      258.22525      395.86399      960.18531      0.99696118
    212000  -335.35486      50.153999     -385.50886      267.07345     -729.02709      960.18531      0.99696118
    213000  -305.45788      56.774947     -362.23282      302.33045      21.851915      960.18531      0.99696118
    214000  -344.56732      49.703535     -394.27085      264.6747       1168.6003      960.18531      0.99696118
    215000  -328.79391      44.204027     -372.99794      235.38944     -2155.9083      960.18531      0.99696118
    216000  -329.74557      54.639345     -384.38492      290.95822      2368.5209      960.18531      0.99696118
    217000  -322.24465      55.426474     -377.67112      295.14974     -537.64613      960.18531      0.99696118
    218000  -314.75539      64.682037     -379.43742      344.43624      3733.9494      960.18531      0.99696118
    219000  -325.54234      51.163904     -376.70625      272.45126     -78.175927      960.18531      0.99696118
    220000  -321.07123      49.000047     -370.07127      260.92858     -2294.8562      960.18531      0.99696118
    221000  -322.51384      48.773561     -371.2874       259.72252      297.69308      960.18531      0.99696118
    222000  -314.63723      61.139546     -375.77677      325.57223     -38.668541      960.18531      0.99696118
    223000  -334.46454      50.655995     -385.12054      269.74661      504.39366      960.18531      0.99696118
    224000  -333.37655      56.578352     -389.9549       301.28356      745.99875      960.18531      0.99696118
    225000  -324.08402      56.096704     -380.18072      298.71876      2409.9797      960.18531      0.99696118
    226000  -332.35822      53.763346     -386.12157      286.29347      1377.4024      960.18531      0.99696118
    227000  -346.74603      51.507946     -398.25397      274.28331      555.74818      960.18531      0.99696118
    228000  -326.81909      54.47752      -381.29661      290.09649     -1781.4789      960.18531      0.99696118
    229000  -329.35539      54.003238     -383.35863      287.57091     -3866.2554      960.18531      0.99696118
    230000  -329.15667      46.912397     -376.06907      249.8117      -235.38251      960.18531      0.99696118
    231000  -326.19418      59.698058     -385.89224      317.89621      599.32556      960.18531      0.99696118
    232000  -327.14628      69.650045     -396.79633      370.89122      1010.4678      960.18531      0.99696118
    233000  -335.72972      59.268515     -394.99824      315.60887      1062.8949      960.18531      0.99696118
    234000  -322.12467      69.613518     -391.73819      370.69671     -1941.485       960.18531      0.99696118
    235000  -340.74896      52.89518      -393.64414      281.67042      42.463205      960.18531      0.99696118
    236000  -309.47553      66.818334     -376.29386      355.81217     -899.99027      960.18531      0.99696118
    237000  -319.08286      71.273216     -390.35607      379.53471      2629.3894      960.18531      0.99696118
    238000  -320.24561      42.316142     -362.56175      225.33633     -337.55425      960.18531      0.99696118
    239000  -313.30518      48.256544     -361.56173      256.96937      2345.4804      960.18531      0.99696118
    240000  -327.65165      48.513731     -376.16538      258.33891      3321.942       960.18531      0.99696118
    241000  -341.75919      52.159268     -393.91846      277.75164     -2180.9137      960.18531      0.99696118
    242000  -337.4903       53.096356     -390.58666      282.7417       1540.6421      960.18531      0.99696118
    243000  -326.76643      52.724879     -379.49131      280.76356     -3654.0402      960.18531      0.99696118
    244000  -335.64669      56.332569     -391.97926      299.97475     -2499.6206      960.18531      0.99696118
    245000  -327.75609      55.402081     -383.15817      295.01984     -346.61718      960.18531      0.99696118
    246000  -322.46312      56.941844     -379.40497      303.21919      2737.4294      960.18531      0.99696118
    247000  -323.0414       65.889178     -388.93058      350.86435     -1710.511       960.18531      0.99696118
    248000  -317.02964      56.317227     -373.34687      299.89306      1059.303       960.18531      0.99696118
    249000  -322.73439      60.246807     -382.9812       320.81834     -2955.4952      960.18531      0.99696118
    250000  -318.74404      55.517462     -374.2615       295.63425     -3448.856       960.18531      0.99696118
    251000  -319.61744      55.840592     -375.45803      297.35494     -974.3156       960.18531      0.99696118
    252000  -325.26576      52.704535     -377.9703       280.65522     -5505.4244      960.18531      0.99696118
    253000  -320.67194      62.011154     -382.6831       330.2136      -4270.7457      960.18531      0.99696118
    254000  -333.90814      52.836081     -386.74422      281.35572     -918.62308      960.18531      0.99696118
    255000  -327.46266      54.943394     -382.40606      292.5773      -833.98655      960.18531      0.99696118
    256000  -319.33023      55.317954     -374.64818      294.57186      1263.8626      960.18531      0.99696118
    257000  -319.19509      56.757875     -375.95296      302.23954     -360.44151      960.18531      0.99696118
    258000  -310.54406      62.091979     -372.63604      330.644       -584.06678      960.18531      0.99696118
    259000  -336.57282      49.401833     -385.97465      263.06811     -2457.116       960.18531      0.99696118
    260000  -321.28133      52.787882     -374.06921      281.09905      3019.6181      960.18531      0.99696118
    261000  -311.37228      57.496137     -368.86842      306.17083     -2620.7174      960.18531      0.99696118
    262000  -302.13771      67.463134     -369.60085      359.24577     -4507.4169      960.18531      0.99696118
    263000  -317.48893      51.147926     -368.63686      272.36618      112.81754      960.18531      0.99696118
    264000  -322.57634      59.16388      -381.74022      315.05168      2931.9724      960.18531      0.99696118
    265000  -314.91466      60.406299     -375.32096      321.66764      1048.4289      960.18531      0.99696118
    266000  -323.18913      51.187215     -374.37635      272.57539      6917.0715      960.18531      0.99696118
    267000  -320.29227      60.200138     -380.49241      320.56982      2841.8795      960.18531      0.99696118
    268000  -342.28798      56.008747     -398.29672      298.25038     -1408.2514      960.18531      0.99696118
    269000  -318.70636      59.302344     -378.0087       315.78901     -1788.3468      960.18531      0.99696118
    270000  -318.52951      54.122495     -372.652        288.20596     -3544.4123      960.18531      0.99696118
    271000  -312.96516      48.568872     -361.53403      258.63254     -1240.8096      960.18531      0.99696118
    272000  -336.65764      56.215489     -392.87312      299.35129      1258.1257      960.18531      0.99696118
    273000  -325.26461      57.141948     -382.40656      304.28475     -3071.3261      960.18531      0.99696118
    274000  -331.92147      59.47929      -391.40076      316.73126     -1554.0555      960.18531      0.99696118
    275000  -327.1179       55.718428     -382.83633      296.70441     -1227.0489      960.18531      0.99696118
    276000  -332.74917      49.678208     -382.42738      264.53983     -1408.5781      960.18531      0.99696118
    277000  -323.36387      47.89246      -371.25633      255.0306      -2427.9641      960.18531      0.99696118
    278000  -305.09471      68.68658      -373.78129      365.7607      -1397.0769      960.18531      0.99696118
    279000  -323.54786      60.41482      -383.96268      321.71302     -2012.6828      960.18531      0.99696118
    280000  -315.17614      45.820455     -360.99659      243.99703      4380.707       960.18531      0.99696118
    281000  -335.73209      51.455749     -387.18784      274.00536      3557.839       960.18531      0.99696118
    282000  -321.56626      53.489591     -375.05585      284.8357      -205.80935      960.18531      0.99696118
    283000  -318.67645      58.24018      -376.91663      310.13291     -96.417807      960.18531      0.99696118
    284000  -316.17226      55.157323     -371.32959      293.71649      2484.6537      960.18531      0.99696118
    285000  -346.8958       41.386196     -388.282        220.3843      -2978.1699      960.18531      0.99696118
    286000  -308.14053      61.165489     -369.30602      325.71038      1072.1892      960.18531      0.99696118
    287000  -327.60796      60.192337     -387.8003       320.52828     -175.7273       960.18531      0.99696118
    288000  -327.12332      49.451845     -376.57516      263.33443      781.11234      960.18531      0.99696118
    289000  -305.58948      78.180129     -383.76961      416.3145       3861.3005      960.18531      0.99696118
    290000  -317.92275      51.727658     -369.65041      275.45329      6319.8115      960.18531      0.99696118
    291000  -322.46377      49.010523     -371.47429      260.98436      1077.1904      960.18531      0.99696118
    292000  -308.73021      56.457357     -365.18756      300.63926      1315.4511      960.18531      0.99696118
    293000  -341.18174      51.875408     -393.05715      276.24007      648.79019      960.18531      0.99696118
    294000  -327.58197      55.18452      -382.76649      293.86131     -783.42142      960.18531      0.99696118
    295000  -320.67262      60.368108     -381.04073      321.46427      1900.641       960.18531      0.99696118
    296000  -327.95024      55.740603     -383.69084      296.8225      -3895.1008      960.18531      0.99696118
    297000  -333.72379      54.839944     -388.56373      292.02642     -1297.2118      960.18531      0.99696118
    298000  -303.50143      62.67032      -366.17175      333.72371      1632.7333      960.18531      0.99696118
    299000  -335.14305      51.09883      -386.24188      272.10474     -687.99288      960.18531      0.99696118
    300000  -324.22416      55.402881     -379.62704      295.0241      -1957.1724      960.18531      0.99696118
    301000  -315.76157      58.695519     -374.45709      312.55762      1965.8106      960.18531      0.99696118
    302000  -325.34126      52.184178     -377.52544      277.88429      10.291587      960.18531      0.99696118
    303000  -310.47693      57.218907     -367.69584      304.69456      1781.8317      960.18531      0.99696118
    304000  -333.25685      51.594483     -384.85134      274.74412      454.97072      960.18531      0.99696118
    305000  -320.79235      66.096012     -386.88836      351.96575     -1087.2934      960.18531      0.99696118
    306000  -314.19501      68.154799     -382.34981      362.92893      1619.5209      960.18531      0.99696118
    307000  -320.14911      52.248634     -372.39774      278.22752     -998.96533      960.18531      0.99696118
    308000  -313.60595      54.57615      -368.1821       290.6217       845.57522      960.18531      0.99696118
    309000  -320.26954      47.581533     -367.85108      253.37489     -1479.4977      960.18531      0.99696118
    310000  -313.73762      65.377622     -379.11524      348.14028     -988.00216      960.18531      0.99696118
    311000  -313.09211      54.148591     -367.24071      288.34492     -373.38888      960.18531      0.99696118
    312000  -316.79493      44.047293     -360.84223      234.55482     -3165.1855      960.18531      0.99696118
    313000  -315.53339      51.227016     -366.7604       272.78734     -1105.42        960.18531      0.99696118
    314000  -311.75489      61.088583     -372.84348      325.30085     -3292.1323      960.18531      0.99696118
    315000  -329.86366      51.518338     -381.382        274.33865     -1572.368       960.18531      0.99696118
    316000  -330.0371       54.23936      -384.27646      288.82827     -1380.8466      960.18531      0.99696118
    317000  -324.90014      59.717762     -384.61791      318.00114     -920.88169      960.18531      0.99696118
    318000  -341.39037      53.084601     -394.47497      282.6791       325.84784      960.18531      0.99696118
    319000  -329.13448      63.996817     -393.1313       340.7874       2162.3039      960.18531      0.99696118
    320000  -343.70364      54.062136     -397.76577      287.88455     -2082.7223      960.18531      0.99696118
    321000  -330.03304      56.32434      -386.35738      299.93094     -209.42814      960.18531      0.99696118
    322000  -337.68193      48.656581     -386.33851      259.0996      -691.42926      960.18531      0.99696118
    323000  -315.05814      65.477301     -380.53544      348.67107     -241.16045      960.18531      0.99696118
    324000  -335.47186      54.596882     -390.06874      290.73211      1436.787       960.18531      0.99696118
    325000  -320.57218      61.503434     -382.07562      327.50996     -2989.9233      960.18531      0.99696118
    326000  -320.60111      57.493063     -378.09417      306.15446     -1205.3957      960.18531      0.99696118
    327000  -316.17111      59.532148     -375.70326      317.01273      843.45092      960.18531      0.99696118
    328000  -316.11324      57.370266     -373.48351      305.50056      633.47916      960.18531      0.99696118
    329000  -321.61288      60.469527     -382.08241      322.00434      862.40179      960.18531      0.99696118
    330000  -312.74989      64.181895     -376.93178      341.77295     -639.01069      960.18531      0.99696118
    331000  -330.75351      53.888428     -384.64194      286.95954     -1100.4655      960.18531      0.99696118
    332000  -342.16198      49.515447     -391.67743      263.67311     -5573.6415      960.18531      0.99696118
    333000  -316.68973      65.404801     -382.09454      348.28501      2028.6095      960.18531      0.99696118
    334000  -309.34599      52.982828     -362.32882      282.13716      1667.5263      960.18531      0.99696118
    335000  -334.0682       53.332371     -387.40057      283.99849     -1901.7227      960.18531      0.99696118
    336000  -326.02721      57.199282     -383.2265       304.59006      346.95092      960.18531      0.99696118
    337000  -325.207        52.979044     -378.18604      282.11701      2691.1017      960.18531      0.99696118
    338000  -297.63802      64.090937     -361.72895      341.28859     -704.76065      960.18531      0.99696118
    339000  -317.15202      60.219945     -377.37197      320.6753      -3692.8485      960.18531      0.99696118
    340000  -310.51723      50.187587     -360.70482      267.25231     -1896.3003      960.18531      0.99696118
    341000  -326.44997      46.428985     -372.87896      247.23749     -929.44465      960.18531      0.99696118
    342000  -326.33804      55.067285     -381.40533      293.23703     -956.76538      960.18531      0.99696118
    343000  -332.85352      44.298392     -377.15192      235.89194     -2507.271       960.18531      0.99696118
    344000  -331.02651      50.676723     -381.70324      269.85699      2634.6232      960.18531      0.99696118
    345000  -316.86767      60.171945     -377.03961      320.41969     -2726.6002      960.18531      0.99696118
    346000  -302.85961      63.906708     -366.76632      340.30756     -3522.4843      960.18531      0.99696118
    347000  -327.9776       55.095439     -383.07304      293.38695      1479.6903      960.18531      0.99696118
    348000  -330.31399      52.846063     -383.16005      281.40887      657.21678      960.18531      0.99696118
    349000  -330.55743      50.937249     -381.49467      271.24431     -3037.171       960.18531      0.99696118
    350000  -332.48348      52.395127     -384.87861      279.00761     -2080.8743      960.18531      0.99696118
    351000  -341.13498      50.755523     -391.8905       270.27661      1057.9186      960.18531      0.99696118
    352000  -324.6307       60.140447     -384.77115      320.25196      3166.4219      960.18531      0.99696118
    353000  -315.31824      60.637627     -375.95587      322.89948      2069.842       960.18531      0.99696118
    354000  -337.82791      49.936115     -387.76403      265.9132      -2449.4241      960.18531      0.99696118
    355000  -327.83649      49.696225     -377.53271      264.63577      444.97         960.18531      0.99696118
    356000  -328.44788      62.616717     -391.0646       333.43827     -2618.2251      960.18531      0.99696118
    357000  -309.53297      56.656006     -366.18898      301.69708      411.94444      960.18531      0.99696118
    358000  -321.26294      59.878474     -381.14142      318.85694     -554.61706      960.18531      0.99696118
    359000  -326.76273      63.651068     -390.41379      338.94626      2217.9032      960.18531      0.99696118
    360000  -318.52232      60.177413     -378.69973      320.44881     -856.41021      960.18531      0.99696118
    361000  -318.67505      57.917747     -376.5928       308.41593      1690.7727      960.18531      0.99696118
    362000  -309.08426      56.995298     -366.07956      303.50383     -1621.3548      960.18531      0.99696118
    363000  -320.97044      56.18127      -377.15171      299.16908     -3820.8358      960.18531      0.99696118
    364000  -307.89453      64.881708     -372.77623      345.4995      -426.24664      960.18531      0.99696118
    365000  -344.20451      48.58905      -392.79356      258.73999      4914.8372      960.18531      0.99696118
    366000  -332.05123      54.302574     -386.35381      289.16489     -174.91311      960.18531      0.99696118
    367000  -327.69319      55.106916     -382.80011      293.44807     -2409.8911      960.18531      0.99696118
    368000  -323.58752      59.588878     -383.1764       317.31482     -605.76958      960.18531      0.99696118
    369000  -311.37853      56.002984     -367.38152      298.21969      2393.09        960.18531      0.99696118
    370000  -336.34145      48.583484     -384.92493      258.71035     -2277.8381      960.18531      0.99696118
    371000  -326.20425      64.64012      -390.84437      344.21303     -399.31756      960.18531      0.99696118
    372000  -324.81289      52.465999     -377.27889      279.38501      3438.517       960.18531      0.99696118
    373000  -329.32083      55.201623     -384.52245      293.95239     -205.53205      960.18531      0.99696118
    374000  -327.05497      51.901598     -378.95656      276.37953     -1813.6238      960.18531      0.99696118
    375000  -331.40911      56.318165     -387.72727      299.89805     -2911.9929      960.18531      0.99696118
    376000  -322.47494      57.206166     -379.6811       304.62672      942.73143      960.18531      0.99696118
    377000  -316.23721      58.609376     -374.84659      312.09891     -1045.29        960.18531      0.99696118
    378000  -303.6993       56.418845     -360.11815      300.43418     -481.27469      960.18531      0.99696118
    379000  -343.96753      42.649617     -386.61715      227.1121      -902.32368      960.18531      0.99696118
    380000  -320.22287      56.097852     -376.32073      298.72487      2883.0304      960.18531      0.99696118
    381000  -345.95323      43.059936     -389.01316      229.29708     -2095.684       960.18531      0.99696118
    382000  -324.06522      56.322396     -380.38761      299.92058     -343.69628      960.18531      0.99696118
    383000  -320.08223      51.906946     -371.98918      276.40801     -819.71083      960.18531      0.99696118
    384000  -336.34734      52.880613     -389.22795      281.59285      1254.8378      960.18531      0.99696118
    385000  -325.03953      64.32613      -389.36566      342.54101      214.2557       960.18531      0.99696118
    386000  -316.40851      53.827331     -370.23584      286.63419     -1387.3161      960.18531      0.99696118
    387000  -322.8156       46.583749     -369.39935      248.06163     -936.58893      960.18531      0.99696118
    388000  -317.29539      59.705079     -377.00047      317.9336       1980.4382      960.18531      0.99696118
    389000  -328.75696      56.060347     -384.81731      298.52516     -2645.7877      960.18531      0.99696118
    390000  -326.63793      51.267104     -377.90503      273.00081     -1987.6712      960.18531      0.99696118
    391000  -333.75047      51.632909     -385.38338      274.94875     -3103.6687      960.18531      0.99696118
    392000  -303.91671      63.221657     -367.13837      336.65962     -789.38074      960.18531      0.99696118
    393000  -330.14665      52.075641     -382.22229      277.30632      407.09975      960.18531      0.99696118
    394000  -317.51373      66.721495     -384.23522      355.29649      2453.8803      960.18531      0.99696118
    395000  -307.2518       69.405748     -376.65755      369.59032      1682.3125      960.18531      0.99696118
    396000  -341.67137      42.081409     -383.75278      224.08636     -479.56923      960.18531      0.99696118
    397000  -324.36425      63.677954     -388.0422       339.08943      974.635        960.18531      0.99696118
    398000  -303.81413      64.293564     -368.10769      342.36759     -1385.2773      960.18531      0.99696118
    399000  -300.6266       60.471918     -361.09852      322.01707     -722.32888      960.18531      0.99696118
    400000  -318.42017      55.442696     -373.86286      295.23612     -2324.9598      960.18531      0.99696118
    401000  -329.40471      50.744852     -380.14956      270.21978     -3972.2792      960.18531      0.99696118
    402000  -334.42178      50.302349     -384.72413      267.86342     -155.39188      960.18531      0.99696118
    403000  -323.75761      57.566904     -381.32451      306.54767     -3838.2989      960.18531      0.99696118
    404000  -334.7992       45.961753     -380.76095      244.74945     -1601.1728      960.18531      0.99696118
    405000  -316.18662      53.878329     -370.06495      286.90576      2316.2965      960.18531      0.99696118
    406000  -328.40075      45.56345      -373.9642       242.62846     -2762.2394      960.18531      0.99696118
    407000  -318.10139      57.738834     -375.84022      307.46321      2716.8026      960.18531      0.99696118
    408000  -325.71066      49.822346     -375.533        265.30737     -1007.5752      960.18531      0.99696118
    409000  -336.15903      53.22715      -389.38618      283.43819     -742.61181      960.18531      0.99696118
    410000  -304.42574      64.300226     -368.72597      342.40307     -794.90741      960.18531      0.99696118
    411000  -338.92096      61.269347     -400.19031      326.26343      3093.9883      960.18531      0.99696118
    412000  -319.93792      55.92441      -375.86233      297.80128     -923.43116      960.18531      0.99696118
    413000  -328.25512      59.755131     -388.01025      318.20013     -1520.1471      960.18531      0.99696118
    414000  -332.74427      48.646591     -381.39086      259.0464       455.07962      960.18531      0.99696118
    415000  -344.12853      43.215202     -387.34373      230.12389      2001.3053      960.18531      0.99696118
    416000  -329.61763      50.658836     -380.27646      269.76174     -1976.2577      960.18531      0.99696118
    417000  -329.9457       51.53717      -381.48286      274.43893     -2936.5973      960.18531      0.99696118
    418000  -323.5979       59.033495     -382.63139      314.35737      774.23689      960.18531      0.99696118
    419000  -319.97445      56.016233     -375.99068      298.29024     -2930.6471      960.18531      0.99696118
    420000  -312.13015      53.965404     -366.09555      287.36944     -2739.7         960.18531      0.99696118
    421000  -332.46313      51.010159     -383.47329      271.63256     -1667.795       960.18531      0.99696118
    422000  -324.42903      59.282804     -383.71184      315.68496     -384.88556      960.18531      0.99696118
    423000  -327.62617      54.542432     -382.1686       290.44216      6374.3916      960.18531      0.99696118
    424000  -342.84042      44.477946     -387.31836      236.84808     -4060.8485      960.18531      0.99696118
    425000  -332.49374      51.256177     -383.74991      272.94262      655.35969      960.18531      0.99696118
    426000  -318.8581       45.587183     -364.44528      242.75484     -1809.1655      960.18531      0.99696118
    427000  -319.40647      56.10101      -375.50748      298.74169      459.5794       960.18531      0.99696118
    428000  -322.30013      60.833619     -383.13374      323.94315     -2487.756       960.18531      0.99696118
    429000  -343.9031       50.596426     -394.49952      269.4294       2335.6242      960.18531      0.99696118
    430000  -306.62152      56.248764     -362.87028      299.52849     -886.29816      960.18531      0.99696118
    431000  -333.84749      53.923772     -387.77126      287.14775     -882.63358      960.18531      0.99696118
    432000  -325.51555      57.804732     -383.32029      307.81412      3151.0261      960.18531      0.99696118
    433000  -318.8401       52.10706      -370.94716      277.47363      0.23499466     960.18531      0.99696118
    434000  -328.00218      58.431543     -386.43373      311.15193      3939.617       960.18531      0.99696118
    435000  -324.90146      58.38122      -383.28268      310.88396     -588.0958       960.18531      0.99696118
    436000  -320.51375      57.879848     -378.3936       308.21412     -2340.1882      960.18531      0.99696118
    437000  -328.02608      51.519709     -379.54578      274.34595     -631.24037      960.18531      0.99696118
    438000  -318.63786      49.201108     -367.83897      261.99924     -1369.663       960.18531      0.99696118
    439000  -331.84467      59.42405      -391.26872      316.4371      -1465.3108      960.18531      0.99696118
    440000  -312.95221      63.012878     -375.96509      335.54785      1668.1741      960.18531      0.99696118
    441000  -321.97812      56.255608     -378.23373      299.56493      1815.6825      960.18531      0.99696118
    442000  -318.83756      55.647367     -374.48493      296.326       -3510.5174      960.18531      0.99696118
    443000  -321.98781      52.236055     -374.22386      278.16054      442.16209      960.18531      0.99696118
    444000  -345.25832      54.746415     -400.00474      291.52838      388.0567       960.18531      0.99696118
    445000  -331.6882       53.099442     -384.78765      282.75813      3071.3235      960.18531      0.99696118
    446000  -324.28974      52.758948     -377.04868      280.94498     -250.35389      960.18531      0.99696118
    447000  -319.10884      64.892308     -384.00115      345.55595     -1979.9796      960.18531      0.99696118
    448000  -301.83958      49.329155     -351.16873      262.6811      -403.62815      960.18531      0.99696118
    449000  -318.84074      64.784498     -383.62524      344.98185      2490.6633      960.18531      0.99696118
    450000  -320.18617      50.230436     -370.41661      267.48048      2074.8699      960.18531      0.99696118
    451000  -311.09215      57.25465      -368.3468       304.8849      -900.31934      960.18531      0.99696118
    452000  -334.9908       59.965581     -394.95638      319.32079     -1203.2582      960.18531      0.99696118
    453000  -324.40813      56.174932     -380.58306      299.13533     -2821.4186      960.18531      0.99696118
    454000  -346.13823      50.906887     -397.04512      271.08263     -4313.6296      960.18531      0.99696118
    455000  -322.03125      54.341415     -376.37266      289.37172      3327.9881      960.18531      0.99696118
    456000  -320.74876      65.051584     -385.80035      346.4041      -1627.2328      960.18531      0.99696118
    457000  -324.10109      55.959753     -380.06084      297.98948     -1106.0813      960.18531      0.99696118
    458000  -328.38259      49.408586     -377.79118      263.10407      624.02234      960.18531      0.99696118
    459000  -323.02947      49.79745      -372.82692      265.1748      -996.69857      960.18531      0.99696118
    460000  -321.44091      55.974455     -377.41536      298.06777      4146.4391      960.18531      0.99696118
    461000  -310.66317      59.880247     -370.54342      318.86638     -3663.3425      960.18531      0.99696118
    462000  -336.15127      60.110418     -396.26168      320.09206     -2136.7155      960.18531      0.99696118
    463000  -314.28393      62.701344     -376.98527      333.88891      2960.0924      960.18531      0.99696118
    464000  -322.88587      59.648699     -382.53457      317.63337     -1715.2617      960.18531      0.99696118
    465000  -301.51282      58.175794     -359.68862      309.79005      2208.5243      960.18531      0.99696118
    466000  -312.43138      55.708935     -368.14032      296.65386      2916.1138      960.18531      0.99696118
    467000  -315.49762      55.455802     -370.95342      295.30591     -3562.0669      960.18531      0.99696118
    468000  -314.34499      51.66587      -366.01086      275.12426     -2643.4513      960.18531      0.99696118
    469000  -322.59529      54.947593     -377.54288      292.59966      3725.3444      960.18531      0.99696118
    470000  -310.04059      61.346282     -371.38688      326.67311      3514.8256      960.18531      0.99696118
    471000  -316.37892      51.775524     -368.15444      275.70818      2209.5717      960.18531      0.99696118
    472000  -332.14365      45.610628     -377.75428      242.87969      469.89595      960.18531      0.99696118
    473000  -345.40281      48.632433     -394.03524      258.97101      746.84319      960.18531      0.99696118
    474000  -331.65066      54.893895     -386.54455      292.31372      2910.6838      960.18531      0.99696118
    475000  -322.0788       63.682396     -385.7612       339.11308     -1241.3822      960.18531      0.99696118
    476000  -337.16849      51.063477     -388.23197      271.91648      6.925417       960.18531      0.99696118
    477000  -312.40406      53.957094     -366.36115      287.32519      940.12561      960.18531      0.99696118
    478000  -312.72035      63.112523     -375.83287      336.07847      1570.3226      960.18531      0.99696118
    479000  -311.08453      52.7633       -363.84783      280.96815      797.00083      960.18531      0.99696118
    480000  -342.45004      47.939361     -390.3894       255.28035      1435.2572      960.18531      0.99696118
    481000  -326.12468      58.147479     -384.27215      309.63927      1543.6567      960.18531      0.99696118
    482000  -316.91019      50.93397      -367.84416      271.22685      724.43075      960.18531      0.99696118
    483000  -344.45904      59.975226     -404.43426      319.37215     -3559.3496      960.18531      0.99696118
    484000  -324.59049      49.661237     -374.25173      264.44946      3879.8714      960.18531      0.99696118
    485000  -333.95293      46.590712     -380.54364      248.09871      669.80791      960.18531      0.99696118
    486000  -324.37057      60.803416     -385.17398      323.78232      2770.3692      960.18531      0.99696118
    487000  -328.83129      51.300885     -380.13217      273.18069     -2554.5172      960.18531      0.99696118
    488000  -317.23197      57.312079     -374.54405      305.19071     -293.45569      960.18531      0.99696118
    489000  -316.57938      61.955045     -378.53442      329.91482      3135.7051      960.18531      0.99696118
    490000  -335.54258      49.358042     -384.90063      262.83493      3550.0487      960.18531      0.99696118
    491000  -316.56576      58.128091     -374.69385      309.53603     -1531.025       960.18531      0.99696118
    492000  -319.7953       63.537749     -383.33305      338.34283     -3098.6563      960.18531      0.99696118
    493000  -319.56484      61.304381     -380.86922      326.44999     -797.80937      960.18531      0.99696118
    494000  -313.08905      57.904944     -370.994        308.34776     -2477.0686      960.18531      0.99696118
    495000  -330.44954      58.785285     -389.23482      313.03563     -2315.1446      960.18531      0.99696118
    496000  -312.64527      64.146796     -376.79206      341.58604     -2418.8287      960.18531      0.99696118
    497000  -312.56601      46.481619     -359.04763      247.51777      2563.2013      960.18531      0.99696118
    498000  -313.56069      56.865252     -370.42594      302.81133     -1435.6349      960.18531      0.99696118
    499000  -333.32133      50.121239     -383.44257      266.899       -527.32495      960.18531      0.99696118
    500000  -316.81192      59.390672     -376.20259      316.25936     -364.78812      960.18531      0.99696118
    501000  -325.61692      54.641029     -380.25795      290.96719      1644.1182      960.18531      0.99696118
    502000  -344.63181      51.888429     -396.52024      276.30941     -3362.9205      960.18531      0.99696118
    503000  -330.02976      51.561638     -381.59139      274.56923      584.46244      960.18531      0.99696118
    504000  -340.78435      59.450399     -400.23474      316.57741     -1623.1684      960.18531      0.99696118
    505000  -332.94169      64.051866     -396.99356      341.08054      916.07533      960.18531      0.99696118
    506000  -337.27576      55.788428     -393.06418      297.07717     -2586.4594      960.18531      0.99696118
    507000  -331.98595      61.062108     -393.04805      325.15987     -190.13052      960.18531      0.99696118
    508000  -345.23826      51.130911     -396.36917      272.27557     -1791.1742      960.18531      0.99696118
    509000  -323.26941      61.782648     -385.05206      328.99679     -821.81716      960.18531      0.99696118
    510000  -320.87288      53.763138     -374.63602      286.29236     -775.9179       960.18531      0.99696118
    511000  -325.73746      55.429573     -381.16704      295.16624     -405.64092      960.18531      0.99696118
    512000  -324.8686       55.743677     -380.61228      296.83886      1581.175       960.18531      0.99696118
    513000  -332.72815      55.377983     -388.10613      294.89152      253.26207      960.18531      0.99696118
    514000  -312.67559      68.166389     -380.84198      362.99065     -1033.962       960.18531      0.99696118
    515000  -317.52553      66.031524     -383.55705      351.62235     -1163.3375      960.18531      0.99696118
    516000  -326.26734      58.295422     -384.56277      310.42708      1714.3696      960.18531      0.99696118
    517000  -317.22152      56.413252     -373.63477      300.4044      -251.47977      960.18531      0.99696118
    518000  -333.57988      54.44585      -388.02573      289.92785      2845.3783      960.18531      0.99696118
    519000  -317.01685      50.813101     -367.82995      270.58321      839.85907      960.18531      0.99696118
    520000  -314.74708      57.789058     -372.53614      307.73066     -559.02544      960.18531      0.99696118
    521000  -318.45423      54.842036     -373.29627      292.03756     -1625.4106      960.18531      0.99696118
    522000  -300.01265      55.191715     -355.20436      293.89963     -3123.2655      960.18531      0.99696118
    523000  -325.85662      47.446084     -373.30271      252.65362      23.926583      960.18531      0.99696118
    524000  -319.11025      51.032142     -370.14239      271.74962     -3444.5331      960.18531      0.99696118
    525000  -320.80508      58.090183     -378.89527      309.33417     -3690.3869      960.18531      0.99696118
    526000  -315.14778      55.654527     -370.8023       296.36414     -230.4712       960.18531      0.99696118
    527000  -321.17694      52.930601     -374.10754      281.85904     -1346.2676      960.18531      0.99696118
    528000  -318.63153      66.949461     -385.58099      356.51043      2503.1567      960.18531      0.99696118
    529000  -325.74284      58.77363      -384.51647      312.97357      1831.6126      960.18531      0.99696118
    530000  -320.81947      50.561321     -371.38079      269.24247      617.93938      960.18531      0.99696118
    531000  -317.42587      62.263789     -379.68966      331.55891      1945.1161      960.18531      0.99696118
    532000  -322.02541      60.948742     -382.97415      324.55619      2811.3683      960.18531      0.99696118
    533000  -314.16646      52.931923     -367.09838      281.86608      1295.255       960.18531      0.99696118
    534000  -329.23382      47.04737      -376.28119      250.53044     -567.65564      960.18531      0.99696118
    535000  -302.19114      62.340638     -364.53178      331.96813      3279.0778      960.18531      0.99696118
    536000  -296.31284      63.528081     -359.84092      338.29134      952.63835      960.18531      0.99696118
    537000  -320.49268      48.70687      -369.19955      259.36739     -2263.2488      960.18531      0.99696118
    538000  -327.02807      55.066588     -382.09466      293.23332      1603.7092      960.18531      0.99696118
    539000  -318.67672      50.039403     -368.71613      266.46322      3290.6662      960.18531      0.99696118
    540000  -304.77503      70.545468     -375.3205       375.65941     -1822.5004      960.18531      0.99696118
    541000  -323.50586      55.356708     -378.86257      294.77823     -344.38333      960.18531      0.99696118
    542000  -309.11193      59.37205      -368.48398      316.1602      -985.28218      960.18531      0.99696118
    543000  -330.46678      55.372573     -385.83935      294.86271     -2396.6367      960.18531      0.99696118
    544000  -312.6685       58.682374     -371.35088      312.48763      2778.4083      960.18531      0.99696118
    545000  -326.00469      55.069569     -381.07426      293.24919      5511.9412      960.18531      0.99696118
    546000  -307.96603      72.318028     -380.28405      385.09841      5140.4513      960.18531      0.99696118
    547000  -328.91613      52.109525     -381.02566      277.48676     -1917.4405      960.18531      0.99696118
    548000  -310.78136      56.083225     -366.86458      298.64698     -1751.0218      960.18531      0.99696118
    549000  -334.23598      50.100818     -384.3368       266.79026     -6797.9455      960.18531      0.99696118
    550000  -329.52012      56.658        -386.17812      301.7077       3347.4694      960.18531      0.99696118
    551000  -330.67451      55.51982      -386.19433      295.64681      647.77123      960.18531      0.99696118
    552000  -339.21886      51.848462     -391.06732      276.09658      820.94899      960.18531      0.99696118
    553000  -328.97431      57.711925     -386.68624      307.31992     -2249.2943      960.18531      0.99696118
    554000  -324.42006      55.181604     -379.60166      293.84579     -1355.4203      960.18531      0.99696118
    555000  -324.51576      57.957897     -382.47365      308.62974     -3463.9634      960.18531      0.99696118
    556000  -322.79397      58.371456     -381.16543      310.83196     -2805.3661      960.18531      0.99696118
    557000  -312.56107      61.445444     -374.00652      327.20116      3286.9033      960.18531      0.99696118
    558000  -333.50098      51.904261     -385.40524      276.39371      2257.3191      960.18531      0.99696118
    559000  -317.15705      57.837067     -374.99411      307.98631      1136.8989      960.18531      0.99696118
    560000  -325.16434      54.423369     -379.58771      289.80814     -1693.8998      960.18531      0.99696118
    561000  -336.41607      54.197459     -390.61353      288.60515     -249.73997      960.18531      0.99696118
    562000  -321.1502       65.58131      -386.73151      349.22493      3529.0648      960.18531      0.99696118
    563000  -331.5722       52.908729     -384.48093      281.74258     -1977.7032      960.18531      0.99696118
    564000  -327.31056      52.091057     -379.40162      277.38842      1217.5479      960.18531      0.99696118
    565000  -325.55362      57.015991     -382.56961      303.61402     -650.78093      960.18531      0.99696118
    566000  -317.01559      59.035204     -376.05079      314.36647      4322.5403      960.18531      0.99696118
    567000  -329.88556      52.271376     -382.15694      278.34863     -250.2294       960.18531      0.99696118
    568000  -322.95591      58.240454     -381.19637      310.13437      781.96658      960.18531      0.99696118
    569000  -308.25223      58.640916     -366.89315      312.26686     -1973.4335      960.18531      0.99696118
    570000  -329.63767      50.253121     -379.89079      267.60128      595.3723       960.18531      0.99696118
    571000  -321.48008      60.36186      -381.84194      321.431        870.53389      960.18531      0.99696118
    572000  -336.5041       51.118445     -387.62255      272.20919     -766.49123      960.18531      0.99696118
    573000  -336.56121      52.37977      -388.94098      278.92583      2147.1309      960.18531      0.99696118
    574000  -320.69793      49.635397     -370.33333      264.31186     -2672.5967      960.18531      0.99696118
    575000  -332.77896      52.874174     -385.65314      281.55856     -5209.0312      960.18531      0.99696118
    576000  -314.10226      54.755022     -368.85728      291.57421      3652.3374      960.18531      0.99696118
    577000  -328.68232      48.966736     -377.64906      260.75119     -2182.1982      960.18531      0.99696118
    578000  -323.79789      62.28656      -386.08445      331.68016     -2274.326       960.18531      0.99696118
    579000  -329.60381      50.917279     -380.52109      271.13797     -2206.4056      960.18531      0.99696118
    580000  -316.7391       55.461933     -372.20103      295.33856     -2017.6739      960.18531      0.99696118
    581000  -327.44835      56.482169     -383.93052      300.77139      141.83482      960.18531      0.99696118
    582000  -312.53516      50.700627     -363.23578      269.98428     -2078.4718      960.18531      0.99696118
    583000  -323.61384      53.221445     -376.83529      283.40781     -632.30934      960.18531      0.99696118
    584000  -323.39019      54.510157     -377.90034      290.27028     -591.22616      960.18531      0.99696118
    585000  -323.76869      56.13371      -379.9024       298.91582      1770.778       960.18531      0.99696118
    586000  -331.38722      52.063085     -383.4503       277.23946      1037.7038      960.18531      0.99696118
    587000  -333.94433      52.118642     -386.06298      277.53531      2304.8881      960.18531      0.99696118
    588000  -332.32013      49.188204     -381.50833      261.93052      2242.5455      960.18531      0.99696118
    589000  -318.26926      60.663685     -378.93295      323.03824      1691.5766      960.18531      0.99696118
    590000  -328.47015      49.775828     -378.24598      265.05966      2363.426       960.18531      0.99696118
    591000  -329.31768      57.715391     -387.03307      307.33837      736.37098      960.18531      0.99696118
    592000  -311.4681       56.365299     -367.8334       300.14904     -962.75765      960.18531      0.99696118
    593000  -308.57199      63.388649     -371.96064      337.54886     -2199.7183      960.18531      0.99696118
    594000  -332.68743      53.041361     -385.72879      282.44885     -4056.092       960.18531      0.99696118
    595000  -321.08901      52.041925     -373.13093      277.12679      2156.4897      960.18531      0.99696118
    596000  -317.17942      55.979824     -373.15924      298.09636     -1059.4385      960.18531      0.99696118
    597000  -331.93197      53.336633     -385.2686       284.02119     -2020.6963      960.18531      0.99696118
    598000  -312.00418      56.371675     -368.37586      300.183        3056.4941      960.18531      0.99696118
    599000  -302.74816      61.69694      -364.4451       328.54039      2627.1016      960.18531      0.99696118
    600000  -325.49836      56.967398     -382.46575      303.35526     -1014.3276      960.18531      0.99696118
    601000  -322.70213      50.990525     -373.69265      271.52801     -1856.2248      960.18531      0.99696118
    602000  -322.66402      59.918997     -382.58301      319.07273     -1151.4426      960.18531      0.99696118
    603000  -324.09404      57.750785     -381.84483      307.52685      882.01328      960.18531      0.99696118
    604000  -313.58819      63.619522     -377.20771      338.77827     -3248.7832      960.18531      0.99696118
    605000  -322.47823      57.074391     -379.55262      303.92501     -1992.6847      960.18531      0.99696118
    606000  -327.2532       59.916147     -387.16935      319.05755     -847.49924      960.18531      0.99696118
    607000  -328.12971      57.795401     -385.92511      307.76443     -2979.8332      960.18531      0.99696118
    608000  -319.21755      54.608624     -373.82618      290.79463      2916.9111      960.18531      0.99696118
    609000  -329.23355      57.472751     -386.7063       306.0463      -2349.6231      960.18531      0.99696118
    610000  -327.11817      62.120701     -389.23887      330.79695      997.53694      960.18531      0.99696118
    611000  -330.28366      54.531214     -384.81487      290.38241      816.40324      960.18531      0.99696118
    612000  -331.29784      57.365142     -388.66298      305.47327     -821.9462       960.18531      0.99696118
    613000  -319.23481      50.277503     -369.51231      267.73112     -720.54063      960.18531      0.99696118
    614000  -327.26504      53.718032     -380.98307      286.05217      1075.3114      960.18531      0.99696118
    615000  -336.65116      50.474003     -387.12516      268.77749     -1689.6919      960.18531      0.99696118
    616000  -326.82734      60.419876     -387.24721      321.73994     -297.61232      960.18531      0.99696118
    617000  -341.58106      49.851479     -391.43254      265.46251      156.9244       960.18531      0.99696118
    618000  -324.07794      57.177084     -381.25503      304.47185     -1972.952       960.18531      0.99696118
    619000  -343.59949      55.555327     -399.15482      295.83589      1320.8207      960.18531      0.99696118
    620000  -342.27763      50.792052     -393.06968      270.47113     -3609.2035      960.18531      0.99696118
    621000  -310.25565      61.094511     -371.35016      325.33242      3483.5613      960.18531      0.99696118
    622000  -322.44484      56.22509      -378.66993      299.40242      1240.4535      960.18531      0.99696118
    623000  -313.73021      65.21033      -378.94054      347.24943      750.51623      960.18531      0.99696118
    624000  -325.70362      53.529147     -379.23277      285.04634      1534.426       960.18531      0.99696118
    625000  -320.63023      56.994599     -377.62483      303.50011     -1177.814       960.18531      0.99696118
    626000  -318.5291       54.671007     -373.20011      291.12683     -4053.921       960.18531      0.99696118
    627000  -294.12827      62.788012     -356.91628      334.35043     -2149.6313      960.18531      0.99696118
    628000  -324.80744      52.172372     -376.97981      277.82143     -1600.2144      960.18531      0.99696118
    629000  -311.46796      61.270341     -372.7383       326.26873     -2503.4893      960.18531      0.99696118
    630000  -313.46339      60.344796     -373.80818      321.34013      361.00248      960.18531      0.99696118
    631000  -321.48132      59.823679     -381.305        318.56515     -1096.4226      960.18531      0.99696118
    632000  -312.6586       66.413477     -379.07208      353.65627      216.61149      960.18531      0.99696118
    633000  -323.01245      49.281746     -372.29419      262.42864     -819.65158      960.18531      0.99696118
    634000  -318.91524      59.123614     -378.03886      314.83726     -859.09296      960.18531      0.99696118
    635000  -314.24674      59.22051      -373.46725      315.35323      3749.0694      960.18531      0.99696118
    636000  -329.51438      60.866376     -390.38075      324.11758     -1353.6126      960.18531      0.99696118
    637000  -320.42505      51.038617     -371.46367      271.7841       532.47302      960.18531      0.99696118
    638000  -288.12643      65.304404     -353.43084      347.75039      1060.0913      960.18531      0.99696118
    639000  -320.46637      51.377829     -371.8442       273.59043     -4206.6294      960.18531      0.99696118
    640000  -320.26723      49.41862      -369.68585      263.15751      2587.8689      960.18531      0.99696118
    641000  -323.19327      61.267527     -384.4608       326.25374     -1872.9903      960.18531      0.99696118
    642000  -318.55041      52.147637     -370.69805      277.68971      3620.6094      960.18531      0.99696118
    643000  -334.98882      47.191507     -382.18033      251.29798     -3371.4194      960.18531      0.99696118
    644000  -322.132        58.64825      -380.78025      312.30591     -1355.4632      960.18531      0.99696118
    645000  -338.66323      47.734575     -386.39781      254.18985      455.37532      960.18531      0.99696118
    646000  -325.58921      51.330077     -376.91928      273.33614     -1208.4719      960.18531      0.99696118
    647000  -312.98739      67.512387     -380.49978      359.50805      253.39733      960.18531      0.99696118
    648000  -310.91544      56.500525     -367.41597      300.86913      988.40016      960.18531      0.99696118
    649000  -303.97944      59.426635     -363.40607      316.45087     -1338.049       960.18531      0.99696118
    650000  -311.37748      51.301385     -362.67886      273.18336      2427.1735      960.18531      0.99696118
    651000  -333.17457      56.187536     -389.36211      299.20245      211.11248      960.18531      0.99696118
    652000  -341.3593       46.176018     -387.53531      245.89043     -363.26403      960.18531      0.99696118
    653000  -327.8347       56.089308     -383.924        298.67937     -2405.6123      960.18531      0.99696118
    654000  -334.19156      59.645187     -393.83675      317.61467     -2128.3231      960.18531      0.99696118
    655000  -327.73815      55.239859     -382.97801      294.156        5581.5211      960.18531      0.99696118
    656000  -337.66279      58.501449     -396.16424      311.52419     -2424.2925      960.18531      0.99696118
    657000  -342.51357      45.586508     -388.10008      242.75125     -4798.4478      960.18531      0.99696118
    658000  -309.8079       61.67678      -371.48468      328.43304      3013.4459      960.18531      0.99696118
    659000  -316.58584      56.459062     -373.0449       300.64834     -3992.1799      960.18531      0.99696118
    660000  -336.03954      57.041618     -393.08116      303.75049     -1294.4647      960.18531      0.99696118
    661000  -313.3337       59.877856     -373.21155      318.85365     -159.88477      960.18531      0.99696118
    662000  -312.27651      60.499507     -372.77602      322.16398      2023.5441      960.18531      0.99696118
    663000  -328.95306      58.534649     -387.48771      311.70098      1313.198       960.18531      0.99696118
    664000  -306.43722      67.549954     -373.98717      359.70809     -521.82811      960.18531      0.99696118
    665000  -328.66061      45.784056     -374.44466      243.80321     -601.48293      960.18531      0.99696118
    666000  -302.34081      65.229422     -367.57023      347.3511      -964.26303      960.18531      0.99696118
    667000  -322.37886      58.157637     -380.53649      309.69336      155.47355      960.18531      0.99696118
    668000  -331.06565      41.179309     -372.24496      219.28262     -3426.0796      960.18531      0.99696118
    669000  -330.34494      51.333618     -381.67855      273.355       -1129.7129      960.18531      0.99696118
    670000  -350.32579      54.538605     -404.8644       290.42177     -3595.4662      960.18531      0.99696118
    671000  -322.91006      55.846088     -378.75615      297.38421     -306.12589      960.18531      0.99696118
    672000  -326.99061      59.395652     -386.38626      316.28588      3262.3085      960.18531      0.99696118
    673000  -333.62238      54.68095      -388.30333      291.17977     -1842.1155      960.18531      0.99696118
    674000  -324.32721      55.050918     -379.37813      293.14988     -290.82276      960.18531      0.99696118
    675000  -333.4106       51.887244     -385.29784      276.3031      -1467.1774      960.18531      0.99696118
    676000  -335.15513      50.343708     -385.49884      268.08366      1061.8452      960.18531      0.99696118
    677000  -330.82259      57.958659     -388.78124      308.63379      2310.3394      960.18531      0.99696118
    678000  -313.20803      67.114561     -380.3226       357.3896       2384.3316      960.18531      0.99696118
    679000  -331.04575      56.46944      -387.51518      300.7036       1246.4769      960.18531      0.99696118
    680000  -323.83245      61.783671     -385.61612      329.00224     -150.16667      960.18531      0.99696118
    681000  -312.86685      68.593327     -381.46017      365.26412     -1370.3306      960.18531      0.99696118
    682000  -294.91491      71.537771     -366.45268      380.94349      202.95412      960.18531      0.99696118
    683000  -328.17773      55.849572     -384.0273       297.40276     -2251.2025      960.18531      0.99696118
    684000  -330.70899      55.955869     -386.66486      297.9688      -116.03168      960.18531      0.99696118
    685000  -324.30202      48.269006     -372.57103      257.03573      3669.9942      960.18531      0.99696118
    686000  -313.52574      74.868864     -388.39461      398.68178     -1177.4008      960.18531      0.99696118
    687000  -329.38615      56.630866     -386.01701      301.5632      -2590.2112      960.18531      0.99696118
    688000  -314.54837      53.987963     -368.53633      287.48957     -5475.6951      960.18531      0.99696118
    689000  -316.9684       69.829256     -386.79765      371.84553     -5268.7276      960.18531      0.99696118
    690000  -335.42761      56.275335     -391.70295      299.66998     -175.60602      960.18531      0.99696118
    691000  -309.83206      55.923409     -365.75547      297.79595     -2840.7254      960.18531      0.99696118
    692000  -323.35184      61.210517     -384.56236      325.95016     -5397.7248      960.18531      0.99696118
    693000  -328.53946      50.518411     -379.05787      269.01397     -777.82126      960.18531      0.99696118
    694000  -316.52266      55.694474     -372.21714      296.57685     -4102.4179      960.18531      0.99696118
    695000  -313.88829      60.38264      -374.27093      321.54166     -3781.7841      960.18531      0.99696118
    696000  -302.25364      65.135972     -367.38961      346.85347      1944.8222      960.18531      0.99696118
    697000  -315.10579      54.145917     -369.25171      288.33068     -1480.8903      960.18531      0.99696118
    698000  -317.31961      54.429326     -371.74893      289.83986      266.9426       960.18531      0.99696118
    699000  -326.1934       56.526277     -382.71968      301.00626     -1121.5062      960.18531      0.99696118
    700000  -320.60448      59.736676     -380.34115      318.10186     -3223.3715      960.18531      0.99696118
    701000  -334.17114      53.361831     -387.53298      284.15537     -1565.9073      960.18531      0.99696118
    702000  -338.49553      52.34675      -390.84228      278.75         2058.5065      960.18531      0.99696118
    703000  -324.88609      53.044133     -377.93022      282.46361     -989.85379      960.18531      0.99696118
    704000  -330.90534      58.014195     -388.91954      308.92953     -1400.2931      960.18531      0.99696118
    705000  -320.15097      56.235616     -376.38659      299.45847     -2778.3535      960.18531      0.99696118
    706000  -328.92933      58.047928     -386.97726      309.10916      4020.1959      960.18531      0.99696118
    707000  -325.20547      67.667975     -392.87344      360.33656      3096.7961      960.18531      0.99696118
    708000  -295.96298      64.67345      -360.63643      344.39051     -1815.4316      960.18531      0.99696118
    709000  -317.86565      68.084761     -385.95041      362.55597      317.12477      960.18531      0.99696118
    710000  -321.47898      58.829902     -380.30888      313.27322      1759.4451      960.18531      0.99696118
    711000  -323.40582      54.334254     -377.74007      289.33359     -1376.6996      960.18531      0.99696118
    712000  -313.05639      60.779999     -373.83639      323.65762     -1639.8334      960.18531      0.99696118
    713000  -324.79935      49.944995     -374.74435      265.96049     -4977.7051      960.18531      0.99696118
    714000  -322.96105      60.970692     -383.93174      324.67307      2863.7429      960.18531      0.99696118
    715000  -332.03423      55.73781      -387.77204      296.80762      509.43679      960.18531      0.99696118
    716000  -331.31969      48.546696     -379.86638      258.51445      2212.6229      960.18531      0.99696118
    717000  -313.22734      66.551641     -379.77898      354.392        848.07354      960.18531      0.99696118
    718000  -340.41834      62.544033     -402.96237      333.05122     -762.65852      960.18531      0.99696118
    719000  -319.74824      54.642184     -374.39043      290.97334      3055.2393      960.18531      0.99696118
    720000  -328.36905      54.559714     -382.92876      290.53418      105.09341      960.18531      0.99696118
    721000  -323.70251      58.036325     -381.73884      309.04737      3317.5763      960.18531      0.99696118
    722000  -331.81355      57.68287      -389.49642      307.1652       394.11794      960.18531      0.99696118
    723000  -338.95061      51.711133     -390.66174      275.36529     -4913.0047      960.18531      0.99696118
    724000  -338.9255       47.068134     -385.99363      250.64101      415.66581      960.18531      0.99696118
    725000  -322.13635      59.681337     -381.81769      317.80717     -663.59566      960.18531      0.99696118
    726000  -307.70137      67.673515     -375.37488      360.36606      488.30901      960.18531      0.99696118
    727000  -333.76364      51.078477     -384.84211      271.99636     -1837.1765      960.18531      0.99696118
    728000  -312.32886      60.355363     -372.68423      321.39641      2550.2716      960.18531      0.99696118
    729000  -332.24868      53.105554     -385.35423      282.79068     -1251.4241      960.18531      0.99696118
    730000  -340.95639      47.397827     -388.35422      252.39665     -113.81428      960.18531      0.99696118
    731000  -319.78336      54.474671     -374.25803      290.08132      1590.9974      960.18531      0.99696118
    732000  -331.0985       55.331824     -386.43032      294.64572      3720.8815      960.18531      0.99696118
    733000  -320.2583       57.361576     -377.61987      305.45429     -1016.528       960.18531      0.99696118
    734000  -316.19996      57.018363     -373.21832      303.62666     -1511.4302      960.18531      0.99696118
    735000  -345.49674      47.386238     -392.88298      252.33494     -4680.8125      960.18531      0.99696118
    736000  -325.23296      59.680315     -384.91328      317.80173     -746.99744      960.18531      0.99696118
    737000  -329.73282      61.233484     -390.96631      326.07246      2594.7207      960.18531      0.99696118
    738000  -339.57488      58.108268     -397.68315      309.43047     -941.02526      960.18531      0.99696118
    739000  -340.07699      59.536704     -399.61369      317.03699     -734.99275      960.18531      0.99696118
    740000  -320.87168      55.167816     -376.0395       293.77236     -2362.1915      960.18531      0.99696118
    741000  -334.75634      62.809306     -397.56564      334.46382     -1733.8148      960.18531      0.99696118
    742000  -323.90005      56.289383     -380.18944      299.74479     -4031.2232      960.18531      0.99696118
    743000  -324.94767      58.405182     -383.35285      311.01156     -2084.6182      960.18531      0.99696118
    744000  -289.68968      65.175109     -354.86479      347.06188      71.596367      960.18531      0.99696118
    745000  -335.04909      48.985002     -384.03409      260.84846      4698.3322      960.18531      0.99696118
    746000  -315.94642      57.315493     -373.26191      305.20889     -27.963754      960.18531      0.99696118
    747000  -316.48448      54.429175     -370.91366      289.83905     -4175.0309      960.18531      0.99696118
    748000  -324.86948      53.926103     -378.79559      287.16016      982.72504      960.18531      0.99696118
    749000  -303.96043      60.780772     -364.7412       323.66174      423.57553      960.18531      0.99696118
    750000  -296.44308      74.540471     -370.98355      396.93307      2919.1197      960.18531      0.99696118
    751000  -325.79271      55.315409     -381.10811      294.55831      1133.6647      960.18531      0.99696118
    752000  -323.77406      47.580311     -371.35437      253.36839      2304.7065      960.18531      0.99696118
    753000  -328.6343       55.152844     -383.78714      293.69264      1385.1177      960.18531      0.99696118
    754000  -329.20453      56.65512      -385.85965      301.69236     -876.10341      960.18531      0.99696118
    755000  -322.48246      56.491449     -378.97391      300.8208      -2869.2203      960.18531      0.99696118
    756000  -334.17087      47.91388      -382.08475      255.14467     -610.63774      960.18531      0.99696118
    757000  -330.07404      51.825352     -381.8994       275.97352     -976.93565      960.18531      0.99696118
    758000  -322.72594      52.549668     -375.27561      279.83055      1343.855       960.18531      0.99696118
    759000  -317.1823       57.991508     -375.17381      308.80872      494.58512      960.18531      0.99696118
    760000  -338.9842       46.993315     -385.97752      250.24259     -3399.2449      960.18531      0.99696118
    761000  -330.01204      61.183903     -391.19594      325.80844     -3984.9336      960.18531      0.99696118
    762000  -330.21195      60.214037     -390.42599      320.64383      1943.5139      960.18531      0.99696118
    763000  -325.69942      59.903675     -385.6031       318.99114      1750.8671      960.18531      0.99696118
    764000  -316.38396      59.280527     -375.66448      315.67283      1318.9569      960.18531      0.99696118
    765000  -315.94728      51.64896      -367.59624      275.03422      1310.4213      960.18531      0.99696118
    766000  -302.18008      55.078324     -357.25841      293.29581     -3110.906       960.18531      0.99696118
    767000  -313.82021      49.331206     -363.15141      262.69202     -1374.3413      960.18531      0.99696118
    768000  -339.51256      50.739547     -390.25211      270.19153     -2347.5163      960.18531      0.99696118
    769000  -328.39461      51.864583     -380.25919      276.18243      751.95068      960.18531      0.99696118
    770000  -308.56149      59.989152     -368.55064      319.4463       2166.0019      960.18531      0.99696118
    771000  -333.58651      57.022698     -390.60921      303.64974     -111.65439      960.18531      0.99696118
    772000  -310.31069      51.212643     -361.52333      272.7108       216.20801      960.18531      0.99696118
    773000  -323.44638      49.516315     -372.96269      263.67774      261.92054      960.18531      0.99696118
    774000  -333.42496      48.491213     -381.91618      258.219       -1034.2072      960.18531      0.99696118
    775000  -313.29562      58.98387      -372.27949      314.09311     -2439.4999      960.18531      0.99696118
    776000  -316.41006      66.402432     -382.81249      353.59746     -2457.5519      960.18531      0.99696118
    777000  -311.08604      53.093129     -364.17917      282.72451     -734.51775      960.18531      0.99696118
    778000  -322.67027      59.718698     -382.38897      318.00612     -1288.1915      960.18531      0.99696118
    779000  -341.68582      43.751985     -385.43781      232.98229      322.22587      960.18531      0.99696118
    780000  -313.11177      59.879839     -372.99161      318.86421      2545.3113      960.18531      0.99696118
    781000  -324.2929       49.942189     -374.23509      265.94554     -306.01358      960.18531      0.99696118
    782000  -322.19697      50.949796     -373.14676      271.31112     -2416.42        960.18531      0.99696118
    783000  -322.67213      56.121892     -378.79402      298.85288      2248.0043      960.18531      0.99696118
    784000  -326.1574       51.273168     -377.43057      273.0331       624.31068      960.18531      0.99696118
    785000  -306.96288      55.849613     -362.81249      297.40298      2490.2488      960.18531      0.99696118
    786000  -309.0429       70.075749     -379.11865      373.15812      1843.6343      960.18531      0.99696118
    787000  -323.85723      60.663913     -384.52114      323.03945     -1482.4643      960.18531      0.99696118
    788000  -351.0419       46.931516     -397.97341      249.91351     -196.2285       960.18531      0.99696118
    789000  -307.80246      63.524388     -371.32685      338.27168      1142.6564      960.18531      0.99696118
    790000  -321.50517      63.651104     -385.15627      338.94645      2211.2181      960.18531      0.99696118
    791000  -321.71019      64.140877     -385.85107      341.55452     -601.10537      960.18531      0.99696118
    792000  -326.88407      56.428427     -383.3125       300.48521      951.73649      960.18531      0.99696118
    793000  -322.36676      67.201999     -389.56876      357.85521      1048.8621      960.18531      0.99696118
    794000  -333.08901      52.14967      -385.23868      277.70053     -272.88841      960.18531      0.99696118
    795000  -315.02491      58.296453     -373.32137      310.43257      3567.815       960.18531      0.99696118
    796000  -333.99097      59.431801     -393.42277      316.47837     -1045.0142      960.18531      0.99696118
    797000  -360.23616      44.903539     -405.1397       239.11439     -2303.5185      960.18531      0.99696118
    798000  -320.22623      52.810846     -373.03707      281.22134      1593.2213      960.18531      0.99696118
    799000  -340.9887       55.076176     -396.06488      293.28438     -50.460697      960.18531      0.99696118
    800000  -339.5474       49.164144     -388.71154      261.8024      -970.47118      960.18531      0.99696118
    801000  -322.74666      60.038857     -382.78552      319.71099     -619.05115      960.18531      0.99696118
    802000  -333.02775      60.626408     -393.65416      322.83974     -465.37639      960.18531      0.99696118
    803000  -345.44292      47.864024     -393.30695      254.87917      3683.8932      960.18531      0.99696118
    804000  -321.0255       59.752837     -380.77834      318.18792     -2404.5193      960.18531      0.99696118
    805000  -313.5472       65.202378     -378.74958      347.20709      4205.5163      960.18531      0.99696118
    806000  -305.99779      61.165754     -367.16354      325.71179     -1917.1181      960.18531      0.99696118
    807000  -309.81631      61.456688     -371.273        327.26104      449.57475      960.18531      0.99696118
    808000  -322.99387      61.662963     -384.65683      328.35947      303.39419      960.18531      0.99696118
    809000  -331.8955       58.451906     -390.34741      311.26037     -5179.2011      960.18531      0.99696118
    810000  -323.67477      55.038657     -378.71343      293.08459     -2991.7199      960.18531      0.99696118
    811000  -290.19442      66.183114     -356.37753      352.42958      1489.2665      960.18531      0.99696118
    812000  -312.11238      53.245405     -365.35779      283.5354      -2213.1819      960.18531      0.99696118
    813000  -299.64105      63.71752      -363.35857      339.30012      2387.454       960.18531      0.99696118
    814000  -336.78917      50.00861      -386.79778      266.29924      1120.3823      960.18531      0.99696118
    815000  -330.63921      47.094879     -377.73409      250.78343     -467.81165      960.18531      0.99696118
    816000  -321.96272      62.013961     -383.97669      330.22855      2803.2788      960.18531      0.99696118
    817000  -325.61866      55.254791     -380.87345      294.23551      1105.2427      960.18531      0.99696118
    818000  -328.1997       50.832255     -379.03196      270.68521     -964.1689       960.18531      0.99696118
    819000  -321.80353      63.55201      -385.35554      338.41877     -514.75718      960.18531      0.99696118
    820000  -331.63354      51.042283     -382.67583      271.80362      1487.8944      960.18531      0.99696118
    821000  -314.73249      46.481141     -361.21363      247.51523     -1696.1645      960.18531      0.99696118
    822000  -328.52465      55.999601     -384.52426      298.20168     -1363.4318      960.18531      0.99696118
    823000  -324.32495      57.185263     -381.51021      304.51541     -723.78991      960.18531      0.99696118
    824000  -316.7071       67.454205     -384.16131      359.19822      114.09421      960.18531      0.99696118
    825000  -330.40514      51.823517     -382.22866      275.96375     -2161.1459      960.18531      0.99696118
    826000  -333.51243      48.824912     -382.33734      259.99597      1685.2149      960.18531      0.99696118
    827000  -315.0855       61.221387     -376.30689      326.00804     -685.03964      960.18531      0.99696118
    828000  -315.23411      65.282869     -380.51698      347.63571     -196.6427       960.18531      0.99696118
    829000  -326.82971      57.58867      -384.41838      306.66358     -1760.1239      960.18531      0.99696118
    830000  -324.86853      54.02121      -378.88974      287.66661     -2107.2791      960.18531      0.99696118
    831000  -317.31569      55.52765      -372.84333      295.6885       1721.2732      960.18531      0.99696118
    832000  -320.46783      58.914579     -379.38241      313.72413      6113.6136      960.18531      0.99696118
    833000  -325.58675      52.015799     -377.60255      276.98766     -5217.7203      960.18531      0.99696118
    834000  -317.39054      53.304198     -370.69473      283.84847     -879.46375      960.18531      0.99696118
    835000  -318.78043      60.550839     -379.33127      322.43733     -6245.3223      960.18531      0.99696118
    836000  -333.57636      52.326525     -385.90288      278.6423      -2428.9073      960.18531      0.99696118
    837000  -336.92182      51.328018     -388.24984      273.32518      214.81215      960.18531      0.99696118
    838000  -329.51135      51.937457     -381.44881      276.57048      1965.0163      960.18531      0.99696118
    839000  -335.97889      45.341895     -381.32079      241.44867     -948.52331      960.18531      0.99696118
    840000  -320.08276      60.380558     -380.46332      321.53057      2125.2705      960.18531      0.99696118
    841000  -317.43276      54.589838     -372.0226       290.69459      2858.9912      960.18531      0.99696118
    842000  -335.70768      51.806099     -387.51378      275.87099     -1220.0473      960.18531      0.99696118
    843000  -325.87293      59.369685     -385.24261      316.1476       808.65946      960.18531      0.99696118
    844000  -331.72699      55.540904     -387.2679       295.75909      758.74435      960.18531      0.99696118
    845000  -328.01421      59.134472     -387.14868      314.89508     -1641.5496      960.18531      0.99696118
    846000  -330.45345      56.383194     -386.83665      300.24434     -897.16555      960.18531      0.99696118
    847000  -327.10076      64.713572     -391.81433      344.60416     -3448.1884      960.18531      0.99696118
    848000  -337.52095      64.099126     -401.62007      341.3322      -1025.6814      960.18531      0.99696118
    849000  -348.85388      52.14776      -401.00165      277.69036      1475.7718      960.18531      0.99696118
    850000  -321.98385      54.613009     -376.59686      290.81798     -194.54598      960.18531      0.99696118
    851000  -314.90252      62.579346     -377.48187      333.23927     -3086.1022      960.18531      0.99696118
    852000  -326.61692      62.525817     -389.14274      332.95422     -557.03556      960.18531      0.99696118
    853000  -319.61002      56.291427     -375.90145      299.75567      782.02037      960.18531      0.99696118
    854000  -328.88276      60.759562     -389.64232      323.54879      1636.0592      960.18531      0.99696118
    855000  -311.33164      71.951814     -383.28345      383.14829     -1895.7427      960.18531      0.99696118
    856000  -324.23182      55.110266     -379.34209      293.46591     -2576.3427      960.18531      0.99696118
    857000  -327.51808      49.940132     -377.45821      265.93459     -2176.8509      960.18531      0.99696118
    858000  -313.78245      56.753907     -370.53636      302.21841     -5050.0478      960.18531      0.99696118
    859000  -317.61265      64.453865     -382.06651      343.22121     -3169.4361      960.18531      0.99696118
    860000  -317.31222      57.402366     -374.71459      305.6715      -5309.9321      960.18531      0.99696118
    861000  -308.73593      55.817089     -364.55302      297.22979      59.318758      960.18531      0.99696118
    862000  -343.33795      53.157079     -396.49503      283.06506      151.53451      960.18531      0.99696118
    863000  -323.19719      54.090149     -377.28734      288.03371     -300.04231      960.18531      0.99696118
    864000  -337.43665      58.366418     -395.80306      310.80514      1020.5683      960.18531      0.99696118
    865000  -334.13763      54.805072     -388.9427       291.84073     -2104.6364      960.18531      0.99696118
    866000  -320.90632      53.945542     -374.85186      287.26368      882.41654      960.18531      0.99696118
    867000  -325.51722      55.455436     -380.97266      295.30396     -1064.474       960.18531      0.99696118
    868000  -305.79362      64.18761      -369.98123      341.80338     -645.55885      960.18531      0.99696118
    869000  -337.31332      50.227767     -387.54108      267.46627     -105.73177      960.18531      0.99696118
    870000  -324.41367      52.131763     -376.54543      277.60518      1679.3764      960.18531      0.99696118
    871000  -325.82388      56.64948      -382.47336      301.66233     -2027.2431      960.18531      0.99696118
    872000  -319.83956      65.341107     -385.18066      347.94583     -2378.3015      960.18531      0.99696118
    873000  -311.97403      60.57976      -372.55379      322.59133     -640.22691      960.18531      0.99696118
    874000  -347.77739      46.724125     -394.50151      248.80914     -2208.1807      960.18531      0.99696118
    875000  -321.59054      56.185963     -377.77651      299.19407      796.35554      960.18531      0.99696118
    876000  -330.91628      55.668743     -386.58503      296.43983      3739.0484      960.18531      0.99696118
    877000  -331.40243      56.919693     -388.32212      303.10123      4897.7077      960.18531      0.99696118
    878000  -330.33755      55.217534     -385.55508      294.03712      648.42419      960.18531      0.99696118
    879000  -322.17596      52.586834     -374.76279      280.02846      2937.9776      960.18531      0.99696118
    880000  -328.04313      49.74539      -377.78852      264.89758      874.69382      960.18531      0.99696118
    881000  -318.28916      43.592024     -361.88118      232.13049      1048.7771      960.18531      0.99696118
    882000  -312.20255      60.0467       -372.24925      319.75275      472.73397      960.18531      0.99696118
    883000  -323.01016      51.783104     -374.79326      275.74854     -2667.2377      960.18531      0.99696118
    884000  -331.27176      55.657177     -386.92893      296.37824     -1892.9829      960.18531      0.99696118
    885000  -335.40347      43.387654     -378.79113      231.0422      -1291.4711      960.18531      0.99696118
    886000  -316.5077       59.467097     -375.9748       316.66633      2191.9508      960.18531      0.99696118
    887000  -333.96606      55.013229     -388.97929      292.94918     -1485.3879      960.18531      0.99696118
    888000  -319.35356      56.496327     -375.84989      300.84677      4489.493       960.18531      0.99696118
    889000  -332.71184      58.399222     -391.11106      310.97982     -1858.5539      960.18531      0.99696118
    890000  -295.29855      73.533372     -368.83192      391.5702       1021.4817      960.18531      0.99696118
    891000  -320.04815      53.972895     -374.02104      287.40933     -1303.8057      960.18531      0.99696118
    892000  -342.28093      50.533828     -392.81475      269.09606     -3713.8728      960.18531      0.99696118
    893000  -330.68878      49.929188     -380.61797      265.87632     -509.14863      960.18531      0.99696118
    894000  -309.86867      60.569879     -370.43855      322.53872     -3341.0901      960.18531      0.99696118
    895000  -317.26682      55.813728     -373.08055      297.21189     -227.83297      960.18531      0.99696118
    896000  -317.15682      66.168627     -383.32545      352.35243      277.5836       960.18531      0.99696118
    897000  -343.80931      43.277781     -387.0871       230.45712      2612.9045      960.18531      0.99696118
    898000  -311.16885      58.773891     -369.94275      312.97496     -2441.1209      960.18531      0.99696118
    899000  -323.48648      43.718234     -367.20471      232.80256     -151.67458      960.18531      0.99696118
    900000  -328.89535      48.508348     -377.4037       258.31025     -3241.353       960.18531      0.99696118
    901000  -311.09061      56.959151     -368.04976      303.31134      863.35615      960.18531      0.99696118
    902000  -327.37716      54.750277     -382.12744      291.54894     -1819.2113      960.18531      0.99696118
    903000  -323.26084      63.035123     -386.29596      335.66631     -426.20629      960.18531      0.99696118
    904000  -341.38149      54.065921     -395.44741      287.9047      -822.55178      960.18531      0.99696118
    905000  -338.597        50.658838     -389.25583      269.76175     -775.09517      960.18531      0.99696118
    906000  -315.43348      66.704447     -382.13793      355.20571      37.69148       960.18531      0.99696118
    907000  -314.38066      61.621157     -376.00182      328.13685     -3084.8563      960.18531      0.99696118
    908000  -320.51684      52.938067     -373.4549       281.8988      -1406.6405      960.18531      0.99696118
    909000  -307.97232      61.146746     -369.11906      325.61057     -504.32068      960.18531      0.99696118
    910000  -323.77569      58.989686     -382.76538      314.12408     -2516.4007      960.18531      0.99696118
    911000  -309.92805      59.484452     -369.4125       316.75874     -1655.6151      960.18531      0.99696118
    912000  -341.68707      42.764822     -384.45189      227.72558      1814.6838      960.18531      0.99696118
    913000  -327.31694      54.329376     -381.64632      289.30761     -3001.0172      960.18531      0.99696118
    914000  -339.54461      41.97931      -381.52392      223.54267     -1789.7362      960.18531      0.99696118
    915000  -332.1856       60.904678     -393.09028      324.32154     -2345.0414      960.18531      0.99696118
    916000  -322.94673      63.139365     -386.08609      336.2214       1570.4843      960.18531      0.99696118
    917000  -343.87938      48.906499     -392.78588      260.43043     -1639.3926      960.18531      0.99696118
    918000  -322.74164      55.908341     -378.64999      297.71571      2819.5622      960.18531      0.99696118
    919000  -344.81046      52.931456     -397.74192      281.8636      -2656.6233      960.18531      0.99696118
    920000  -340.12287      62.147572     -402.27044      330.94004      320.89156      960.18531      0.99696118
    921000  -319.15021      56.917027     -376.06724      303.08703      1343.3186      960.18531      0.99696118
    922000  -334.02916      54.337081     -388.36625      289.34864      3924.6257      960.18531      0.99696118
    923000  -333.87763      68.515818     -402.39345      364.85138     -1430.8646      960.18531      0.99696118
    924000  -343.60389      54.875387     -398.47928      292.21516      2355.5225      960.18531      0.99696118
    925000  -340.61862      54.610792     -395.22941      290.80617      3703.0653      960.18531      0.99696118
    926000  -329.65248      52.695407     -382.34789      280.60662      653.87908      960.18531      0.99696118
    927000  -309.68067      58.99649      -368.67716      314.16031     -2564.7788      960.18531      0.99696118
    928000  -331.32683      48.573815     -379.90064      258.65886     -3169.3977      960.18531      0.99696118
    929000  -328.23026      45.530754     -373.76102      242.45435     -2068.6189      960.18531      0.99696118
    930000  -321.12552      57.281888     -378.4074       305.02994     -651.56595      960.18531      0.99696118
    931000  -333.59523      48.356426     -381.95166      257.50125     -1650.6792      960.18531      0.99696118
    932000  -328.02383      49.867871     -377.8917       265.5498      -1593.6135      960.18531      0.99696118
    933000  -307.17914      50.529169     -357.70831      269.07126      1422.7927      960.18531      0.99696118
    934000  -330.69298      50.230428     -380.92341      267.48044      6264.1061      960.18531      0.99696118
    935000  -320.51528      58.882027     -379.39731      313.55079      1926.4745      960.18531      0.99696118
    936000  -325.26582      52.054065     -377.31988      277.19143     -1649.0467      960.18531      0.99696118
    937000  -324.99703      51.877964     -376.875        276.25368     -1211.9852      960.18531      0.99696118
    938000  -329.19795      55.049287     -384.24724      293.14119     -5.8410774      960.18531      0.99696118
    939000  -333.67401      57.566286     -391.2403       306.54438     -1104.9803      960.18531      0.99696118
    940000  -328.80565      52.390933     -381.19658      278.98527     -1962.0803      960.18531      0.99696118
    941000  -324.10759      57.377433     -381.48502      305.53872      1151.2646      960.18531      0.99696118
    942000  -335.55934      56.731307     -392.29065      302.09806     -492.41712      960.18531      0.99696118
    943000  -335.04142      56.107451     -391.14887      298.77599     -1050.8255      960.18531      0.99696118
    944000  -312.64765      54.200243     -366.8479       288.61997     -1572.1638      960.18531      0.99696118
    945000  -325.44673      57.94417      -383.3909       308.55664     -2620.9028      960.18531      0.99696118
    946000  -321.79872      61.544716     -383.34343      327.72979      1611.5127      960.18531      0.99696118
    947000  -306.51094      57.334941     -363.84588      305.31245     -534.47478      960.18531      0.99696118
    948000  -326.44787      43.502219     -369.95009      231.65227     -297.95737      960.18531      0.99696118
    949000  -319.89666      53.089809     -372.98647      282.70684     -842.18059      960.18531      0.99696118
    950000  -327.80379      57.033737     -384.83753      303.70852      1012.3576      960.18531      0.99696118
    951000  -313.3279       59.934205     -373.2621       319.15371      2387.0915      960.18531      0.99696118
    952000  -319.21028      52.1356       -371.34588      277.62561      1801.1377      960.18531      0.99696118
    953000  -324.76423      51.357345     -376.12157      273.48135      2085.0619      960.18531      0.99696118
    954000  -340.43771      58.958146     -399.39586      313.95613     -1183.3079      960.18531      0.99696118
    955000  -315.04623      57.452949     -372.49918      305.94085      3227.1691      960.18531      0.99696118
    956000  -326.22095      52.340132     -378.56108      278.71476     -630.49604      960.18531      0.99696118
    957000  -318.47312      54.713135     -373.18626      291.35116     -605.23442      960.18531      0.99696118
    958000  -308.10666      56.669282     -364.77594      301.76778      1085.3878      960.18531      0.99696118
    959000  -327.85584      52.622145     -380.47798      280.21649      1224.5845      960.18531      0.99696118
    960000  -318.3014       61.715679     -380.01708      328.64018     -1921.0943      960.18531      0.99696118
    961000  -322.06708      41.830012     -363.8971       222.74765      257.38907      960.18531      0.99696118
    962000  -313.69657      51.49279      -365.18936      274.2026      -775.56178      960.18531      0.99696118
    963000  -334.73246      61.647761     -396.38022      328.27851     -795.66729      960.18531      0.99696118
    964000  -325.94861      55.756431     -381.70504      296.90678     -2023.6402      960.18531      0.99696118
    965000  -324.0401       54.874279     -378.91438      292.20926      442.67672      960.18531      0.99696118
    966000  -342.94461      46.588699     -389.53331      248.08799      50.329969      960.18531      0.99696118
    967000  -327.856        51.226913     -379.08291      272.78679     -1716.0451      960.18531      0.99696118
    968000  -314.54471      63.396591     -377.9413       337.59115      9626.104       960.18531      0.99696118
    969000  -340.2793       52.983031     -393.26234      282.13824     -1184.6418      960.18531      0.99696118
    970000  -326.24902      51.856604     -378.10562      276.13994      1673.0198      960.18531      0.99696118
    971000  -322.58764      61.886292     -384.47393      329.5487       303.42586      960.18531      0.99696118
    972000  -323.28303      57.241987     -380.52502      304.81747      2054.5513      960.18531      0.99696118
    973000  -334.88267      50.486685     -385.36936      268.84502     -683.52311      960.18531      0.99696118
    974000  -319.32806      56.941935     -376.26999      303.21967     -1385.416       960.18531      0.99696118
    975000  -315.42111      62.681431     -378.10254      333.78288      474.40396      960.18531      0.99696118
    976000  -327.04836      52.499092     -379.54745      279.56123     -672.15442      960.18531      0.99696118
    977000  -329.3869       49.268309     -378.65521      262.35709      256.09103      960.18531      0.99696118
    978000  -318.39233      61.840625     -380.23296      329.30553      3555.6998      960.18531      0.99696118
    979000  -331.29478      48.05888      -379.35365      255.9168      -1692.0008      960.18531      0.99696118
    980000  -314.17101      62.755967     -376.92698      334.17978      147.10784      960.18531      0.99696118
    981000  -330.10562      52.912811     -383.01843      281.76431      1660.3386      960.18531      0.99696118
    982000  -334.96439      54.113499     -389.07789      288.15806     -42.758384      960.18531      0.99696118
    983000  -325.06221      61.150706     -386.21292      325.63166     -115.85069      960.18531      0.99696118
    984000  -337.17509      59.047317     -396.22241      314.43097      2188.9101      960.18531      0.99696118
    985000  -323.99075      61.878967     -385.86972      329.5097       5215.309       960.18531      0.99696118
    986000  -328.41932      48.223772     -376.6431       256.79486      2676.4844      960.18531      0.99696118
    987000  -330.18956      53.781185     -383.97075      286.38846     -2371.5241      960.18531      0.99696118
    988000  -331.84193      44.558499     -376.40043      237.27703     -2544.6856      960.18531      0.99696118
    989000  -342.6099       52.941868     -395.55177      281.91904     -3224.3494      960.18531      0.99696118
    990000  -314.27397      63.817651     -378.09162      339.83332     -1437.8884      960.18531      0.99696118
    991000  -330.78617      54.971925     -385.75809      292.72923     -2307.5174      960.18531      0.99696118
    992000  -310.88644      57.461587     -368.34803      305.98685      911.12894      960.18531      0.99696118
    993000  -327.75509      48.120111     -375.8752       256.24286     -152.16285      960.18531      0.99696118
    994000  -314.62648      57.254336     -371.88082      304.88323      3173.0606      960.18531      0.99696118
    995000  -312.61641      56.974016     -369.59043      303.3905      -2237.771       960.18531      0.99696118
    996000  -308.79222      59.33157      -368.12379      315.94464     -1326.2705      960.18531      0.99696118
    997000  -326.97763      50.420372     -377.398        268.4919      -830.30374      960.18531      0.99696118
    998000  -322.53691      50.133076     -372.66998      266.96203      443.57599      960.18531      0.99696118
    999000  -323.22981      53.258453     -376.48826      283.60488      689.52873      960.18531      0.99696118
   1000000  -331.94137      60.486859     -392.42823      322.09663      15.324403      960.18531      0.99696118
Loop time of 521.333 on 1 procs for 1000000 steps with 96 atoms

Performance: 165.729 ns/day, 0.145 hours/ns, 1918.159 timesteps/s
99.7% CPU use with 1 MPI tasks x 1 OpenMP threads

MPI task timing breakdown:
Section |  min time  |  avg time  |  max time  |%varavg| %total
---------------------------------------------------------------
Pair    | 426.68     | 426.68     | 426.68     |   0.0 | 81.84
Bond    | 0.053115   | 0.053115   | 0.053115   |   0.0 |  0.01
Kspace  | 59.828     | 59.828     | 59.828     |   0.0 | 11.48
Neigh   | 15.709     | 15.709     | 15.709     |   0.0 |  3.01
Comm    | 11.473     | 11.473     | 11.473     |   0.0 |  2.20
Output  | 0.13644    | 0.13644    | 0.13644    |   0.0 |  0.03
Modify  | 5.7968     | 5.7968     | 5.7968     |   0.0 |  1.11
Other   |            | 1.656      |            |       |  0.32

Nlocal:             96 ave          96 max          96 min
Histogram: 1 0 0 0 0 0 0 0 0 0
Nghost:           3872 ave        3872 max        3872 min
Histogram: 1 0 0 0 0 0 0 0 0 0
Neighs:          34728 ave       34728 max       34728 min
Histogram: 1 0 0 0 0 0 0 0 0 0

Total # of neighbors = 34728
Ave neighs/atom = 361.75
Ave special neighs/atom = 2
Neighbor list builds = 21834
Dangerous builds = 0
# write data file
write_data data.after_eq.lmp
System init for write_data ...
PPPM initialization ...
  using 12-bit tables for long-range coulomb (src/kspace.cpp:342)
  G vector (1/distance) = 0.30847861
  grid = 9 9 9
  stencil order = 5
  estimated absolute RMS force accuracy = 0.0027675926
  estimated relative force accuracy = 8.334523e-06
  using double precision FFTW3
  3d grid and FFT values/proc = 4096 729
Generated 1 of 1 mixed pair_coeff terms from geometric mixing rule

# clean up
undump dEQUI

# production
# 2 ns
dump dPROD all custom 1000 prod.lammpstrj id element xu yu zu
dump_modify dPROD element H O sort id
run 2000000
PPPM initialization ...
  using 12-bit tables for long-range coulomb (src/kspace.cpp:342)
  G vector (1/distance) = 0.30847861
  grid = 9 9 9
  stencil order = 5
  estimated absolute RMS force accuracy = 0.0027675926
  estimated relative force accuracy = 8.334523e-06
  using double precision FFTW3
  3d grid and FFT values/proc = 4096 729
Generated 1 of 1 mixed pair_coeff terms from geometric mixing rule
Per MPI rank memory allocation (min/avg/max) = 9.333 | 9.333 | 9.333 Mbytes
   Step         TotEng         KinEng         PotEng          Temp          Press          Volume        Density
   1000000  -331.94137      60.486859     -392.42823      322.09663      16.959045      960.18531      0.99696118
   1001000  -305.62048      61.300621     -366.9211       326.42997     -93.936035      960.18531      0.99696118
   1002000  -321.90533      60.829626     -382.73495      323.92189     -2504.808       960.18531      0.99696118
   1003000  -324.46912      56.82608      -381.2952       302.60274     -592.45869      960.18531      0.99696118
   1004000  -335.20018      50.817759     -386.01794      270.60802      2412.48        960.18531      0.99696118
   1005000  -331.02335      58.327213     -389.35056      310.59637     -4780.2572      960.18531      0.99696118
   1006000  -325.24357      59.625559     -384.86913      317.51015     -2019.3127      960.18531      0.99696118
   1007000  -333.29379      53.233178     -386.52697      283.47029      911.64002      960.18531      0.99696118
   1008000  -339.03005      48.550383     -387.58043      258.53408     -2616.8467      960.18531      0.99696118
   1009000  -296.44913      61.092685     -357.54182      325.32269      3630.2057      960.18531      0.99696118
   1010000  -318.50712      59.886904     -378.39402      318.90183     -637.83653      960.18531      0.99696118
   1011000  -307.09594      67.259853     -374.35579      358.16328     -1675.9568      960.18531      0.99696118
   1012000  -308.04145      49.982018     -358.02347      266.15764      2795.0096      960.18531      0.99696118
   1013000  -308.45245      56.92963      -365.38208      303.15414     -855.64586      960.18531      0.99696118
   1014000  -324.58699      56.106447     -380.69344      298.77064      756.0831       960.18531      0.99696118
   1015000  -331.87031      51.332091     -383.2024       273.34687     -3643.2645      960.18531      0.99696118
   1016000  -329.73365      57.854573     -387.58823      308.07953     -5002.5437      960.18531      0.99696118
   1017000  -320.76616      52.759582     -373.52575      280.94835     -2809.0898      960.18531      0.99696118
   1018000  -314.37077      58.78231      -373.15308      313.01979     -71.998698      960.18531      0.99696118
   1019000  -326.43827      58.608322     -385.04659      312.09329      3488.0051      960.18531      0.99696118
   1020000  -326.91582      53.819476     -380.73529      286.59236     -1368.5165      960.18531      0.99696118
   1021000  -319.45409      59.129035     -378.58312      314.86612     -833.4836       960.18531      0.99696118
   1022000  -322.69737      59.983457     -382.68083      319.41598     -2254.5262      960.18531      0.99696118
   1023000  -328.51654      56.863773     -385.38031      302.80345      447.67866      960.18531      0.99696118
   1024000  -329.68658      59.36368      -389.05026      316.11563     -1384.0837      960.18531      0.99696118
   1025000  -320.83481      51.748456     -372.58327      275.56404     -269.20249      960.18531      0.99696118
   1026000  -338.19828      46.287837     -384.48612      246.48588     -2475.2126      960.18531      0.99696118
   1027000  -313.44292      62.953444     -376.39637      335.23136      3842.8898      960.18531      0.99696118
   1028000  -330.70307      60.830075     -391.53315      323.92428     -300.13919      960.18531      0.99696118
   1029000  -300.91051      67.773277     -368.68379      360.8973      -1551.8477      960.18531      0.99696118
   1030000  -317.8494       54.018385     -371.86779      287.65157     -269.16893      960.18531      0.99696118
   1031000  -331.3112       49.583215     -380.89441      264.03399      1551.0512      960.18531      0.99696118
   1032000  -313.83053      70.33985      -384.17037      374.56447      1542.3315      960.18531      0.99696118
   1033000  -328.23745      63.560042     -391.79749      338.46154      5162.4393      960.18531      0.99696118
   1034000  -321.10465      53.194735     -374.29938      283.26557      447.8246       960.18531      0.99696118
   1035000  -329.62641      48.465443     -378.09186      258.08178     -384.20172      960.18531      0.99696118
   1036000  -323.7396       51.568328     -375.30793      274.60485      2763.2931      960.18531      0.99696118
   1037000  -305.08225      70.143919     -375.22617      373.52113      1119.6233      960.18531      0.99696118
   1038000  -327.60957      57.532377     -385.14194      306.36381      171.35594      960.18531      0.99696118
   1039000  -325.36055      48.791371     -374.15192      259.81736      1953.4589      960.18531      0.99696118
   1040000  -317.52638      49.735336     -367.26171      264.84404      1617.2073      960.18531      0.99696118
   1041000  -318.73308      57.013666     -375.74675      303.60164      2136.2227      960.18531      0.99696118
   1042000  -339.68812      53.08135      -392.76947      282.66179     -2462.8008      960.18531      0.99696118
   1043000  -325.67253      53.216169     -378.8887       283.37971     -821.8326       960.18531      0.99696118
   1044000  -313.13885      60.023672     -373.16252      319.63013      197.09729      960.18531      0.99696118
   1045000  -321.27625      61.348954     -382.62521      326.68735      1486.5768      960.18531      0.99696118
   1046000  -332.91506      52.588718     -385.50378      280.0385       1781.5469      960.18531      0.99696118
   1047000  -341.5559       54.808178     -396.36408      291.85727      119.39754      960.18531      0.99696118
   1048000  -334.06585      59.230453     -393.29631      315.40618     -2550.0189      960.18531      0.99696118
   1049000  -330.40456      62.988771     -393.39333      335.41948      1112.5637      960.18531      0.99696118
   1050000  -349.00219      43.234858     -392.23705      230.22856     -3572.5046      960.18531      0.99696118
   1051000  -329.27208      62.907697     -392.17978      334.98776      136.14749      960.18531      0.99696118
   1052000  -352.26009      52.8569       -405.11699      281.46658     -979.14115      960.18531      0.99696118
   1053000  -330.55339      61.135472     -391.68887      325.55054     -1894.889       960.18531      0.99696118
   1054000  -337.15966      53.823567     -390.98322      286.61415      1438.1354      960.18531      0.99696118
   1055000  -333.33727      55.458551     -388.79582      295.32055     -1622.2303      960.18531      0.99696118
   1056000  -334.97488      59.593137     -394.56802      317.3375      -852.08456      960.18531      0.99696118
   1057000  -330.23822      60.731265     -390.96948      323.39811      1193.1061      960.18531      0.99696118
   1058000  -341.25622      57.530792     -398.78701      306.35537     -1595.3672      960.18531      0.99696118
   1059000  -339.44487      44.187585     -383.63246      235.30189      977.36932      960.18531      0.99696118
   1060000  -319.35608      59.258764     -378.61484      315.55694      3580.0617      960.18531      0.99696118
   1061000  -334.17958      54.203183     -388.38277      288.63563      1878.6304      960.18531      0.99696118
   1062000  -312.66008      53.676764     -366.33684      285.83241      473.86574      960.18531      0.99696118
   1063000  -327.94863      56.007286     -383.95591      298.2426      -2015.621       960.18531      0.99696118
   1064000  -326.77143      42.693037     -369.46446      227.34332      918.97673      960.18531      0.99696118
   1065000  -338.58404      54.611311     -393.19535      290.80894      46.472073      960.18531      0.99696118
   1066000  -347.59544      49.800967     -397.39641      265.19353      1597.7303      960.18531      0.99696118
   1067000  -317.75249      56.136252     -373.88874      298.92935      631.58806      960.18531      0.99696118
   1068000  -344.69907      52.383185     -397.08225      278.94402     -1165.1766      960.18531      0.99696118
   1069000  -320.19971      56.540767     -376.74047      301.08342      499.0604       960.18531      0.99696118
   1070000  -315.74691      54.928672     -370.67558      292.49891     -2597.0517      960.18531      0.99696118
   1071000  -306.61291      56.866636     -363.47954      302.81869     -819.42654      960.18531      0.99696118
   1072000  -327.917        50.172623     -378.08962      267.17262     -486.55356      960.18531      0.99696118
   1073000  -307.26552      74.134947     -381.40047      394.77363     -1562.1108      960.18531      0.99696118
   1074000  -320.65113      50.968481     -371.61961      271.41062     -1736.5445      960.18531      0.99696118
   1075000  -317.57438      58.725007     -376.29939      312.71465      4146.6278      960.18531      0.99696118
   1076000  -329.84311      56.921838     -386.76494      303.11265     -1666.5914      960.18531      0.99696118
   1077000  -319.97931      56.098369     -376.07768      298.72762     -3163.3492      960.18531      0.99696118
   1078000  -325.67486      64.046784     -389.72164      341.05347      4619.3645      960.18531      0.99696118
   1079000  -338.3283       47.301868     -385.63017      251.88566     -2866.0953      960.18531      0.99696118
   1080000  -324.15386      59.909911     -384.06377      319.02434      4460.6444      960.18531      0.99696118
   1081000  -303.97448      63.770741     -367.74522      339.58352     -822.61162      960.18531      0.99696118
   1082000  -325.66784      61.262977     -386.93082      326.22951     -20.685622      960.18531      0.99696118
   1083000  -338.12747      52.071894     -390.19936      277.28637      2221.2719      960.18531      0.99696118
   1084000  -317.48049      64.45589      -381.93638      343.23199      4604.9448      960.18531      0.99696118
   1085000  -343.93432      57.133091     -401.06741      304.23759     -4227.6231      960.18531      0.99696118
   1086000  -333.8919       51.202006     -385.0939       272.65416     -225.35313      960.18531      0.99696118
   1087000  -309.40024      71.164113     -380.56435      378.95373      1560.7919      960.18531      0.99696118
   1088000  -327.42029      55.797522     -383.21781      297.12559     -3167.8292      960.18531      0.99696118
   1089000  -337.73432      53.117233     -390.85155      282.85287     -95.222163      960.18531      0.99696118
   1090000  -326.96458      59.479492     -386.44407      316.73233     -1177.4717      960.18531      0.99696118
   1091000  -312.08442      58.257907     -370.34233      310.22731      1299.4049      960.18531      0.99696118
   1092000  -317.9495       51.566627     -369.51613      274.59579      4072.5044      960.18531      0.99696118
   1093000  -331.46561      52.478395     -383.944        279.45102     -3612.0255      960.18531      0.99696118
   1094000  -314.03526      63.68353      -377.71879      339.11912      699.09353      960.18531      0.99696118
   1095000  -311.03959      53.779727     -364.81931      286.38069     -3394.0549      960.18531      0.99696118
   1096000  -312.4398       57.067061     -369.50686      303.88597     -160.4451       960.18531      0.99696118
   1097000  -319.31575      58.023684     -377.33944      308.98006     -439.90547      960.18531      0.99696118
   1098000  -323.12599      60.553355     -383.67935      322.45073     -2277.4791      960.18531      0.99696118
   1099000  -315.96838      64.686149     -380.65453      344.45814     -2753.0096      960.18531      0.99696118
   1100000  -319.41556      57.347711     -376.76327      305.38045      1658.0988      960.18531      0.99696118
   1101000  -305.64015      58.145994     -363.78615      309.63137      61.541815      960.18531      0.99696118
   1102000  -329.25258      44.826021     -374.07861      238.70161      1759.4878      960.18531      0.99696118
   1103000  -322.62695      62.11596      -384.74291      330.7717      -641.69128      960.18531      0.99696118
   1104000  -338.14106      44.788313     -382.92938      238.50081      222.33288      960.18531      0.99696118
   1105000  -319.24793      60.547407     -379.79533      322.41905      642.04235      960.18531      0.99696118
   1106000  -327.72887      58.801569     -386.53044      313.12235     -2701.0591      960.18531      0.99696118
   1107000  -309.47301      57.403368     -366.87637      305.67683     -1696.5691      960.18531      0.99696118
   1108000  -315.17827      54.801418     -369.97969      291.82127      2967.8429      960.18531      0.99696118
   1109000  -316.21749      60.599478     -376.81697      322.69633      841.95759      960.18531      0.99696118
   1110000  -330.39494      53.571515     -383.96645      285.27195      587.11542      960.18531      0.99696118
   1111000  -334.97065      54.430991     -389.40164      289.84872     -884.61365      960.18531      0.99696118
   1112000  -313.0846       57.777747     -370.86235      307.67042     -1242.4034      960.18531      0.99696118
   1113000  -320.62682      61.907739     -382.53456      329.66291      75.254011      960.18531      0.99696118
   1114000  -329.85644      58.34738      -388.20382      310.70376     -168.0254       960.18531      0.99696118
   1115000  -310.00365      60.385675     -370.38932      321.55782     -6139.9491      960.18531      0.99696118
   1116000  -315.38047      71.899958     -387.28043      382.87216     -4946.2168      960.18531      0.99696118
   1117000  -334.01711      59.622638     -393.63975      317.4946       2170.7814      960.18531      0.99696118
   1118000  -336.20711      55.294564     -391.50168      294.44731      3595.8676      960.18531      0.99696118
   1119000  -313.40811      58.41437      -371.82248      311.06048      2672.4593      960.18531      0.99696118
   1120000  -321.4212       60.889847     -382.31104      324.24257      72.714516      960.18531      0.99696118
   1121000  -325.532        60.003916     -385.53592      319.52493     -3312.0659      960.18531      0.99696118
   1122000  -322.52208      55.631651     -378.15373      296.24232      870.72247      960.18531      0.99696118
   1123000  -337.60437      51.243056     -388.84742      272.87275      67.530982      960.18531      0.99696118
   1124000  -320.86732      59.331719     -380.19904      315.94543      1577.2958      960.18531      0.99696118
   1125000  -328.40599      55.165415     -383.5714       293.75958     -1498.4004      960.18531      0.99696118
   1126000  -330.7124       54.375985     -385.08838      289.55581      226.48984      960.18531      0.99696118
   1127000  -320.42631      54.279349     -374.70566      289.04122     -1596.6561      960.18531      0.99696118
   1128000  -313.83866      53.528775     -367.36743      285.04436      2791.9821      960.18531      0.99696118
   1129000  -319.0967       57.209402     -376.3061       304.64395      859.69152      960.18531      0.99696118
   1130000  -308.64316      51.349289     -359.99245      273.43845     -1493.2809      960.18531      0.99696118
   1131000  -288.6471       70.440858     -359.08796      375.10235     -102.8716       960.18531      0.99696118
   1132000  -320.66327      54.77778      -375.44105      291.6954       636.4194       960.18531      0.99696118
   1133000  -303.63271      61.557597     -365.19031      327.79838     -2215.3729      960.18531      0.99696118
   1134000  -326.29866      58.325929     -384.62459      310.58953     -694.33827      960.18531      0.99696118
   1135000  -341.63478      55.345963     -396.98075      294.72101      704.24031      960.18531      0.99696118
   1136000  -318.11264      56.186503     -374.29915      299.19694      1538.3829      960.18531      0.99696118
   1137000  -313.57996      69.55938      -383.13934      370.40842     -2335.3328      960.18531      0.99696118
   1138000  -326.8413       58.124919     -384.96622      309.51914     -3641.3413      960.18531      0.99696118
   1139000  -315.895        61.185494     -377.08049      325.81691      3198.4602      960.18531      0.99696118
   1140000  -331.23477      60.970288     -392.20506      324.67092      1023.0506      960.18531      0.99696118
   1141000  -335.02098      43.799675     -378.82065      233.23624     -3214.6676      960.18531      0.99696118
   1142000  -306.34537      62.163462     -368.50883      331.02465     -2279.4885      960.18531      0.99696118
   1143000  -334.21547      51.865309     -386.08078      276.18629      3237.5254      960.18531      0.99696118
   1144000  -344.34758      53.006336     -397.35391      282.26234     -3240.3348      960.18531      0.99696118
   1145000  -327.85163      57.897904     -385.74954      308.31027      4254.657       960.18531      0.99696118
   1146000  -321.03646      54.28891      -375.32537      289.09213      2026.8147      960.18531      0.99696118
   1147000  -319.27761      59.451326     -378.72894      316.58235     -717.19174      960.18531      0.99696118
   1148000  -317.46096      50.454483     -367.91544      268.67355     -1962.1173      960.18531      0.99696118
   1149000  -283.87961      70.896207     -354.77582      377.52711      3580.7823      960.18531      0.99696118
   1150000  -324.97396      55.927053     -380.90101      297.81535      424.08414      960.18531      0.99696118
   1151000  -320.32793      54.319559     -374.64749      289.25534     -568.86244      960.18531      0.99696118
   1152000  -330.36535      52.771285     -383.13664      281.01067      1075.6341      960.18531      0.99696118
   1153000  -331.43419      53.888781     -385.32297      286.96142     -206.76834      960.18531      0.99696118
   1154000  -341.1373       47.474948     -388.61225      252.80732     -3542.4573      960.18531      0.99696118
   1155000  -330.45053      50.976495     -381.42702      271.4533      -315.45118      960.18531      0.99696118
   1156000  -315.11837      59.389849     -374.50822      316.25498      1806.2059      960.18531      0.99696118
   1157000  -310.92023      66.033592     -376.95382      351.63336      4440.6747      960.18531      0.99696118
   1158000  -326.73872      46.505886     -373.24461      247.647        2375.0563      960.18531      0.99696118
   1159000  -309.69747      60.472977     -370.17044      322.02271      760.65778      960.18531      0.99696118
   1160000  -300.99302      53.778466     -354.77149      286.37398      3263.9042      960.18531      0.99696118
   1161000  -327.88809      56.772995     -384.66109      302.32005      2023.5042      960.18531      0.99696118
   1162000  -336.20227      54.438364     -390.64064      289.88798      367.85585      960.18531      0.99696118
   1163000  -330.93831      51.800511     -382.73882      275.84124     -449.45496      960.18531      0.99696118
   1164000  -323.66265      60.10836      -383.77101      320.0811       634.74933      960.18531      0.99696118
   1165000  -316.9656       54.641792     -371.60739      290.97125      983.44469      960.18531      0.99696118
   1166000  -327.81214      50.169086     -377.98122      267.15379      274.24464      960.18531      0.99696118
   1167000  -318.39941      64.672727     -383.07214      344.38666     -291.85113      960.18531      0.99696118
   1168000  -329.62838      53.196219     -382.8246       283.27348     -3594.1242      960.18531      0.99696118
   1169000  -334.46562      47.846273     -382.3119       254.78465     -1944.8348      960.18531      0.99696118
   1170000  -302.65006      68.580416     -371.23048      365.19537      314.12769      960.18531      0.99696118
   1171000  -324.10912      67.05932      -391.16844      357.09543     -3973.002       960.18531      0.99696118
   1172000  -313.78821      60.898642     -374.68685      324.2894       4185.7811      960.18531      0.99696118
   1173000  -327.07858      63.837513     -390.9161       339.93909     -2184.4773      960.18531      0.99696118
   1174000  -336.37719      45.23143      -381.60862      240.86043     -3140.6323      960.18531      0.99696118
   1175000  -320.94383      59.108102     -380.05193      314.75466     -1019.7688      960.18531      0.99696118
   1176000  -334.83543      51.617438     -386.45286      274.86636     -148.34741      960.18531      0.99696118
   1177000  -293.80636      71.048212     -364.85458      378.33655      1669.7297      960.18531      0.99696118
   1178000  -318.41153      63.387848     -381.79938      337.54459      1177.9292      960.18531      0.99696118
   1179000  -305.75159      58.999964     -364.75155      314.17881     -197.18658      960.18531      0.99696118
   1180000  -327.13932      55.475544     -382.61487      295.41104     -2825.9279      960.18531      0.99696118
   1181000  -308.183        50.644049     -358.82704      269.683       -45.701466      960.18531      0.99696118
   1182000  -307.30185      64.77162      -372.07347      344.91328     -116.72846      960.18531      0.99696118
   1183000  -325.30813      49.773587     -375.08171      265.04773     -1643.6312      960.18531      0.99696118
   1184000  -335.77026      49.067142     -384.8374       261.28586      2288.8472      960.18531      0.99696118
   1185000  -338.59737      54.186859     -392.78422      288.5487      -2284.9417      960.18531      0.99696118
   1186000  -312.2614       51.469538     -363.73094      274.07879      369.98927      960.18531      0.99696118
   1187000  -322.28506      56.56688      -378.85194      301.22248      3219.8572      960.18531      0.99696118
   1188000  -309.81473      61.475692     -371.29042      327.36223      4176.4003      960.18531      0.99696118
   1189000  -323.44045      55.718896     -379.15935      296.7069       1476.1105      960.18531      0.99696118
   1190000  -314.32248      62.384057     -376.70654      332.19934      229.49561      960.18531      0.99696118
   1191000  -326.60431      52.268889     -378.8732       278.33538      1936.8866      960.18531      0.99696118
   1192000  -325.45136      53.636846     -379.0882       285.61984     -1925.8551      960.18531      0.99696118
   1193000  -320.08154      47.880875     -367.96241      254.96891      2140.4859      960.18531      0.99696118
   1194000  -315.12851      58.782351     -373.91086      313.02001     -2310.4648      960.18531      0.99696118
   1195000  -321.03257      57.967578     -379.00015      308.68129     -774.28184      960.18531      0.99696118
   1196000  -326.73931      50.828983     -377.56829      270.66778     -2473.0268      960.18531      0.99696118
   1197000  -332.80053      52.445321     -385.24585      279.2749      -3822.7336      960.18531      0.99696118
   1198000  -321.7533       62.8748       -384.6281       334.81258      215.06224      960.18531      0.99696118
   1199000  -324.33472      53.689499     -378.02422      285.90023     -1588.6168      960.18531      0.99696118
   1200000  -336.64384      55.705982     -392.34982      296.63814      456.58787      960.18531      0.99696118
   1201000  -292.64211      76.552636     -369.19475      407.64798      729.22222      960.18531      0.99696118
   1202000  -311.68717      75.850362     -387.53753      403.90833      1553.0966      960.18531      0.99696118
   1203000  -331.4093       57.796153     -389.20545      307.76844      1549.8828      960.18531      0.99696118
   1204000  -317.44867      57.25455      -374.70322      304.88437      1785.9044      960.18531      0.99696118
   1205000  -329.11265      51.674617     -380.78727      275.17084     -720.97556      960.18531      0.99696118
   1206000  -319.88303      65.117708     -385.00074      346.75622     -1733.3605      960.18531      0.99696118
   1207000  -313.50884      52.709318     -366.21816      280.68069      2111.8092      960.18531      0.99696118
   1208000  -322.70146      58.418693     -381.12016      311.08351      1961.082       960.18531      0.99696118
   1209000  -322.79272      55.561368     -378.35409      295.86806     -812.45142      960.18531      0.99696118
   1210000  -295.865        59.45378      -355.31878      316.59542     -1981.8076      960.18531      0.99696118
   1211000  -317.22241      61.559609     -378.78201      327.8091       3052.8491      960.18531      0.99696118
   1212000  -329.31224      64.735766     -394.048        344.72235     -751.13125      960.18531      0.99696118
   1213000  -313.73651      59.233477     -372.96999      315.42229      2920.2651      960.18531      0.99696118
   1214000  -330.52056      54.806497     -385.32706      291.84832      3874.9312      960.18531      0.99696118
   1215000  -314.60974      66.336519     -380.94626      353.24647     -3039.2889      960.18531      0.99696118
   1216000  -323.77343      55.498238     -379.27167      295.53189     -975.74494      960.18531      0.99696118
   1217000  -335.48399      57.913918     -393.39791      308.39554     -1810.9774      960.18531      0.99696118
   1218000  -328.44273      56.820306     -385.26304      302.57199      2039.4712      960.18531      0.99696118
   1219000  -337.47564      56.731411     -394.20705      302.09861     -5155.8466      960.18531      0.99696118
   1220000  -313.63918      56.472355     -370.11154      300.71912      4304.255       960.18531      0.99696118
   1221000  -313.59809      55.188276     -368.78636      293.88131      2442.188       960.18531      0.99696118
   1222000  -325.63615      45.764349     -371.4005       243.69826     -2949.7238      960.18531      0.99696118
   1223000  -321.48308      53.555341     -375.03842      285.18583      143.46072      960.18531      0.99696118
   1224000  -330.18561      54.056987     -384.2426       287.85712     -3840.5845      960.18531      0.99696118
   1225000  -344.33607      50.767145     -395.10322      270.33849     -2020.2911      960.18531      0.99696118
   1226000  -313.77853      64.640584     -378.41912      344.2155      -1536.1278      960.18531      0.99696118
   1227000  -310.89354      55.974786     -366.86833      298.06953      595.71504      960.18531      0.99696118
   1228000  -323.82215      60.322758     -384.14491      321.22278     -1046.2775      960.18531      0.99696118
   1229000  -307.18614      53.9333       -361.11944      287.19848      3052.6072      960.18531      0.99696118
   1230000  -314.78654      60.68086      -375.4674       323.1297      -2808.9821      960.18531      0.99696118
   1231000  -325.2179       57.012007     -382.22991      303.59281     -6044.6985      960.18531      0.99696118
   1232000  -316.4445       55.13265      -371.57715      293.5851       382.26301      960.18531      0.99696118
   1233000  -321.62659      62.029406     -383.65599      330.3108      -595.00964      960.18531      0.99696118
   1234000  -308.45855      61.983462     -370.44201      330.06614      1485.0825      960.18531      0.99696118
   1235000  -326.65889      58.97038      -385.62927      314.02127      2343.3726      960.18531      0.99696118
   1236000  -322.89342      53.334657     -376.22808      284.01067      3988.8422      960.18531      0.99696118
   1237000  -322.70341      51.185556     -373.88897      272.56656     -1254.3958      960.18531      0.99696118
   1238000  -306.48208      56.450306     -362.93239      300.60171     -3975.6781      960.18531      0.99696118
   1239000  -324.60618      52.313002     -376.91918      278.57029     -3858.4452      960.18531      0.99696118
   1240000  -326.99171      52.888107     -379.87982      281.63276     -1177.0161      960.18531      0.99696118
   1241000  -325.21844      55.798007     -381.01645      297.12817     -527.50848      960.18531      0.99696118
   1242000  -330.42453      43.878206     -374.30274      233.65442      3203.0436      960.18531      0.99696118
   1243000  -322.33384      58.518384     -380.85222      311.61437      201.04679      960.18531      0.99696118
   1244000  -320.83651      55.993527     -376.83003      298.16933     -201.15035      960.18531      0.99696118
   1245000  -312.00902      59.278916     -371.28794      315.66425     -3581.4675      960.18531      0.99696118
   1246000  -309.98323      54.983941     -364.96717      292.79322      2087.5856      960.18531      0.99696118
   1247000  -330.30668      56.40111      -386.70779      300.33974     -2204.3388      960.18531      0.99696118
   1248000  -325.31593      45.967371     -371.28331      244.77937     -258.34896      960.18531      0.99696118
   1249000  -323.06339      58.667314     -381.7307       312.40743     -2118.9101      960.18531      0.99696118
   1250000  -324.26883      60.854701     -385.12353      324.05541     -2239.5001      960.18531      0.99696118
   1251000  -311.52764      57.349823     -368.87746      305.3917      -610.5066       960.18531      0.99696118
   1252000  -325.19857      49.578853     -374.77742      264.01076     -3934.4586      960.18531      0.99696118
   1253000  -325.85106      54.508944     -380.36         290.26382      294.48496      960.18531      0.99696118
   1254000  -330.57421      53.486273     -384.06048      284.81804     -3169.2963      960.18531      0.99696118
   1255000  -335.5192       57.320784     -392.83999      305.23707     -2163.4653      960.18531      0.99696118
   1256000  -321.30221      56.633387     -377.9356       301.57663      1332.5496      960.18531      0.99696118
   1257000  -337.38926      58.45214      -395.8414       311.26161     -1566.2663      960.18531      0.99696118
   1258000  -317.62788      59.52426      -377.15214      316.97072     -3286.6797      960.18531      0.99696118
   1259000  -315.30921      52.756508     -368.06572      280.93199     -2288.8376      960.18531      0.99696118
   1260000  -314.41758      60.385406     -374.80299      321.55639      4376.7429      960.18531      0.99696118
   1261000  -315.97704      60.206384     -376.18342      320.60308      753.58131      960.18531      0.99696118
   1262000  -322.33342      59.030956     -381.36438      314.34385     -2085.4748      960.18531      0.99696118
   1263000  -310.70239      69.254643     -379.95703      368.78568      3783.0407      960.18531      0.99696118
   1264000  -325.11895      54.18674      -379.3057       288.54807     -2792.3081      960.18531      0.99696118
   1265000  -333.96758      47.042746     -381.01033      250.50581     -1804.8301      960.18531      0.99696118
   1266000  -317.98001      57.865255     -375.84527      308.13641      1567.0217      960.18531      0.99696118
   1267000  -303.85412      62.725018     -366.57914      334.01498     -295.50734      960.18531      0.99696118
   1268000  -332.4078       54.714588     -387.12239      291.3589       945.75242      960.18531      0.99696118
   1269000  -311.40864      58.025988     -369.43463      308.99232      396.54142      960.18531      0.99696118
   1270000  -331.39097      52.664624     -384.05559      280.4427      -4157.135       960.18531      0.99696118
   1271000  -329.5982       47.554338     -377.15254      253.23008     -2186.5827      960.18531      0.99696118
   1272000  -325.7105       67.968752     -393.67925      361.93822     -463.95402      960.18531      0.99696118
   1273000  -323.62645      52.977185     -376.60364      282.10711      709.24617      960.18531      0.99696118
   1274000  -319.72841      56.267286     -375.9957       299.62712     -884.79136      960.18531      0.99696118
   1275000  -331.08591      52.878354     -383.96426      281.58082      1221.0193      960.18531      0.99696118
   1276000  -320.57846      57.780043     -378.3585       307.68265      208.56055      960.18531      0.99696118
   1277000  -335.39687      45.873727     -381.27059      244.28071      1516.2537      960.18531      0.99696118
   1278000  -331.17308      54.462263     -385.63534      290.01525     -3806.9775      960.18531      0.99696118
   1279000  -314.98003      50.326131     -365.30617      267.99007      410.62315      960.18531      0.99696118
   1280000  -320.7416       62.887473     -383.62907      334.88006     -163.34178      960.18531      0.99696118
   1281000  -318.77523      64.759466     -383.53469      344.84855     -1143.5084      960.18531      0.99696118
   1282000  -323.43054      66.245978     -389.67652      352.76433     -1670.0339      960.18531      0.99696118
   1283000  -307.33749      53.192264     -360.52975      283.25241      4983.8875      960.18531      0.99696118
   1284000  -330.80339      56.073969     -386.87736      298.59769      1076.2052      960.18531      0.99696118
   1285000  -326.56958      49.141723     -375.7113       261.68301     -1397.7165      960.18531      0.99696118
   1286000  -302.6672       63.534029     -366.20123      338.32302      2366.6123      960.18531      0.99696118
   1287000  -313.57436      61.091105     -374.66547      325.31428     -577.11355      960.18531      0.99696118
   1288000  -314.7431       58.107819     -372.85092      309.42808     -1425.7011      960.18531      0.99696118
   1289000  -326.38372      60.566483     -386.9502       322.52063      3483.9936      960.18531      0.99696118
   1290000  -332.93257      47.367845     -380.30042      252.23699     -2005.3827      960.18531      0.99696118
   1291000  -295.95735      69.382784     -365.34014      369.46804     -1596.1226      960.18531      0.99696118
   1292000  -326.55863      52.05314      -378.61177      277.18651      438.36849      960.18531      0.99696118
   1293000  -322.75726      53.167596     -375.92485      283.12106     -1246.9476      960.18531      0.99696118
   1294000  -341.07489      48.713139     -389.78803      259.40077      741.93786      960.18531      0.99696118
   1295000  -322.29128      68.846015     -391.13729      366.6097      -1679.807       960.18531      0.99696118
   1296000  -336.54097      54.310726     -390.8517       289.2083      -2862.2271      960.18531      0.99696118
   1297000  -332.09386      43.605373     -375.69923      232.20157     -2425.6859      960.18531      0.99696118
   1298000  -317.02291      55.638148     -372.66106      296.27692      319.97565      960.18531      0.99696118
   1299000  -297.28064      65.52394      -362.80458      348.91943     -452.24485      960.18531      0.99696118
   1300000  -317.62873      58.772592     -376.40132      312.96804     -111.68962      960.18531      0.99696118
   1301000  -327.91297      55.984587     -383.89756      298.12173      3109.8594      960.18531      0.99696118
   1302000  -311.53981      61.096243     -372.63605      325.34164      807.36555      960.18531      0.99696118
   1303000  -307.08912      46.527512     -353.61663      247.76216      4106.7589      960.18531      0.99696118
   1304000  -299.30616      60.355075     -359.66123      321.39487     -786.5153       960.18531      0.99696118
   1305000  -306.70062      56.553116     -363.25373      301.14918      2703.0148      960.18531      0.99696118
   1306000  -327.23378      48.602485     -375.83626      258.81153     -121.62382      960.18531      0.99696118
   1307000  -313.36553      59.921486     -373.28702      319.08598     -4550.2619      960.18531      0.99696118
   1308000  -324.82647      45.754117     -370.58059      243.64378      3482.3403      960.18531      0.99696118
   1309000  -313.04556      56.540367     -369.58592      301.08129     -1227.6498      960.18531      0.99696118
   1310000  -321.77646      61.027385     -382.80385      324.97497     -231.96878      960.18531      0.99696118
   1311000  -338.7695       55.454603     -394.2241       295.29953      572.94437      960.18531      0.99696118
   1312000  -313.45988      56.261143     -369.72102      299.59441     -2698.7326      960.18531      0.99696118
   1313000  -319.04437      62.136708     -381.18108      330.88219     -1866.9503      960.18531      0.99696118
   1314000  -321.52625      64.456115     -385.98236      343.23319     -2505.9703      960.18531      0.99696118
   1315000  -313.53163      64.239057     -377.77069      342.07734      808.96544      960.18531      0.99696118
   1316000  -328.38204      61.083809     -389.46585      325.27543     -2135.4934      960.18531      0.99696118
   1317000  -321.85466      56.20643      -378.06109      299.30306     -2840.9771      960.18531      0.99696118
   1318000  -313.05215      62.72802      -375.78017      334.03097     -794.78977      960.18531      0.99696118
   1319000  -320.70617      60.268969     -380.97514      320.93635     -409.28642      960.18531      0.99696118
   1320000  -329.7503       50.769159     -380.51946      270.34922      3735.208       960.18531      0.99696118
   1321000  -297.79221      65.590963     -363.38317      349.27633     -4066.292       960.18531      0.99696118
   1322000  -324.37718      49.535333     -373.91251      263.77901     -1164.8484      960.18531      0.99696118
   1323000  -319.20147      54.635884     -373.83735      290.93979      278.94621      960.18531      0.99696118
   1324000  -322.65672      56.932816     -379.58953      303.17111     -1876.6903      960.18531      0.99696118
   1325000  -308.37824      66.231428     -374.60967      352.68685     -538.69354      960.18531      0.99696118
   1326000  -326.85613      50.173692     -377.02982      267.17831     -432.09752      960.18531      0.99696118
   1327000  -315.10672      63.858132     -378.96485      340.04889     -1857.1009      960.18531      0.99696118
   1328000  -313.07807      58.902723     -371.98079      313.661        1158.1017      960.18531      0.99696118
   1329000  -309.69262      57.946292     -367.63892      308.56794     -1300.1298      960.18531      0.99696118
   1330000  -314.43092      59.59983      -374.03075      317.37314     -2075.4571      960.18531      0.99696118
   1331000  -323.24612      53.186776     -376.43289      283.22319     -1221.2123      960.18531      0.99696118
   1332000  -333.11564      62.480734     -395.59638      332.71415      1140.2853      960.18531      0.99696118
   1333000  -329.47559      50.430149     -379.90574      268.54397      102.34588      960.18531      0.99696118
   1334000  -328.70556      54.226356     -382.93192      288.75903      37.418863      960.18531      0.99696118
   1335000  -316.83498      56.330513     -373.1655       299.96381      3507.397       960.18531      0.99696118
   1336000  -313.5776       63.90517      -377.48277      340.29937     -443.87622      960.18531      0.99696118
   1337000  -325.16699      55.498914     -380.6659       295.53548     -1328.0298      960.18531      0.99696118
   1338000  -335.86227      50.086056     -385.94833      266.71165     -1309.3523      960.18531      0.99696118
   1339000  -323.40944      62.625557     -386.035        333.48535      3273.2362      960.18531      0.99696118
   1340000  -332.99013      55.159288     -388.14942      293.72695     -73.82106       960.18531      0.99696118
   1341000  -322.08932      54.133215     -376.22254      288.26305     -735.26474      960.18531      0.99696118
   1342000  -322.17319      51.863086     -374.03627      276.17446      2818.1055      960.18531      0.99696118
   1343000  -306.68598      65.537102     -372.22308      348.98951     -881.26888      960.18531      0.99696118
   1344000  -325.43         55.873483     -381.30348      297.53009      3324.5046      960.18531      0.99696118
   1345000  -330.26535      54.001413     -384.26676      287.56119     -848.41705      960.18531      0.99696118
   1346000  -314.0732       60.023887     -374.09709      319.63127     -316.7534       960.18531      0.99696118
   1347000  -323.68527      56.37416      -380.05943      300.19623     -3111.6526      960.18531      0.99696118
   1348000  -335.9473       59.043106     -394.99041      314.40855     -928.11668      960.18531      0.99696118
   1349000  -321.94738      57.610199     -379.55757      306.77822     -2001.0464      960.18531      0.99696118
   1350000  -317.95549      65.606834     -383.56232      349.36084     -1892.8349      960.18531      0.99696118
   1351000  -320.10901      53.214629     -373.32364      283.37151     -2567.6784      960.18531      0.99696118
   1352000  -335.00235      49.659432     -384.66178      264.43985     -3624.317       960.18531      0.99696118
   1353000  -323.15964      45.879385     -369.03903      244.31084      2760.4559      960.18531      0.99696118
   1354000  -319.729        55.467021     -375.19602      295.36565     -452.32086      960.18531      0.99696118
   1355000  -338.66336      52.915358     -391.57872      281.77787     -1367.292       960.18531      0.99696118
   1356000  -323.07926      63.946102     -387.02536      340.51733     -5056.729       960.18531      0.99696118
   1357000  -327.7241       55.775859     -383.49996      297.01024     -4054.7121      960.18531      0.99696118
   1358000  -321.04435      56.162201     -377.20655      299.06753     -1891.9487      960.18531      0.99696118
   1359000  -314.41859      58.394203     -372.8128       310.9531       1534.0703      960.18531      0.99696118
   1360000  -340.79156      51.108172     -391.89974      272.15449      169.74413      960.18531      0.99696118
   1361000  -320.99032      59.261189     -380.25151      315.56985      4939.342       960.18531      0.99696118
   1362000  -316.59198      61.628389     -378.22037      328.17536      1632.2758      960.18531      0.99696118
   1363000  -331.65918      48.761914     -380.42109      259.6605       1057.515       960.18531      0.99696118
   1364000  -319.69854      55.017468     -374.71601      292.97175      2858.0896      960.18531      0.99696118
   1365000  -329.97559      52.035127     -382.01072      277.09058     -2940.5223      960.18531      0.99696118
   1366000  -321.62905      56.190381     -377.81943      299.21759     -988.90224      960.18531      0.99696118
   1367000  -321.99231      47.476992     -369.46931      252.81821      1073.7728      960.18531      0.99696118
   1368000  -312.91143      61.749383     -374.66081      328.81966      420.18709      960.18531      0.99696118
   1369000  -321.21461      56.608        -377.82261      301.44144      2211.211       960.18531      0.99696118
   1370000  -326.50084      51.194671     -377.69552      272.6151       1597.4867      960.18531      0.99696118
   1371000  -315.54948      61.55787      -377.10735      327.79984      3376.7617      960.18531      0.99696118
   1372000  -323.86571      57.089429     -380.95514      304.00508     -2001.8813      960.18531      0.99696118
   1373000  -325.49496      52.623869     -378.11883      280.22567     -285.31586      960.18531      0.99696118
   1374000  -307.98666      63.436208     -371.42287      337.80211     -610.57753      960.18531      0.99696118
   1375000  -314.38869      60.295976     -374.68466      321.08017      1193.8691      960.18531      0.99696118
   1376000  -309.26546      65.668458     -374.93392      349.689       -2902.9069      960.18531      0.99696118
   1377000  -334.13096      58.051513     -392.18248      309.12825     -343.05508      960.18531      0.99696118
   1378000  -335.53812      57.987111     -393.52523      308.7853      -2361.0312      960.18531      0.99696118
   1379000  -315.06484      58.272856     -373.3377       310.30691     -4212.4435      960.18531      0.99696118
   1380000  -324.46551      54.236098     -378.70161      288.8109       896.96443      960.18531      0.99696118
   1381000  -311.10502      61.742252     -372.84727      328.78168     -648.77846      960.18531      0.99696118
   1382000  -311.00158      56.522233     -367.52381      300.98473     -3357.1841      960.18531      0.99696118
   1383000  -324.41654      59.793301     -384.20984      318.40338      145.40156      960.18531      0.99696118
   1384000  -332.81673      61.151508     -393.96824      325.63593     -1569.1593      960.18531      0.99696118
   1385000  -330.29385      61.284995     -391.57884      326.34676      1706.9011      960.18531      0.99696118
   1386000  -302.76485      51.916064     -354.68092      276.45656     -1637.9771      960.18531      0.99696118
   1387000  -323.12483      60.670915     -383.79574      323.07674      3780.6026      960.18531      0.99696118
   1388000  -327.69329      53.70787      -381.40116      285.99805     -3757.1935      960.18531      0.99696118
   1389000  -321.77862      61.043373     -382.822        325.0601      -2432.2603      960.18531      0.99696118
   1390000  -320.47276      60.761132     -381.23389      323.55715      31.025666      960.18531      0.99696118
   1391000  -317.59399      58.834364     -376.42836      313.29698     -2370.776       960.18531      0.99696118
   1392000  -322.77652      51.888734     -374.66525      276.31103     -3389.7093      960.18531      0.99696118
   1393000  -321.48683      50.497948     -371.98478      268.905        6008.7577      960.18531      0.99696118
   1394000  -340.29687      58.651741     -398.94861      312.3245      -4363.5069      960.18531      0.99696118
   1395000  -323.79629      58.331625     -382.12791      310.61986     -2692.3498      960.18531      0.99696118
   1396000  -325.85347      55.036018     -380.88949      293.07053     -896.29967      960.18531      0.99696118
   1397000  -308.14856      63.90155      -372.05011      340.28009      3611.0182      960.18531      0.99696118
   1398000  -318.51504      61.080478     -379.59552      325.25769      794.8454       960.18531      0.99696118
   1399000  -316.43017      50.549443     -366.97961      269.17921      793.38002      960.18531      0.99696118
   1400000  -317.77782      52.701821     -370.47964      280.64077     -1872.4128      960.18531      0.99696118
   1401000  -317.37286      70.367322     -387.74018      374.71076      592.73484      960.18531      0.99696118
   1402000  -323.51763      48.366654     -371.88428      257.55572     -331.10378      960.18531      0.99696118
   1403000  -330.71916      46.498735     -377.2179       247.60892     -3448.017       960.18531      0.99696118
   1404000  -344.1541       60.320337     -404.47444      321.20989     -2379.5058      960.18531      0.99696118
   1405000  -328.6746       56.261636     -384.93624      299.59703     -2017.8925      960.18531      0.99696118
   1406000  -342.07397      54.720341     -396.79431      291.38953      2681.5635      960.18531      0.99696118
   1407000  -325.93903      50.759859     -376.69889      270.29969      1622.0263      960.18531      0.99696118
   1408000  -321.03907      52.122771     -373.16184      277.55729     -1336.2503      960.18531      0.99696118
   1409000  -325.00932      54.243126     -379.25245      288.84833     -233.71371      960.18531      0.99696118
   1410000  -331.79597      52.768723     -384.5647       280.99703      3748.0978      960.18531      0.99696118
   1411000  -324.68105      54.10132      -378.78237      288.0932       100.85629      960.18531      0.99696118
   1412000  -323.49385      60.925351     -384.4192       324.43163     -666.61237      960.18531      0.99696118
   1413000  -321.08764      62.812272     -383.89991      334.47961     -50.580918      960.18531      0.99696118
   1414000  -314.53476      59.096538     -373.6313       314.69308     -5314.0927      960.18531      0.99696118
   1415000  -314.08638      52.846117     -366.93249      281.40916     -6668.927       960.18531      0.99696118
   1416000  -312.6678       59.524133     -372.19193      316.97005      1968.4611      960.18531      0.99696118
   1417000  -316.95535      54.726604     -371.68195      291.42288     -2027.8984      960.18531      0.99696118
   1418000  -335.45746      47.974308     -383.43177      255.46645      938.56759      960.18531      0.99696118
   1419000  -338.4698       52.611771     -391.08157      280.16125      717.94628      960.18531      0.99696118
   1420000  -310.31031      50.963773     -361.27408      271.38555      842.24924      960.18531      0.99696118
   1421000  -326.24824      52.865736     -379.11397      281.51363     -1744.5292      960.18531      0.99696118
   1422000  -324.87886      59.880954     -384.75982      318.87014      746.80382      960.18531      0.99696118
   1423000  -306.90274      59.072551     -365.97529      314.56535     -314.13021      960.18531      0.99696118
   1424000  -330.84913      51.430579     -382.27971      273.87133     -446.06126      960.18531      0.99696118
   1425000  -317.25133      58.63438      -375.88571      312.23205     -2495.6837      960.18531      0.99696118
   1426000  -320.41782      65.903882     -386.3217       350.94264      379.61669      960.18531      0.99696118
   1427000  -320.3273       52.343426     -372.67072      278.7323      -1327.975       960.18531      0.99696118
   1428000  -343.4593       52.130182     -395.58948      277.59676      82.151716      960.18531      0.99696118
   1429000  -324.9295       50.6165       -375.546        269.5363       637.3081       960.18531      0.99696118
   1430000  -319.18119      66.332321     -385.51351      353.22412     -1238.1325      960.18531      0.99696118
   1431000  -327.47727      51.901991     -379.37926      276.38163      1074.62        960.18531      0.99696118
   1432000  -298.86863      70.160732     -369.02937      373.61066     -2948.0074      960.18531      0.99696118
   1433000  -308.57936      59.670504     -368.24987      317.74948     -3226.7421      960.18531      0.99696118
   1434000  -310.36837      62.974393     -373.34277      335.34292      89.421231      960.18531      0.99696118
   1435000  -327.73486      52.95811      -380.69297      282.00553      1747.828       960.18531      0.99696118
   1436000  -335.71307      48.103682     -383.81675      256.15537     -1559.2187      960.18531      0.99696118
   1437000  -342.41812      56.748542     -399.16666      302.18984     -4778.1076      960.18531      0.99696118
   1438000  -332.78713      49.193271     -381.9804       261.95751     -3605.2895      960.18531      0.99696118
   1439000  -343.12632      47.692879     -390.8192       253.96782     -1006.6789      960.18531      0.99696118
   1440000  -330.02502      53.029371     -383.05439      282.385       -1400.9552      960.18531      0.99696118
   1441000  -328.87927      55.462241     -384.34152      295.3402       1498.8267      960.18531      0.99696118
   1442000  -334.73777      52.438813     -387.17658      279.24024      1553.0138      960.18531      0.99696118
   1443000  -327.50265      52.03932      -379.54197      277.11291      17.802087      960.18531      0.99696118
   1444000  -322.23418      59.686024     -381.9202       317.83213      298.86548      960.18531      0.99696118
   1445000  -341.30914      49.885988     -391.19513      265.64627     -1306.7882      960.18531      0.99696118
   1446000  -323.74363      57.707905     -381.45154      307.29851      329.92618      960.18531      0.99696118
   1447000  -320.22124      50.132014     -370.35325      266.95638     -3197.448       960.18531      0.99696118
   1448000  -313.82778      62.918359     -376.74614      335.04454      1016.3375      960.18531      0.99696118
   1449000  -332.76126      50.044944     -382.8062       266.49273     -2794.6062      960.18531      0.99696118
   1450000  -309.61523      52.823755     -362.43899      281.29008      616.38688      960.18531      0.99696118
   1451000  -321.22046      56.744017     -377.96448      302.16574     -874.51897      960.18531      0.99696118
   1452000  -322.12661      58.800843     -380.92746      313.11848     -4082.922       960.18531      0.99696118
   1453000  -304.57377      64.505554     -369.07932      343.49645     -1342.8693      960.18531      0.99696118
   1454000  -327.20917      53.785517     -380.99468      286.41153      1338.0113      960.18531      0.99696118
   1455000  -329.23586      50.865171     -380.10104      270.86049     -3213.1213      960.18531      0.99696118
   1456000  -332.32553      52.080123     -384.40565      277.33019     -2180.3959      960.18531      0.99696118
   1457000  -333.84938      47.317478     -381.16686      251.96878      57.708863      960.18531      0.99696118
   1458000  -305.15748      64.622697     -369.78017      344.12025      3652.5473      960.18531      0.99696118
   1459000  -326.9008       45.939533     -372.84033      244.63113      474.26505      960.18531      0.99696118
   1460000  -325.63972      52.103225     -377.74294      277.45321      2330.4377      960.18531      0.99696118
   1461000  -311.82178      70.163028     -381.98481      373.62288      423.1377       960.18531      0.99696118
   1462000  -328.18959      48.728151     -376.91775      259.48071     -3707.4756      960.18531      0.99696118
   1463000  -306.11248      57.025377     -363.13786      303.664        85.011806      960.18531      0.99696118
   1464000  -324.76453      51.335696     -376.10022      273.36606      802.65294      960.18531      0.99696118
   1465000  -328.48901      58.932079     -387.42109      313.81732      1458.6517      960.18531      0.99696118
   1466000  -336.31713      55.083628     -391.40075      293.32406     -2094.4786      960.18531      0.99696118
   1467000  -333.38897      46.91228      -380.30125      249.81107     -724.58573      960.18531      0.99696118
   1468000  -326.28396      55.407709     -381.69167      295.04981     -1356.8351      960.18531      0.99696118
   1469000  -330.05413      52.572858     -382.62699      279.95404     -2594.8816      960.18531      0.99696118
   1470000  -322.13922      52.709374     -374.84859      280.68099      1113.8968      960.18531      0.99696118
   1471000  -336.75081      52.677293     -389.4281       280.51016     -1902.5079      960.18531      0.99696118
   1472000  -307.76869      65.501946     -373.27064      348.80231      1793.4823      960.18531      0.99696118
   1473000  -329.35482      51.131798     -380.48662      272.2803       381.07257      960.18531      0.99696118
   1474000  -333.11947      54.604147     -387.72362      290.77079      1235.84        960.18531      0.99696118
   1475000  -306.0355       60.127097     -366.1626       320.18087     -2807.9691      960.18531      0.99696118
   1476000  -318.7406       52.638023     -371.37862      280.30105      353.29185      960.18531      0.99696118
   1477000  -336.20358      56.820966     -393.02454      302.5755      -1039.9492      960.18531      0.99696118
   1478000  -320.48933      51.659817     -372.14915      275.09203      2093.3875      960.18531      0.99696118
   1479000  -301.83433      58.632802     -360.46714      312.22365      1128.1054      960.18531      0.99696118
   1480000  -333.05912      41.830539     -374.88966      222.75046     -7669.5835      960.18531      0.99696118
   1481000  -310.42075      59.814788     -370.23554      318.51781     -667.6595       960.18531      0.99696118
   1482000  -313.61891      60.219004     -373.83791      320.67029      31.518449      960.18531      0.99696118
   1483000  -332.0799       48.531636     -380.61154      258.43425     -1574.8154      960.18531      0.99696118
   1484000  -338.44121      54.352918     -392.79413      289.43298     -2068.0299      960.18531      0.99696118
   1485000  -328.47818      56.236945     -384.71512      299.46555      841.90336      960.18531      0.99696118
   1486000  -335.08095      53.187749     -388.2687       283.22837      1143.2013      960.18531      0.99696118
   1487000  -325.31971      57.939365     -383.25908      308.53105      1317.5374      960.18531      0.99696118
   1488000  -328.87941      60.586279     -389.46569      322.62605      1846.2104      960.18531      0.99696118
   1489000  -313.12606      62.651382     -375.77744      333.62286      267.85193      960.18531      0.99696118
   1490000  -327.94809      49.7739       -377.72199      265.0494       3204.9162      960.18531      0.99696118
   1491000  -322.5319       51.915981     -374.44788      276.45612     -889.73922      960.18531      0.99696118
   1492000  -333.30596      48.359366     -381.66533      257.51691      4152.3029      960.18531      0.99696118
   1493000  -318.99953      63.424365     -382.4239       337.73905      551.18645      960.18531      0.99696118
   1494000  -327.56924      55.935677     -383.50492      297.86128      3489.3911      960.18531      0.99696118
   1495000  -329.05824      52.149902     -381.20814      277.70177     -2535.4948      960.18531      0.99696118
   1496000  -326.14525      53.928369     -380.07362      287.17223      1221.5992      960.18531      0.99696118
   1497000  -316.20298      59.891501     -376.09449      318.92631      302.56218      960.18531      0.99696118
   1498000  -337.26988      47.308815     -384.57869      251.92265     -3195.1889      960.18531      0.99696118
   1499000  -321.71792      58.133669     -379.85159      309.56573      3700.1962      960.18531      0.99696118
   1500000  -328.57358      49.258767     -377.83235      262.30628     -392.66466      960.18531      0.99696118
   1501000  -316.55091      58.708238     -375.25914      312.62535     -37.925824      960.18531      0.99696118
   1502000  -315.8858       40.601582     -356.48738      216.20618      1253.5457      960.18531      0.99696118
   1503000  -326.76514      62.991833     -389.75697      335.43579      2356.1499      960.18531      0.99696118
   1504000  -331.67743      50.379653     -382.05709      268.27507      296.19571      960.18531      0.99696118
   1505000  -314.01961      61.552428     -375.57204      327.77086     -2237.3991      960.18531      0.99696118
   1506000  -307.30859      56.781641     -364.09023      302.36609     -1495.8972      960.18531      0.99696118
   1507000  -326.32462      57.966997     -384.29162      308.67819     -1243.3519      960.18531      0.99696118
   1508000  -328.09709      54.997008     -383.0941       292.8628      -784.03479      960.18531      0.99696118
   1509000  -324.32401      49.630256     -373.95427      264.28448      198.46694      960.18531      0.99696118
   1510000  -308.85517      55.391743     -364.24691      294.96479      1042.2609      960.18531      0.99696118
   1511000  -314.14547      59.772422     -373.91789      318.2922       1574.1813      960.18531      0.99696118
   1512000  -316.54887      56.483813     -373.03269      300.78014     -2154.6466      960.18531      0.99696118
   1513000  -325.54733      54.441836     -379.98917      289.90647     -4052.6767      960.18531      0.99696118
   1514000  -320.37119      60.932389     -381.30358      324.46911      393.87734      960.18531      0.99696118
   1515000  -315.18595      48.624094     -363.81005      258.9266      -1105.1073      960.18531      0.99696118
   1516000  -309.77266      60.365908     -370.13857      321.45256      2552.6157      960.18531      0.99696118
   1517000  -300.18592      59.059789     -359.24571      314.49739      3866.594       960.18531      0.99696118
   1518000  -319.0241       49.993284     -369.01738      266.21763      356.91259      960.18531      0.99696118
   1519000  -330.0789       52.246061     -382.32496      278.21382     -2094.2576      960.18531      0.99696118
   1520000  -320.11296      58.516608     -378.62957      311.60491      2413.1333      960.18531      0.99696118
   1521000  -328.39507      51.952582     -380.34765      276.65102     -1172.0681      960.18531      0.99696118
   1522000  -342.36218      54.595008     -396.95719      290.72213      4462.3904      960.18531      0.99696118
   1523000  -325.79082      50.771975     -376.5628       270.36422     -2427.9072      960.18531      0.99696118
   1524000  -320.41789      57.36455      -377.78244      305.47012     -152.19937      960.18531      0.99696118
   1525000  -323.10036      51.197427     -374.29779      272.62978     -4415.6829      960.18531      0.99696118
   1526000  -310.51437      60.826067     -371.34043      323.90293     -835.42911      960.18531      0.99696118
   1527000  -320.56962      58.437312     -379.00694      311.18266     -3843.8803      960.18531      0.99696118
   1528000  -325.09448      52.24974      -377.34422      278.23341     -4244.3047      960.18531      0.99696118
   1529000  -330.67228      57.025234     -387.69751      303.66324      522.46717      960.18531      0.99696118
   1530000  -319.24308      60.953765     -380.19685      324.58294      1168.0181      960.18531      0.99696118
   1531000  -339.25551      45.829204     -385.08471      244.04362     -2128.9944      960.18531      0.99696118
   1532000  -332.69593      49.781135     -382.47706      265.08792     -2221.2948      960.18531      0.99696118
   1533000  -329.04463      47.949107     -376.99373      255.33225     -1879.3737      960.18531      0.99696118
   1534000  -304.10372      59.839357     -363.94308      318.64864     -969.52005      960.18531      0.99696118
   1535000  -317.28361      65.945841     -383.22945      351.16608      1106.9525      960.18531      0.99696118
   1536000  -326.00106      52.947781     -378.94884      281.95053     -279.97971      960.18531      0.99696118
   1537000  -316.04298      66.916021     -382.959        356.33236      950.43118      960.18531      0.99696118
   1538000  -315.65573      57.699522     -373.35526      307.25387      887.58361      960.18531      0.99696118
   1539000  -310.5857       59.306662     -369.89237      315.812       -1764.4045      960.18531      0.99696118
   1540000  -333.70788      46.629454     -380.33733      248.30501     -3476.8718      960.18531      0.99696118
   1541000  -310.84769      59.695087     -370.54278      317.88039     -4490.336       960.18531      0.99696118
   1542000  -333.9167       63.628391     -397.54509      338.8255      -760.54447      960.18531      0.99696118
   1543000  -327.3963       55.902038     -383.29834      297.68215     -630.4132       960.18531      0.99696118
   1544000  -320.13883      56.121965     -376.26079      298.85328     -1135.3938      960.18531      0.99696118
   1545000  -316.36581      60.208741     -376.57455      320.61563     -541.61194      960.18531      0.99696118
   1546000  -331.58762      45.112175     -376.6998       240.2254       1085.3028      960.18531      0.99696118
   1547000  -323.31677      57.225434     -380.5422       304.72932     -363.21474      960.18531      0.99696118
   1548000  -322.40745      59.673466     -382.08091      317.76526     -719.32985      960.18531      0.99696118
   1549000  -324.11491      51.536251     -375.65117      274.43403     -2059.4724      960.18531      0.99696118
   1550000  -320.41653      56.724014     -377.14054      302.05922     -3337.3773      960.18531      0.99696118
   1551000  -314.22196      59.270009     -373.49197      315.61682     -2087.0214      960.18531      0.99696118
   1552000  -343.46092      41.492764     -384.95368      220.95179      136.96582      960.18531      0.99696118
   1553000  -335.96439      59.163533     -395.12793      315.04983      390.71308      960.18531      0.99696118
   1554000  -308.07341      61.199616     -369.27302      325.89211     -2276.2323      960.18531      0.99696118
   1555000  -331.04445      54.362599     -385.40705      289.48453      941.4187       960.18531      0.99696118
   1556000  -333.1371       51.103998     -384.24109      272.13226     -505.99938      960.18531      0.99696118
   1557000  -328.40651      52.165617     -380.57213      277.78545      2456.2642      960.18531      0.99696118
   1558000  -304.00573      59.421886     -363.42762      316.42558     -1341.5517      960.18531      0.99696118
   1559000  -320.5666       63.085559     -383.65216      335.93489      207.46902      960.18531      0.99696118
   1560000  -328.16287      51.107076     -379.26995      272.14865     -1086.9269      960.18531      0.99696118
   1561000  -322.54824      66.972173     -389.52041      356.63137     -869.60034      960.18531      0.99696118
   1562000  -313.6133       75.84953      -389.46283      403.9039      -2030.9704      960.18531      0.99696118
   1563000  -311.79527      62.587509     -374.38278      333.28274     -1307.8882      960.18531      0.99696118
   1564000  -328.69568      46.633125     -375.32881      248.32456      3152.1772      960.18531      0.99696118
   1565000  -312.86329      49.660793     -362.52408      264.44709      852.83663      960.18531      0.99696118
   1566000  -322.62495      50.880959     -373.50591      270.94456     -1876.8678      960.18531      0.99696118
   1567000  -317.43768      56.450522     -373.8882       300.60286     -1534.4842      960.18531      0.99696118
   1568000  -298.67611      60.781087     -359.4572       323.66342      3397.0337      960.18531      0.99696118
   1569000  -326.65058      58.255243     -384.90583      310.21312     -427.1949       960.18531      0.99696118
   1570000  -308.4965       58.308322     -366.80482      310.49577     -1326.6858      960.18531      0.99696118
   1571000  -325.67303      61.705472     -387.37851      328.58583      1092.5138      960.18531      0.99696118
   1572000  -321.78621      51.736634     -373.52284      275.50109     -71.879875      960.18531      0.99696118
   1573000  -300.16721      61.073319     -361.24053      325.21957     -336.31056      960.18531      0.99696118
   1574000  -328.38499      55.171924     -383.55692      293.79424     -2833.0749      960.18531      0.99696118
   1575000  -321.09156      59.687298     -380.77886      317.83892      840.78131      960.18531      0.99696118
   1576000  -314.38952      55.268531     -369.65805      294.30868     -1758.3493      960.18531      0.99696118
   1577000  -336.73117      54.249226     -390.98039      288.88081     -1426.3655      960.18531      0.99696118
   1578000  -328.70053      48.150923     -376.85145      256.40693     -387.71731      960.18531      0.99696118
   1579000  -323.02823      54.567902     -377.59613      290.57778     -1658.8226      960.18531      0.99696118
   1580000  -333.44332      59.216449     -392.65977      315.33161      3133.9629      960.18531      0.99696118
   1581000  -327.26531      52.512779     -379.77809      279.63411      2370.9554      960.18531      0.99696118
   1582000  -317.02026      60.40208      -377.42234      321.64517     -2810.6647      960.18531      0.99696118
   1583000  -310.12588      65.132646     -375.25853      346.83576     -958.07887      960.18531      0.99696118
   1584000  -340.18832      47.771132     -387.95946      254.38452     -591.14439      960.18531      0.99696118
   1585000  -322.57862      60.560317     -383.13894      322.4878       438.49553      960.18531      0.99696118
   1586000  -322.37987      46.885881     -369.26575      249.6705      -3068.8092      960.18531      0.99696118
   1587000  -337.0524       55.433343     -392.48574      295.18632      1815.5409      960.18531      0.99696118
   1588000  -314.48928      59.415345     -373.90462      316.39075      2430.3941      960.18531      0.99696118
   1589000  -325.34198      56.794783     -382.13677      302.43608     -1627.9287      960.18531      0.99696118
   1590000  -315.3073       56.916039     -372.22334      303.08177      2095.2457      960.18531      0.99696118
   1591000  -318.51053      53.070482     -371.58101      282.60392     -37.129343      960.18531      0.99696118
   1592000  -310.17354      53.937043     -364.11058      287.21841      1860.4281      960.18531      0.99696118
   1593000  -323.61295      52.671868     -376.28482      280.48127      1439.7687      960.18531      0.99696118
   1594000  -331.63087      45.80184      -377.43271      243.89791      2247.7557      960.18531      0.99696118
   1595000  -332.95843      53.455574     -386.414        284.65456     -901.59528      960.18531      0.99696118
   1596000  -313.62403      57.872857     -371.49689      308.17689     -1538.7766      960.18531      0.99696118
   1597000  -332.18096      56.966408     -389.14737      303.34999      764.39735      960.18531      0.99696118
   1598000  -333.24965      58.800171     -392.04983      313.1149      -3738.9612      960.18531      0.99696118
   1599000  -335.39905      50.72878      -386.12783      270.1342       159.76179      960.18531      0.99696118
   1600000  -328.58849      50.235048     -378.82353      267.50504      9.218598       960.18531      0.99696118
   1601000  -312.80427      57.554546     -370.35882      306.48186      1873.3049      960.18531      0.99696118
   1602000  -337.63343      52.374344     -390.00777      278.89694     -4222.4304      960.18531      0.99696118
   1603000  -320.98312      60.618687     -381.60181      322.79862     -4791.198       960.18531      0.99696118
   1604000  -314.24737      57.425554     -371.67292      305.79497      1356.3242      960.18531      0.99696118
   1605000  -334.03207      47.355559     -381.38763      252.17157      1230.8066      960.18531      0.99696118
   1606000  -312.36936      64.528962     -376.89832      343.6211       2765.8195      960.18531      0.99696118
   1607000  -330.09587      52.853399     -382.94927      281.44794     -2960.8614      960.18531      0.99696118
   1608000  -316.51856      56.936572     -373.45513      303.19111      3714.2803      960.18531      0.99696118
   1609000  -327.0852       58.653087     -385.73829      312.33167     -392.37181      960.18531      0.99696118
   1610000  -340.2536       42.280612     -382.53421      225.14713     -3908.1206      960.18531      0.99696118
   1611000  -325.15756      58.064532     -383.2221       309.19757     -734.94326      960.18531      0.99696118
   1612000  -325.98436      52.555714     -378.54008      279.86274      404.66517      960.18531      0.99696118
   1613000  -324.24683      52.323224     -376.57005      278.62472      744.93344      960.18531      0.99696118
   1614000  -306.32942      55.561234     -361.89066      295.86734      1132.5791      960.18531      0.99696118
   1615000  -313.63517      62.199743     -375.83491      331.21785     -1650.675       960.18531      0.99696118
   1616000  -316.32628      67.497823     -383.8241       359.43049      1599.3562      960.18531      0.99696118
   1617000  -329.43017      48.144161     -377.57433      256.37093     -2142.9023      960.18531      0.99696118
   1618000  -327.81511      57.498782     -385.31389      306.18491      1774.0659      960.18531      0.99696118
   1619000  -322.29334      61.272454     -383.5658       326.27998     -856.22784      960.18531      0.99696118
   1620000  -322.33152      63.28791      -385.61943      337.01242      2749.067       960.18531      0.99696118
   1621000  -318.74056      54.744895     -373.48546      291.52028     -3552.9828      960.18531      0.99696118
   1622000  -341.84662      47.898728     -389.74535      255.06398     -600.92302      960.18531      0.99696118
   1623000  -319.69618      58.546461     -378.24264      311.76388     -709.39573      960.18531      0.99696118
   1624000  -296.70294      60.760127     -357.46306      323.5518       3615.995       960.18531      0.99696118
   1625000  -314.76848      65.124565     -379.89304      346.79273     -1177.8524      960.18531      0.99696118
   1626000  -337.04824      55.183286     -392.23153      293.85475     -291.41857      960.18531      0.99696118
   1627000  -312.33665      71.410067     -383.74672      380.26345      1788.9683      960.18531      0.99696118
   1628000  -315.26016      58.726809     -373.98697      312.72425      733.5789       960.18531      0.99696118
   1629000  -321.428        52.788778     -374.21678      281.10383     -528.04168      960.18531      0.99696118
   1630000  -330.83306      42.631832     -373.46489      227.0174      -1716.2485      960.18531      0.99696118
   1631000  -312.06675      57.891061     -369.95781      308.27383     -1935.5783      960.18531      0.99696118
   1632000  -338.59339      55.107078     -393.70047      293.44893      6155.4823      960.18531      0.99696118
   1633000  -322.90433      61.492621     -384.39695      327.45238      1592.5396      960.18531      0.99696118
   1634000  -324.76138      52.708818     -377.4702       280.67803      142.01026      960.18531      0.99696118
   1635000  -316.50681      57.271435     -373.77825      304.97428      3890.5497      960.18531      0.99696118
   1636000  -312.49977      67.32315      -379.82292      358.50034     -265.54136      960.18531      0.99696118
   1637000  -324.58293      51.559013     -376.14194      274.55525      2293.0282      960.18531      0.99696118
   1638000  -339.62713      55.100623     -394.72775      293.41456     -138.2216       960.18531      0.99696118
   1639000  -304.6861       56.628986     -361.31509      301.55319     -1551.1252      960.18531      0.99696118
   1640000  -333.93825      48.475655     -382.4139       258.13615     -420.05968      960.18531      0.99696118
   1641000  -325.58773      58.453614     -384.04134      311.26946     -4433.0563      960.18531      0.99696118
   1642000  -308.65489      53.792329     -362.44722      286.4478      -3073.1025      960.18531      0.99696118
   1643000  -322.28229      52.489154     -374.77144      279.50831     -2491.6407      960.18531      0.99696118
   1644000  -330.03995      52.500137     -382.54008      279.56679     -2315.0737      960.18531      0.99696118
   1645000  -325.69176      59.150461     -384.84222      314.98022      2325.4018      960.18531      0.99696118
   1646000  -340.07583      44.929655     -385.00549      239.25346      1174.0986      960.18531      0.99696118
   1647000  -341.66941      52.896614     -394.56602      281.67806     -867.87236      960.18531      0.99696118
   1648000  -337.63625      57.186955     -394.82321      304.52442      196.80006      960.18531      0.99696118
   1649000  -330.49724      55.799717     -386.29696      297.13728     -306.33443      960.18531      0.99696118
   1650000  -336.54057      58.905122     -395.44569      313.67377     -2818.174       960.18531      0.99696118
   1651000  -327.68248      53.063914     -380.7464       282.56894     -2339.4957      960.18531      0.99696118
   1652000  -325.17982      43.95653      -369.13635      234.0715       2318.5927      960.18531      0.99696118
   1653000  -316.52154      62.508631     -379.03017      332.8627       583.01151      960.18531      0.99696118
   1654000  -317.6919       62.176573     -379.86847      331.09447      79.231821      960.18531      0.99696118
   1655000  -322.58271      51.411055     -373.99377      273.76736      35.86995       960.18531      0.99696118
   1656000  -314.83612      59.271466     -374.10759      315.62458      1019.2346      960.18531      0.99696118
   1657000  -323.95177      58.025303     -381.97707      308.98868     -2593.1151      960.18531      0.99696118
   1658000  -316.02946      50.680582     -366.71004      269.87754     -1031.3967      960.18531      0.99696118
   1659000  -320.8668       56.004769     -376.87157      298.2292      -61.07815       960.18531      0.99696118
   1660000  -314.30484      56.6521       -370.95694      301.67628     -3199.1586      960.18531      0.99696118
   1661000  -325.92166      55.129045     -381.0507       293.56591      1643.4735      960.18531      0.99696118
   1662000  -325.04591      54.469945     -379.51585      290.05615     -886.46162      960.18531      0.99696118
   1663000  -323.89191      54.30281      -378.19472      289.16615     -1699.9759      960.18531      0.99696118
   1664000  -328.04696      65.334951     -393.38191      347.91305      382.10913      960.18531      0.99696118
   1665000  -331.61514      62.694409     -394.30955      333.85198     -218.63572      960.18531      0.99696118
   1666000  -314.47958      52.961524     -367.4411       282.02371     -1588.1238      960.18531      0.99696118
   1667000  -310.67388      64.92901      -375.60289      345.75139      1953.8933      960.18531      0.99696118
   1668000  -318.37798      62.656926     -381.03491      333.65238     -1223.5726      960.18531      0.99696118
   1669000  -318.51069      56.414157     -374.92485      300.40922     -1308.4178      960.18531      0.99696118
   1670000  -328.4772       44.295534     -372.77274      235.87672     -1023.414       960.18531      0.99696118
   1671000  -305.05178      55.869982     -360.92176      297.51145     -1107.4309      960.18531      0.99696118
   1672000  -317.76091      57.097348     -374.85826      304.04725     -3442.8175      960.18531      0.99696118
   1673000  -322.93965      47.816259     -370.75591      254.62483     -961.68656      960.18531      0.99696118
   1674000  -323.37262      60.378091     -383.75071      321.51743      2549.0443      960.18531      0.99696118
   1675000  -323.97492      57.45448      -381.4294       305.94901     -2007.2328      960.18531      0.99696118
   1676000  -344.28171      54.036601     -398.31831      287.74857     -566.16575      960.18531      0.99696118
   1677000  -326.23369      58.592573     -384.82626      312.00943      2111.5865      960.18531      0.99696118
   1678000  -349.00267      60.063206     -409.06587      319.84065      289.05183      960.18531      0.99696118
   1679000  -325.13516      53.203022     -378.33819      283.3097       541.82479      960.18531      0.99696118
   1680000  -336.79001      61.324638     -398.11465      326.55786      134.89699      960.18531      0.99696118
   1681000  -338.13327      49.685254     -387.81852      264.57735      1447.6316      960.18531      0.99696118
   1682000  -333.08264      53.556905     -386.63955      285.19416      2943.3589      960.18531      0.99696118
   1683000  -328.7167       58.650321     -387.36702      312.31694      1901.7131      960.18531      0.99696118
   1684000  -326.95726      49.752579     -376.70984      264.93586     -532.83139      960.18531      0.99696118
   1685000  -325.45748      57.929475     -383.38695      308.47838     -873.01834      960.18531      0.99696118
   1686000  -329.38288      54.779204     -384.16209      291.70298     -3338.9093      960.18531      0.99696118
   1687000  -307.86016      63.022924     -370.88308      335.60135      2766.7681      960.18531      0.99696118
   1688000  -293.8132       66.337817     -360.15102      353.25338     -1026.6336      960.18531      0.99696118
   1689000  -306.57758      58.925409     -365.50299      313.78181     -1126.2556      960.18531      0.99696118
   1690000  -311.91049      56.535427     -368.44592      301.05499     -1158.2616      960.18531      0.99696118
   1691000  -308.90108      64.612841     -373.51392      344.06776     -1551.0176      960.18531      0.99696118
   1692000  -325.539        61.077826     -386.61683      325.24357     -1708.4667      960.18531      0.99696118
   1693000  -310.42509      64.424582     -374.84967      343.06527      814.64854      960.18531      0.99696118
   1694000  -312.79337      58.02485      -370.81822      308.98627      2315.5069      960.18531      0.99696118
   1695000  -333.65047      51.273837     -384.92431      273.03666     -877.08681      960.18531      0.99696118
   1696000  -318.89992      53.101329     -372.00125      282.76818      2368.3131      960.18531      0.99696118
   1697000  -337.71808      45.324332     -383.04242      241.35514      2214.4619      960.18531      0.99696118
   1698000  -323.40667      57.140221     -380.54689      304.27555      1594.3168      960.18531      0.99696118
   1699000  -328.51562      46.271653     -374.78727      246.39969      5098.7112      960.18531      0.99696118
   1700000  -331.64893      56.899065     -388.54799      302.99138     -2208.2274      960.18531      0.99696118
   1701000  -309.53869      67.099611     -376.6383       357.30998      4437.9895      960.18531      0.99696118
   1702000  -329.25172      52.399092     -381.65082      279.02872      4543.1338      960.18531      0.99696118
   1703000  -315.28012      64.482681     -379.7628       343.37466     -1618.3598      960.18531      0.99696118
   1704000  -333.17059      57.300981     -390.47157      305.13161     -1080.9768      960.18531      0.99696118
   1705000  -331.57113      53.012415     -384.58354      282.29471     -2222.2844      960.18531      0.99696118
   1706000  -306.76202      65.397303     -372.15932      348.24508      244.82964      960.18531      0.99696118
   1707000  -328.45118      59.409724     -387.8609       316.36081      1953.9837      960.18531      0.99696118
   1708000  -309.16474      67.976265     -377.14101      361.97823     -2893.9946      960.18531      0.99696118
   1709000  -315.3477       55.587495     -370.9352       296.00719     -208.49142      960.18531      0.99696118
   1710000  -314.12425      68.214402     -382.33865      363.24632      882.99253      960.18531      0.99696118
   1711000  -334.67499      47.415014     -382.09001      252.48817     -570.07039      960.18531      0.99696118
   1712000  -319.13132      57.205308     -376.33662      304.62215     -911.1132       960.18531      0.99696118
   1713000  -341.63437      44.977254     -386.61162      239.50693     -556.85765      960.18531      0.99696118
   1714000  -331.36687      56.717059     -388.08393      302.02219     -770.58731      960.18531      0.99696118
   1715000  -314.30963      55.911996     -370.22162      297.73517     -2172.5467      960.18531      0.99696118
   1716000  -317.37775      59.473983     -376.85173      316.703       -3116.0694      960.18531      0.99696118
   1717000  -304.63971      52.637458     -357.27717      280.29804     -2511.9679      960.18531      0.99696118
   1718000  -325.97881      51.16274      -377.14155      272.44507     -1958.3871      960.18531      0.99696118
   1719000  -315.23169      69.440409     -384.6721       369.77489     -705.83026      960.18531      0.99696118
   1720000  -319.2823       47.4249       -366.7072       252.54081     -2876.4371      960.18531      0.99696118
   1721000  -313.07038      64.174447     -377.24483      341.73328      2461.0326      960.18531      0.99696118
   1722000  -319.3181       57.173896     -376.492        304.45488      926.50687      960.18531      0.99696118
   1723000  -327.59705      54.30777      -381.90483      289.19256     -3283.2593      960.18531      0.99696118
   1724000  -326.12382      49.107004     -375.23083      261.49813      1755.712       960.18531      0.99696118
   1725000  -344.56108      47.429665     -391.99074      252.56619     -1094.7477      960.18531      0.99696118
   1726000  -341.29958      48.781145     -390.08073      259.76291     -5179.3025      960.18531      0.99696118
   1727000  -336.79646      49.350323     -386.14679      262.79382      2445.2814      960.18531      0.99696118
   1728000  -342.97327      57.407009     -400.38028      305.69622     -300.49428      960.18531      0.99696118
   1729000  -338.71334      53.708074     -392.42141      285.99914      3673.0818      960.18531      0.99696118
   1730000  -337.55209      53.996239     -391.54832      287.53364      7737.3201      960.18531      0.99696118
   1731000  -351.56755      48.752548     -400.3201       259.61063      2536.8471      960.18531      0.99696118
   1732000  -343.36699      45.493121     -388.86011      242.25396      2890.2732      960.18531      0.99696118
   1733000  -327.67791      64.301285     -391.97919      342.40871      1296.6739      960.18531      0.99696118
   1734000  -313.26936      55.002802     -368.27216      292.89366      4166.074       960.18531      0.99696118
   1735000  -341.46         47.924694     -389.38469      255.20225      2421.2217      960.18531      0.99696118
   1736000  -329.68083      45.832889     -375.51372      244.06324     -3937.6258      960.18531      0.99696118
   1737000  -335.38935      51.998966     -387.38832      276.89803     -791.81692      960.18531      0.99696118
   1738000  -342.52773      56.517084     -399.04482      300.95731      1395.5341      960.18531      0.99696118
   1739000  -328.7229       61.966399     -390.6893       329.97528     -1690.4538      960.18531      0.99696118
   1740000  -319.53281      63.824628     -383.35744      339.87048     -2757.5749      960.18531      0.99696118
   1741000  -328.64952      60.800553     -389.45007      323.76707      383.74729      960.18531      0.99696118
   1742000  -324.59955      55.077067     -379.67662      293.28912     -1095.8172      960.18531      0.99696118
   1743000  -326.59591      48.502424     -375.09833      258.2787       865.12596      960.18531      0.99696118
   1744000  -342.32514      43.462751     -385.78789      231.4421      -249.80684      960.18531      0.99696118
   1745000  -317.67375      58.702703     -376.37645      312.59588     -5290.025       960.18531      0.99696118
   1746000  -322.04549      51.161547     -373.20704      272.43871      966.76321      960.18531      0.99696118
   1747000  -319.944        48.280984     -368.22498      257.09952     -2685.4501      960.18531      0.99696118
   1748000  -331.63338      54.706261     -386.33965      291.31455      509.79407      960.18531      0.99696118
   1749000  -322.30949      57.295579     -379.60507      305.10285      329.78675      960.18531      0.99696118
   1750000  -334.03142      45.922785     -379.95421      244.54195      302.6223       960.18531      0.99696118
   1751000  -321.30513      58.745326     -380.05045      312.82285     -1242.4595      960.18531      0.99696118
   1752000  -326.38334      54.480903     -380.86425      290.11451     -4717.3197      960.18531      0.99696118
   1753000  -337.32463      48.160508     -385.48513      256.45798      1931.9332      960.18531      0.99696118
   1754000  -317.1653       56.387392     -373.55269      300.26669     -1755.6838      960.18531      0.99696118
   1755000  -328.01122      61.646878     -389.65809      328.27381      4758.6191      960.18531      0.99696118
   1756000  -333.27407      51.922661     -385.19673      276.49169     -101.42565      960.18531      0.99696118
   1757000  -304.58443      58.074684     -362.65911      309.25164     -101.05724      960.18531      0.99696118
   1758000  -325.29792      50.631265     -375.92919      269.61492      201.80057      960.18531      0.99696118
   1759000  -315.71776      51.880418     -367.59818      276.26675      1124.7485      960.18531      0.99696118
   1760000  -317.12693      55.98725      -373.11418      298.13591     -2633.3225      960.18531      0.99696118
   1761000  -324.04008      53.79867      -377.83875      286.48157     -3458.9168      960.18531      0.99696118
   1762000  -323.35071      62.320621     -385.67133      331.86154      1497.9512      960.18531      0.99696118
   1763000  -325.54585      60.164113     -385.70996      320.37799      1839.8771      960.18531      0.99696118
   1764000  -331.45112      49.469842     -380.92096      263.43027     -361.6275       960.18531      0.99696118
   1765000  -327.35301      51.433611     -378.78662      273.88747     -877.56402      960.18531      0.99696118
   1766000  -329.56216      51.851482     -381.41364      276.11266     -288.45077      960.18531      0.99696118
   1767000  -320.8511       59.834794     -380.68589      318.62434     -654.96292      960.18531      0.99696118
   1768000  -322.93162      56.906943     -379.83857      303.03333      2707.0948      960.18531      0.99696118
   1769000  -333.17198      47.404195     -380.57617      252.43055     -1091.7513      960.18531      0.99696118
   1770000  -326.06844      64.076714     -390.14515      341.21285      5237.1456      960.18531      0.99696118
   1771000  -307.13455      62.35668      -369.49123      332.05355      1266.0796      960.18531      0.99696118
   1772000  -330.114        46.155407     -376.2694       245.78068     -1381.6257      960.18531      0.99696118
   1773000  -311.44769      67.458464     -378.90615      359.2209      -1279.0296      960.18531      0.99696118
   1774000  -317.77454      49.072655     -366.8472       261.31522     -1902.4199      960.18531      0.99696118
   1775000  -330.51207      56.540463     -387.05253      301.0818       997.40098      960.18531      0.99696118
   1776000  -333.94013      55.833269     -389.7734       297.31595     -4370.0041      960.18531      0.99696118
   1777000  -314.10909      58.068747     -372.17784      309.22002     -1586.517       960.18531      0.99696118
   1778000  -335.11764      48.344545     -383.46218      257.43798     -379.88484      960.18531      0.99696118
   1779000  -312.12392      56.46591      -368.58983      300.6848       3957.3834      960.18531      0.99696118
   1780000  -321.79655      50.445797     -372.24234      268.62729     -3841.4836      960.18531      0.99696118
   1781000  -310.47827      54.456053     -364.93432      289.98218      4976.9589      960.18531      0.99696118
   1782000  -332.37425      53.676447     -386.0507       285.83072     -936.43733      960.18531      0.99696118
   1783000  -327.97152      60.010077     -387.9816       319.55773     -823.12156      960.18531      0.99696118
   1784000  -313.74957      57.624706     -371.37427      306.85547      2945.1646      960.18531      0.99696118
   1785000  -324.99349      53.470472     -378.46396      284.73389      3491.3661      960.18531      0.99696118
   1786000  -325.3066       53.649013     -378.95561      285.68463      557.47366      960.18531      0.99696118
   1787000  -322.05949      54.656796     -376.71629      291.05115     -1124.8568      960.18531      0.99696118
   1788000  -304.926        58.565865     -363.49187      311.86721      2418.1578      960.18531      0.99696118
   1789000  -337.20462      55.157889     -392.36251      293.7195       2716.4936      960.18531      0.99696118
   1790000  -321.10417      52.34355      -373.44772      278.73296     -3013.62        960.18531      0.99696118
   1791000  -310.41276      66.057814     -376.47057      351.76234     -1370.3211      960.18531      0.99696118
   1792000  -326.68884      59.425008     -386.11384      316.4422      -1393.7746      960.18531      0.99696118
   1793000  -319.95171      56.357875     -376.30958      300.10951     -1540.3117      960.18531      0.99696118
   1794000  -325.63259      61.609803     -387.2424       328.07638      396.99284      960.18531      0.99696118
   1795000  -335.2664       45.889385     -381.15578      244.36409      1710.0269      960.18531      0.99696118
   1796000  -339.93656      52.161132     -392.09769      277.76157     -2514.2919      960.18531      0.99696118
   1797000  -321.0282       62.039069     -383.06727      330.36226     -5409.1246      960.18531      0.99696118
   1798000  -319.97749      55.90536      -375.88285      297.69984      3800.5159      960.18531      0.99696118
   1799000  -315.94044      59.345582     -375.28603      316.01925     -6121.2975      960.18531      0.99696118
   1800000  -319.56467      59.825389     -379.39006      318.57426     -2508.3883      960.18531      0.99696118
   1801000  -345.93352      47.259255     -393.19277      251.65874      944.06262      960.18531      0.99696118
   1802000  -332.13737      44.030535     -376.16791      234.46559      3689.1958      960.18531      0.99696118
   1803000  -314.48834      63.765076     -378.25342      339.55336     -508.50371      960.18531      0.99696118
   1804000  -325.17367      54.292921     -379.4666       289.11349     -1777.4905      960.18531      0.99696118
   1805000  -315.46478      56.908372     -372.37315      303.04095      2428.9178      960.18531      0.99696118
   1806000  -325.52799      58.846255     -384.37424      313.3603      -3497.0471      960.18531      0.99696118
   1807000  -317.31236      49.90372      -367.21608      265.74069      2921.8559      960.18531      0.99696118
   1808000  -327.4083       53.036587     -380.44489      282.42342      911.63879      960.18531      0.99696118
   1809000  -327.91952      54.504817     -382.42434      290.24185      4765.7036      960.18531      0.99696118
   1810000  -324.10771      48.10842      -372.21613      256.1806       917.38763      960.18531      0.99696118
   1811000  -309.59623      56.953744     -366.54997      303.28255      2534.966       960.18531      0.99696118
   1812000  -320.75865      51.414805     -372.17346      273.78733     -2483.7854      960.18531      0.99696118
   1813000  -313.49623      59.700141     -373.19637      317.9073       4488.2497      960.18531      0.99696118
   1814000  -302.52098      70.491381     -373.01236      375.37139      4880.1645      960.18531      0.99696118
   1815000  -332.6873       49.660566     -382.34787      264.44589     -1341.5071      960.18531      0.99696118
   1816000  -309.85126      62.618842     -372.4701       333.44958      334.66686      960.18531      0.99696118
   1817000  -336.86149      53.13917      -390.00066      282.96969     -1447.5385      960.18531      0.99696118
   1818000  -319.63845      53.405306     -373.04376      284.38688     -3740.2284      960.18531      0.99696118
   1819000  -314.03037      53.422569     -367.45294      284.47881     -805.67569      960.18531      0.99696118
   1820000  -321.94921      53.332643     -375.28185      283.99994     -6064.5858      960.18531      0.99696118
   1821000  -336.78342      51.275478     -388.0589       273.0454      -394.75812      960.18531      0.99696118
   1822000  -326.15005      61.712933     -387.86299      328.62556     -3059.6848      960.18531      0.99696118
   1823000  -324.64066      60.627796     -385.26845      322.84713     -3556.0013      960.18531      0.99696118
   1824000  -319.18648      57.802367     -376.98884      307.80153      2599.3833      960.18531      0.99696118
   1825000  -327.41079      50.30182      -377.71261      267.86061     -1783.1767      960.18531      0.99696118
   1826000  -319.32928      57.752132     -377.08141      307.53402      474.03622      960.18531      0.99696118
   1827000  -327.08168      55.240303     -382.32198      294.15836      137.98518      960.18531      0.99696118
   1828000  -316.72296      51.442124     -368.16509      273.9328       786.86403      960.18531      0.99696118
   1829000  -324.19516      55.316375     -379.51153      294.56345     -4207.0273      960.18531      0.99696118
   1830000  -335.98587      45.830999     -381.81687      244.05318      2661.2353      960.18531      0.99696118
   1831000  -318.37124      54.16163      -372.53287      288.41436      2936.5807      960.18531      0.99696118
   1832000  -328.96939      63.17124      -392.14063      336.39114     -1588.1572      960.18531      0.99696118
   1833000  -313.27894      56.883813     -370.16275      302.91017      1095.7737      960.18531      0.99696118
   1834000  -306.39404      65.453689     -371.84773      348.54534      1368.5176      960.18531      0.99696118
   1835000  -330.13702      49.630812     -379.76783      264.28744     -366.82971      960.18531      0.99696118
   1836000  -328.04029      52.924983     -380.96528      281.82913      2142.9147      960.18531      0.99696118
   1837000  -342.13791      49.543562     -391.68147      263.82283     -1505.083       960.18531      0.99696118
   1838000  -337.60238      59.819065     -397.42145      318.54058     -834.90242      960.18531      0.99696118
   1839000  -325.08022      58.642064     -383.72228      312.27297      533.85546      960.18531      0.99696118
   1840000  -327.61243      52.268051     -379.88048      278.33092     -304.57097      960.18531      0.99696118
   1841000  -341.05177      50.542645     -391.59442      269.14302      755.20558      960.18531      0.99696118
   1842000  -324.63559      62.363996     -386.99959      332.09251     -2617.5723      960.18531      0.99696118
   1843000  -345.82936      48.836485     -394.66584      260.0576      -3552.0167      960.18531      0.99696118
   1844000  -317.8517       65.408254     -383.25996      348.30339      615.63126      960.18531      0.99696118
   1845000  -323.88428      55.498176     -379.38246      295.53156     -822.80992      960.18531      0.99696118
   1846000  -323.0235       51.562364     -374.58587      274.57309      1228.2562      960.18531      0.99696118
   1847000  -311.13312      58.701037     -369.83416      312.58701     -4956.5953      960.18531      0.99696118
   1848000  -329.75365      60.661317     -390.41497      323.02563      2374.4076      960.18531      0.99696118
   1849000  -342.95243      50.479747     -393.43218      268.80808     -3140.579       960.18531      0.99696118
   1850000  -316.30834      59.109319     -375.41766      314.76114     -4042.5503      960.18531      0.99696118
   1851000  -320.86302      52.229439     -373.09246      278.12531     -4149.4992      960.18531      0.99696118
   1852000  -328.21083      57.956213     -386.16704      308.62077      1334.5336      960.18531      0.99696118
   1853000  -308.31888      64.529335     -372.84821      343.62309      1155.4608      960.18531      0.99696118
   1854000  -325.904        53.670139     -379.57414      285.79713     -2638.7249      960.18531      0.99696118
   1855000  -323.92131      53.126751     -377.04806      282.90356     -1954.7636      960.18531      0.99696118
   1856000  -338.40388      50.938389     -389.34227      271.25038     -787.84692      960.18531      0.99696118
   1857000  -322.37172      53.667173     -376.03889      285.78134      4944.8916      960.18531      0.99696118
   1858000  -337.75588      59.905559     -397.66144      319.00117     -2437.8907      960.18531      0.99696118
   1859000  -329.6337       52.304989     -381.93869      278.52762     -1417.5133      960.18531      0.99696118
   1860000  -326.25708      57.57636      -383.83344      306.59802     -1269.9176      960.18531      0.99696118
   1861000  -333.53376      43.64349      -377.17725      232.40454     -1973.8177      960.18531      0.99696118
   1862000  -336.02985      46.899782     -382.92963      249.74452     -1098.6891      960.18531      0.99696118
   1863000  -317.83735      50.425656     -368.26301      268.52004      772.91154      960.18531      0.99696118
   1864000  -340.28354      45.841464     -386.12501      244.10891      722.76824      960.18531      0.99696118
   1865000  -324.27187      59.027958     -383.29983      314.32788     -3613.4841      960.18531      0.99696118
   1866000  -315.21867      53.172269     -368.39093      283.14594      1328.8838      960.18531      0.99696118
   1867000  -322.4667       63.548936     -386.01563      338.4024      -1099.3663      960.18531      0.99696118
   1868000  -314.04372      63.140057     -377.18378      336.22509      246.70716      960.18531      0.99696118
   1869000  -309.68525      54.018537     -363.70379      287.65237     -1140.4286      960.18531      0.99696118
   1870000  -324.63555      57.91407      -382.54962      308.39635     -776.01923      960.18531      0.99696118
   1871000  -323.41057      45.210961     -368.62153      240.75144     -310.1951       960.18531      0.99696118
   1872000  -317.3998       61.852186     -379.25198      329.36709      606.44228      960.18531      0.99696118
   1873000  -323.72034      59.861488     -383.58183      318.76649     -1162.6588      960.18531      0.99696118
   1874000  -326.20872      43.815785     -370.0245       233.32203     -3336.3011      960.18531      0.99696118
   1875000  -316.4076       56.831573     -373.23917      302.63198     -3456.803       960.18531      0.99696118
   1876000  -307.21046      58.103248     -365.3137       309.40374      1109.9118      960.18531      0.99696118
   1877000  -329.6024       51.109143     -380.71154      272.15965      837.91601      960.18531      0.99696118
   1878000  -311.43854      60.426393     -371.86493      321.77464     -892.87779      960.18531      0.99696118
   1879000  -322.83449      51.095228     -373.92971      272.08556     -430.81141      960.18531      0.99696118
   1880000  -314.86228      57.268431     -372.13072      304.95828     -4269.0562      960.18531      0.99696118
   1881000  -305.46251      71.719729     -377.18224      381.91243      1073.7935      960.18531      0.99696118
   1882000  -324.2514       60.232379     -384.48378      320.7415       2773.1502      960.18531      0.99696118
   1883000  -331.25145      56.607006     -387.85846      301.43615      1519.4996      960.18531      0.99696118
   1884000  -331.58544      55.281355     -386.86679      294.37697     -2866.9644      960.18531      0.99696118
   1885000  -322.0232       56.580346     -378.60354      301.29418      769.62287      960.18531      0.99696118
   1886000  -319.80001      69.952601     -389.75261      372.50235      87.729801      960.18531      0.99696118
   1887000  -320.42376      58.2068       -378.63056      309.95516     -4279.0547      960.18531      0.99696118
   1888000  -312.07908      62.576407     -374.65549      333.22362      213.43351      960.18531      0.99696118
   1889000  -332.1383       54.428904     -386.5672       289.83761      557.71511      960.18531      0.99696118
   1890000  -318.06901      57.477605     -375.54661      306.07215      1898.8542      960.18531      0.99696118
   1891000  -326.75406      54.97546      -381.72952      292.74806      216.40294      960.18531      0.99696118
   1892000  -333.83129      51.528423     -385.35972      274.39235     -1314.7774      960.18531      0.99696118
   1893000  -320.03882      60.617848     -380.65667      322.79416      1263.199       960.18531      0.99696118
   1894000  -314.67891      50.688317     -365.36723      269.91873      909.92875      960.18531      0.99696118
   1895000  -308.18217      62.084853     -370.26702      330.60606      2543.597       960.18531      0.99696118
   1896000  -330.63843      59.641889     -390.28032      317.59711     -3453.615       960.18531      0.99696118
   1897000  -308.73006      56.925963     -365.65603      303.13462     -4053.6384      960.18531      0.99696118
   1898000  -321.97607      62.152697     -384.12877      330.96733     -2433.645       960.18531      0.99696118
   1899000  -312.26175      62.698787     -374.96054      333.8753      -648.64326      960.18531      0.99696118
   1900000  -332.13412      59.928926     -392.06305      319.1256       391.76656      960.18531      0.99696118
   1901000  -315.85354      50.308065     -366.16161      267.89386     -1825.3272      960.18531      0.99696118
   1902000  -319.57828      53.982764     -373.56104      287.46188     -2916.3744      960.18531      0.99696118
   1903000  -321.01391      44.512693     -365.52661      237.03311      447.99438      960.18531      0.99696118
   1904000  -312.62381      57.060148     -369.68396      303.84916     -4291.206       960.18531      0.99696118
   1905000  -331.86887      52.016348     -383.88522      276.99059      3139.5749      960.18531      0.99696118
   1906000  -314.56394      62.786974     -377.35091      334.3449       1531.3616      960.18531      0.99696118
   1907000  -330.83639      50.244885     -381.08127      267.55742     -470.6022       960.18531      0.99696118
   1908000  -338.29916      47.784221     -386.08338      254.45422      286.27031      960.18531      0.99696118
   1909000  -343.01506      49.83548      -392.85054      265.37732     -2052.2532      960.18531      0.99696118
   1910000  -351.98888      48.230264     -400.21914      256.82943      1709.6569      960.18531      0.99696118
   1911000  -322.69676      51.364979     -374.06174      273.522        2234.747       960.18531      0.99696118
   1912000  -328.16389      61.460784     -389.62468      327.28285     -109.26068      960.18531      0.99696118
   1913000  -345.34182      59.513926     -404.85575      316.91569      945.6088       960.18531      0.99696118
   1914000  -358.78312      50.531016     -409.31413      269.08109      530.68687      960.18531      0.99696118
   1915000  -342.38248      54.294999     -396.67748      289.12455      5135.1473      960.18531      0.99696118
   1916000  -342.91222      53.537858     -396.45008      285.09273     -2708.1071      960.18531      0.99696118
   1917000  -328.58019      56.316283     -384.89647      299.88803     -401.27915      960.18531      0.99696118
   1918000  -327.58496      46.253487     -373.83845      246.30296     -1757.0818      960.18531      0.99696118
   1919000  -322.72269      57.420985     -380.14368      305.77064     -3727.2596      960.18531      0.99696118
   1920000  -334.23219      55.566398     -389.79859      295.89484     -251.44554      960.18531      0.99696118
   1921000  -320.03521      53.806536     -373.84175      286.52346      2176.4326      960.18531      0.99696118
   1922000  -328.00071      53.633631     -381.63434      285.60273     -2166.5082      960.18531      0.99696118
   1923000  -330.69316      61.419203     -392.11236      327.06143      3228.8616      960.18531      0.99696118
   1924000  -321.94556      51.440151     -373.38572      273.9223      -2289.4455      960.18531      0.99696118
   1925000  -324.01086      46.125363     -370.13622      245.62069     -69.348407      960.18531      0.99696118
   1926000  -319.76667      56.32111      -376.08778      299.91373     -5927.9286      960.18531      0.99696118
   1927000  -321.58751      55.507571     -377.09508      295.58158     -2616.1523      960.18531      0.99696118
   1928000  -312.19763      55.289426     -367.48706      294.41995     -639.79195      960.18531      0.99696118
   1929000  -325.7396       58.121856     -383.86145      309.50283     -2094.498       960.18531      0.99696118
   1930000  -315.38399      56.759118     -372.14311      302.24616     -498.84086      960.18531      0.99696118
   1931000  -316.44317      62.034216     -378.47739      330.33641     -126.52856      960.18531      0.99696118
   1932000  -307.74605      60.461269     -368.20732      321.96036      578.99664      960.18531      0.99696118
   1933000  -330.08254      46.440001     -376.52254      247.29616      352.69004      960.18531      0.99696118
   1934000  -300.29961      66.342549     -366.64216      353.27857     -5362.2731      960.18531      0.99696118
   1935000  -330.89456      53.671487     -384.56604      285.80431      19.459205      960.18531      0.99696118
   1936000  -322.16484      48.019188     -370.18403      255.70544     -899.11131      960.18531      0.99696118
   1937000  -319.06286      54.121963     -373.18482      288.20313     -2293.5579      960.18531      0.99696118
   1938000  -322.13132      60.495894     -382.62722      322.14474     -2111.0969      960.18531      0.99696118
   1939000  -329.88792      57.301976     -387.1899       305.13691      1389.6443      960.18531      0.99696118
   1940000  -338.86122      48.040521     -386.90174      255.81904     -1508.4453      960.18531      0.99696118
   1941000  -328.50715      57.507851     -386.015        306.23321     -170.31021      960.18531      0.99696118
   1942000  -342.3338       49.618661     -391.95247      264.22274     -1785.3868      960.18531      0.99696118
   1943000  -318.12383      58.904069     -377.0279       313.66817     -3223.7161      960.18531      0.99696118
   1944000  -331.98454      51.346371     -383.33091      273.42291      4118.9446      960.18531      0.99696118
   1945000  -311.02408      67.064551     -378.08863      357.12329      790.42383      960.18531      0.99696118
   1946000  -322.19021      48.81483      -371.00504      259.94228      1316.4269      960.18531      0.99696118
   1947000  -307.54573      58.008595     -365.55432      308.89971     -2880.9857      960.18531      0.99696118
   1948000  -323.54836      56.573705     -380.12207      301.25882      2381.5795      960.18531      0.99696118
   1949000  -332.6361       45.735885     -378.37199      243.54669      498.04863      960.18531      0.99696118
   1950000  -314.12562      59.951026     -374.07664      319.24328     -2239.7294      960.18531      0.99696118
   1951000  -332.75393      43.08917      -375.8431       229.45276     -490.88968      960.18531      0.99696118
   1952000  -322.04095      56.152933     -378.19389      299.01818     -2641.5341      960.18531      0.99696118
   1953000  -311.34472      61.740184     -373.08491      328.77067     -1763.1421      960.18531      0.99696118
   1954000  -312.01192      61.333438     -373.34536      326.60472     -2954.8567      960.18531      0.99696118
   1955000  -328.31442      53.973895     -382.28831      287.41466      1768.9357      960.18531      0.99696118
   1956000  -317.3508       54.929871     -372.28067      292.50529      862.48391      960.18531      0.99696118
   1957000  -318.9849       49.548186     -368.53308      263.84745     -1781.9253      960.18531      0.99696118
   1958000  -321.37906      59.118669     -380.49773      314.81093     -406.46073      960.18531      0.99696118
   1959000  -306.12845      68.495303     -374.62375      364.74214     -339.88961      960.18531      0.99696118
   1960000  -311.53964      53.005355     -364.54499      282.25711      131.09076      960.18531      0.99696118
   1961000  -309.76691      56.966131     -366.73304      303.34852     -388.47001      960.18531      0.99696118
   1962000  -320.66979      55.972161     -376.64195      298.05556     -3040.2674      960.18531      0.99696118
   1963000  -322.63552      67.962522     -390.59804      361.90504     -1341.8001      960.18531      0.99696118
   1964000  -315.61661      59.134672     -374.75128      314.89614     -783.43129      960.18531      0.99696118
   1965000  -312.93287      65.938875     -378.87174      351.12898     -4707.2683      960.18531      0.99696118
   1966000  -319.71355      60.655648     -380.3692       322.99544     -1200.698       960.18531      0.99696118
   1967000  -333.97829      37.255097     -371.23339      198.38592     -6131.0455      960.18531      0.99696118
   1968000  -321.01008      52.833627     -373.8437       281.34265     -2667.7753      960.18531      0.99696118
   1969000  -302.53639      53.688012     -356.22441      285.89231     -4399.0737      960.18531      0.99696118
   1970000  -309.59518      60.329348     -369.92453      321.25788     -4222.6943      960.18531      0.99696118
   1971000  -323.72637      49.448676     -373.17504      263.31756      1159.4771      960.18531      0.99696118
   1972000  -312.76793      61.560184     -374.32811      327.81216      523.36325      960.18531      0.99696118
   1973000  -326.14162      60.602549     -386.74417      322.71269      1435.8148      960.18531      0.99696118
   1974000  -310.73271      52.713393     -363.44611      280.7024       1640.5252      960.18531      0.99696118
   1975000  -314.44507      61.586459     -376.03153      327.95207      856.25133      960.18531      0.99696118
   1976000  -330.3404       56.598221     -386.93863      301.38937      3227.9245      960.18531      0.99696118
   1977000  -313.03186      60.514344     -373.5462       322.24299     -2419.1024      960.18531      0.99696118
   1978000  -317.42834      58.973033     -376.40137      314.0354      -2434.0357      960.18531      0.99696118
   1979000  -321.56037      56.734354     -378.29473      302.11429      1434.9667      960.18531      0.99696118
   1980000  -334.23892      49.638098     -383.87702      264.32624      1761.468       960.18531      0.99696118
   1981000  -329.51171      59.6922       -389.20391      317.86502     -2043.0128      960.18531      0.99696118
   1982000  -309.40963      63.346494     -372.75612      337.32438      3132.9305      960.18531      0.99696118
   1983000  -325.58704      56.838455     -382.4255       302.66863      651.02288      960.18531      0.99696118
   1984000  -316.20743      66.990381     -383.19781      356.72833     -1497.4995      960.18531      0.99696118
   1985000  -337.5097       53.920006     -391.4297       287.12769     -824.75471      960.18531      0.99696118
   1986000  -326.20406      63.753463     -389.95753      339.49152      2842.0941      960.18531      0.99696118
   1987000  -330.47955      54.121132     -384.60068      288.1987       350.49353      960.18531      0.99696118
   1988000  -318.4221       67.202074     -385.62417      357.85561      2104.8731      960.18531      0.99696118
   1989000  -353.2617       45.115218     -398.37692      240.2416      -1747.7596      960.18531      0.99696118
   1990000  -316.65943      48.951512     -365.61094      260.67012      674.04         960.18531      0.99696118
   1991000  -317.9678       55.451796     -373.4196       295.28458      2465.4528      960.18531      0.99696118
   1992000  -328.46075      61.779393     -390.24014      328.97946     -686.82501      960.18531      0.99696118
   1993000  -304.45463      62.584976     -367.03961      333.26924     -2181.9597      960.18531      0.99696118
   1994000  -326.87308      50.375597     -377.24868      268.25348     -2057.0187      960.18531      0.99696118
   1995000  -337.35945      46.4995       -383.85895      247.61299     -1355.075       960.18531      0.99696118
   1996000  -333.05225      50.078742     -383.13099      266.6727       1529.7712      960.18531      0.99696118
   1997000  -333.35041      55.240462     -388.59088      294.15921     -936.7927       960.18531      0.99696118
   1998000  -320.19813      53.520392     -373.71852      284.99972     -3985.0367      960.18531      0.99696118
   1999000  -343.97014      48.711591     -392.68173      259.39253     -5574.0111      960.18531      0.99696118
   2000000  -341.64181      47.064151     -388.70596      250.6198      -1472.5818      960.18531      0.99696118
   2001000  -330.56413      54.03576      -384.59989      287.74409      2842.8444      960.18531      0.99696118
   2002000  -324.18386      62.012538     -386.1964       330.22097      1897.0465      960.18531      0.99696118
   2003000  -318.05414      70.961311     -389.01545      377.8738      -196.53249      960.18531      0.99696118
   2004000  -339.11302      47.347908     -386.46093      252.13082     -988.88138      960.18531      0.99696118
   2005000  -320.98993      58.151363     -379.14129      309.65995     -1700.6921      960.18531      0.99696118
   2006000  -330.28834      51.094298     -381.38264      272.08061      2233.5535      960.18531      0.99696118
   2007000  -308.35189      58.472747     -366.82463      311.37135      2784.6392      960.18531      0.99696118
   2008000  -321.46867      62.511325     -383.97999      332.87705     -4557.4377      960.18531      0.99696118
   2009000  -322.89603      62.262092     -385.15812      331.54987      1894.1679      960.18531      0.99696118
   2010000  -336.31812      45.31005      -381.62817      241.27909     -603.10666      960.18531      0.99696118
   2011000  -321.659        53.005978     -374.66497      282.26043     -3616.1329      960.18531      0.99696118
   2012000  -323.45197      54.730555     -378.18252      291.44392     -3071.2194      960.18531      0.99696118
   2013000  -340.02151      43.559937     -383.58144      231.95962     -884.09362      960.18531      0.99696118
   2014000  -322.73049      52.992923     -375.72341      282.19091     -1278.4865      960.18531      0.99696118
   2015000  -328.0089       61.276409     -389.28531      326.30104      142.56373      960.18531      0.99696118
   2016000  -332.65207      52.328452     -384.98053      278.65256      915.42692      960.18531      0.99696118
   2017000  -325.02205      63.86233      -388.88438      340.07124     -2715.655       960.18531      0.99696118
   2018000  -314.86243      66.062918     -380.92535      351.78952      34.355988      960.18531      0.99696118
   2019000  -332.37847      51.711504     -384.08998      275.36727      957.4961       960.18531      0.99696118
   2020000  -316.42322      64.141619     -380.56484      341.55847     -259.244        960.18531      0.99696118
   2021000  -337.38657      53.215031     -390.6016       283.37365     -1380.1382      960.18531      0.99696118
   2022000  -333.78096      55.766613     -389.54757      296.961        3037.6586      960.18531      0.99696118
   2023000  -318.75327      50.999111     -369.75238      271.57373      5521.7969      960.18531      0.99696118
   2024000  -331.20357      59.590646     -390.79422      317.32423     -369.48596      960.18531      0.99696118
   2025000  -331.16601      48.737615     -379.90362      259.53111      23.997107      960.18531      0.99696118
   2026000  -314.62185      56.387244     -371.00909      300.2659      -543.24328      960.18531      0.99696118
   2027000  -313.92357      55.519884     -369.44345      295.64715      1282.0466      960.18531      0.99696118
   2028000  -324.88654      56.530881     -381.41742      301.03078      3503.0041      960.18531      0.99696118
   2029000  -338.6855       49.620191     -388.3057       264.23088      2527.3911      960.18531      0.99696118
   2030000  -334.89864      47.797185     -382.69583      254.52326     -3262.1605      960.18531      0.99696118
   2031000  -339.10135      47.769711     -386.87106      254.37696      1944.1127      960.18531      0.99696118
   2032000  -313.81259      65.139952     -378.95254      346.87467      2327.1435      960.18531      0.99696118
   2033000  -327.87603      59.20359      -387.07962      315.26314     -1347.1802      960.18531      0.99696118
   2034000  -341.53257      50.987747     -392.52032      271.51321     -622.02608      960.18531      0.99696118
   2035000  -324.29692      55.314543     -379.61146      294.5537       2931.2109      960.18531      0.99696118
   2036000  -312.97712      61.28734      -374.26446      326.35925      458.25917      960.18531      0.99696118
   2037000  -303.95618      59.392094     -363.34828      316.26693     -3018.2841      960.18531      0.99696118
   2038000  -328.0339       60.476324     -388.51023      322.04053     -5167.7115      960.18531      0.99696118
   2039000  -323.37148      54.196222     -377.5677       288.59856      1467.6631      960.18531      0.99696118
   2040000  -313.62324      56.326721     -369.94996      299.94361     -4976.2765      960.18531      0.99696118
   2041000  -306.28538      61.648408     -367.93379      328.28196     -1667.3742      960.18531      0.99696118
   2042000  -313.17621      51.154331     -364.33054      272.40029     -1872.3861      960.18531      0.99696118
   2043000  -304.74086      60.309105     -365.04996      321.15008      2905.7298      960.18531      0.99696118
   2044000  -320.55989      58.848117     -379.40801      313.37022      5102.6188      960.18531      0.99696118
   2045000  -331.57553      47.389023     -378.96455      252.34976     -4528.6834      960.18531      0.99696118
   2046000  -319.26803      59.271837     -378.53987      315.62655      1674.3473      960.18531      0.99696118
   2047000  -321.41424      56.795057     -378.2093       302.43753     -1976.863       960.18531      0.99696118
   2048000  -303.26389      59.195404     -362.4593       315.21954      2241.6802      960.18531      0.99696118
   2049000  -321.43467      61.275418     -382.71008      326.29576      1461.8162      960.18531      0.99696118
   2050000  -316.5357       55.063034     -371.59874      293.21439     -1195.4298      960.18531      0.99696118
   2051000  -335.18379      52.169406     -387.3532       277.80563      308.42807      960.18531      0.99696118
   2052000  -329.16724      65.089003     -394.25624      346.60336     -3009.2213      960.18531      0.99696118
   2053000  -316.73846      57.559932     -374.2984       306.51055     -403.43763      960.18531      0.99696118
   2054000  -315.82408      64.907819     -380.7319       345.63854     -3526.9318      960.18531      0.99696118
   2055000  -301.54026      61.446837     -362.9871       327.20858      1376.9215      960.18531      0.99696118
   2056000  -308.42557      54.454505     -362.88008      289.97393      2084.1355      960.18531      0.99696118
   2057000  -330.21162      49.301688     -379.5133       262.53483      3005.6188      960.18531      0.99696118
   2058000  -307.8452       60.654164     -368.49936      322.98754     -304.25888      960.18531      0.99696118
   2059000  -328.52279      53.678484     -382.20127      285.84157      3055.1942      960.18531      0.99696118
   2060000  -321.20877      53.152539     -374.36131      283.04088      1768.7277      960.18531      0.99696118
   2061000  -325.68116      51.188977     -376.87013      272.58478      2399.4152      960.18531      0.99696118
   2062000  -308.76883      62.250193     -371.01902      331.48651      1381.9118      960.18531      0.99696118
   2063000  -328.13479      50.604422     -378.73921      269.47198      4007.7572      960.18531      0.99696118
   2064000  -317.23428      69.974974     -387.20925      372.62148     -2159.5047      960.18531      0.99696118
   2065000  -305.86146      63.382836     -369.24429      337.5179      -128.90464      960.18531      0.99696118
   2066000  -331.86692      47.820984     -379.6879       254.64998     -2831.9741      960.18531      0.99696118
   2067000  -345.55424      49.137155     -394.69139      261.65868      1561.6582      960.18531      0.99696118
   2068000  -326.78825      58.604662     -385.39291      312.0738      -3288.132       960.18531      0.99696118
   2069000  -327.78016      54.958414     -382.73857      292.65728      1236.6355      960.18531      0.99696118
   2070000  -323.06905      52.458024     -375.52708      279.34254     -6633.8298      960.18531      0.99696118
   2071000  -328.48718      46.327496     -374.81467      246.69706     -2073.7755      960.18531      0.99696118
   2072000  -322.55763      57.327328     -379.88496      305.27191      988.07684      960.18531      0.99696118
   2073000  -320.57002      55.836881     -376.4069       297.33518      3244.3737      960.18531      0.99696118
   2074000  -346.23895      54.721604     -400.96055      291.39625     -1793.2907      960.18531      0.99696118
   2075000  -324.15115      53.477006     -377.62815      284.76869      3618.0732      960.18531      0.99696118
   2076000  -341.77454      46.040818     -387.81536      245.17048     -3636.6026      960.18531      0.99696118
   2077000  -325.11286      56.226756     -381.33962      299.41129      1788.5247      960.18531      0.99696118
   2078000  -316.50567      60.285172     -376.79084      321.02263     -3183.3717      960.18531      0.99696118
   2079000  -337.86949      44.284693     -382.15419      235.819       -3160.759       960.18531      0.99696118
   2080000  -324.54183      52.861309     -377.40314      281.49006      3215.3294      960.18531      0.99696118
   2081000  -316.72841      55.158376     -371.88679      293.7221      -850.40187      960.18531      0.99696118
   2082000  -313.62608      53.186058     -366.81214      283.21937      522.38143      960.18531      0.99696118
   2083000  -321.45545      48.112419     -369.56787      256.2019      -2595.8636      960.18531      0.99696118
   2084000  -313.13347      59.015994     -372.14946      314.26417     -1223.3183      960.18531      0.99696118
   2085000  -322.8348       68.263165     -391.09797      363.50599      1495.1811      960.18531      0.99696118
   2086000  -317.64187      58.21599      -375.85786      310.0041       3782.7729      960.18531      0.99696118
   2087000  -329.63366      52.043076     -381.67673      277.13291     -3264.615       960.18531      0.99696118
   2088000  -330.56935      52.844998     -383.41435      281.4032       1556.9646      960.18531      0.99696118
   2089000  -316.82823      61.628473     -378.4567       328.1758       1363.5782      960.18531      0.99696118
   2090000  -324.82051      57.668803     -382.48932      307.09029     -1359.5174      960.18531      0.99696118
   2091000  -314.34833      66.293898     -380.64222      353.01951     -2572.2324      960.18531      0.99696118
   2092000  -324.51329      49.005163     -373.51845      260.95582     -744.73221      960.18531      0.99696118
   2093000  -314.13535      54.906743     -369.04209      292.38213     -2367.8333      960.18531      0.99696118
   2094000  -333.48747      47.495178     -380.98265      252.91505      2776.9913      960.18531      0.99696118
   2095000  -312.97672      53.616884     -366.5936       285.51355      1076.9954      960.18531      0.99696118
   2096000  -303.95937      58.923015     -362.88239      313.76906     -3241.2423      960.18531      0.99696118
   2097000  -324.16148      48.625364     -372.78684      258.93336      309.23824      960.18531      0.99696118
   2098000  -328.90219      55.558166     -384.46036      295.851       -1596.903       960.18531      0.99696118
   2099000  -336.65039      49.241124     -385.89151      262.21233      1257.4789      960.18531      0.99696118
   2100000  -326.43409      55.041886     -381.47598      293.10178      1769.6254      960.18531      0.99696118
   2101000  -336.0469       53.740115     -389.78701      286.16976     -3404.181       960.18531      0.99696118
   2102000  -328.08527      58.156486     -386.24176      309.68724      2133.5002      960.18531      0.99696118
   2103000  -345.24177      39.176002     -384.41777      208.61487      508.68332      960.18531      0.99696118
   2104000  -321.02419      56.645609     -377.6698       301.64171     -3365.095       960.18531      0.99696118
   2105000  -314.45953      58.714147     -373.17368      312.65682     -1057.3647      960.18531      0.99696118
   2106000  -328.38068      61.957517     -390.3382       329.92798      1801.1691      960.18531      0.99696118
   2107000  -319.32347      59.79272      -379.11619      318.40029     -1291.582       960.18531      0.99696118
   2108000  -314.41592      61.771834     -376.18775      328.93921      2844.1093      960.18531      0.99696118
   2109000  -338.86305      50.120472     -388.98353      266.89491     -1369.1567      960.18531      0.99696118
   2110000  -339.784        50.310594     -390.09459      267.90733      1365.2673      960.18531      0.99696118
   2111000  -322.26018      60.411635     -382.67182      321.69606     -3750.2868      960.18531      0.99696118
   2112000  -318.98134      62.773565     -381.75491      334.2735      -3604.8401      960.18531      0.99696118
   2113000  -317.4371       47.924673     -365.36177      255.20214     -2838.0943      960.18531      0.99696118
   2114000  -307.35933      57.355881     -364.71521      305.42396     -1558.0844      960.18531      0.99696118
   2115000  -325.54869      58.228112     -383.7768       310.06865      164.85376      960.18531      0.99696118
   2116000  -323.08509      58.101005     -381.1861       309.3918      -976.21804      960.18531      0.99696118
   2117000  -311.62163      66.601704     -378.22334      354.65859      2262.9876      960.18531      0.99696118
   2118000  -332.6782       47.006592     -379.68479      250.31329      407.46403      960.18531      0.99696118
   2119000  -317.19819      61.053096     -378.25129      325.11188     -264.23017      960.18531      0.99696118
   2120000  -328.90958      54.28308      -383.19266      289.06108     -1187.339       960.18531      0.99696118
   2121000  -336.56957      53.094793     -389.66436      282.73338      1333.2049      960.18531      0.99696118
   2122000  -346.02694      46.163347     -392.19028      245.82296     -281.61385      960.18531      0.99696118
   2123000  -332.36573      53.942004     -386.30773      287.24483      201.03901      960.18531      0.99696118
   2124000  -329.39367      46.68717      -376.08084      248.61235     -1638.8044      960.18531      0.99696118
   2125000  -342.41894      56.19162      -398.61056      299.22419      137.05488      960.18531      0.99696118
   2126000  -316.80317      55.750438     -372.55361      296.87487      3445.0051      960.18531      0.99696118
   2127000  -317.82352      54.978698     -372.80222      292.7653       1522.4411      960.18531      0.99696118
   2128000  -326.2885       54.947042     -381.23554      292.59673      1721.1057      960.18531      0.99696118
   2129000  -328.05029      60.651475     -388.70177      322.97322     -6421.5358      960.18531      0.99696118
   2130000  -314.88737      59.355895     -374.24326      316.07417     -5.2900002      960.18531      0.99696118
   2131000  -318.00381      54.070168     -372.07398      287.92732     -1909.9417      960.18531      0.99696118
   2132000  -318.72631      57.538758     -376.26507      306.39779      3086.5337      960.18531      0.99696118
   2133000  -300.1049       53.923787     -354.02869      287.14782     -4468.012       960.18531      0.99696118
   2134000  -318.34823      63.70693      -382.05516      339.24373     -125.62748      960.18531      0.99696118
   2135000  -309.67979      68.275023     -377.95482      363.56913     -1773.5925      960.18531      0.99696118
   2136000  -311.61088      54.500134     -366.11101      290.21692     -1877.0355      960.18531      0.99696118
   2137000  -314.43801      55.809646     -370.24766      297.19015     -3357.6213      960.18531      0.99696118
   2138000  -316.26715      58.233206     -374.50036      310.09577      912.62963      960.18531      0.99696118
   2139000  -308.68597      60.35486      -369.04083      321.39373      1962.3981      960.18531      0.99696118
   2140000  -321.78412      54.213574     -375.99769      288.69096      2992.9688      960.18531      0.99696118
   2141000  -302.15261      63.663792     -365.8164       339.01402      2406.9689      960.18531      0.99696118
   2142000  -329.03677      53.673515     -382.71028      285.81511     -837.13189      960.18531      0.99696118
   2143000  -318.86829      57.49849      -376.36678      306.18336     -2072.8276      960.18531      0.99696118
   2144000  -307.45792      61.63744      -369.09536      328.22355     -4203.6751      960.18531      0.99696118
   2145000  -326.21599      56.218839     -382.43482      299.36913      441.94953      960.18531      0.99696118
   2146000  -328.4035       54.602727     -383.00622      290.76323      1994.6566      960.18531      0.99696118
   2147000  -321.66903      60.863755     -382.53278      324.10363      1093.4263      960.18531      0.99696118
   2148000  -338.22632      53.824294     -392.05062      286.61802      2366.3744      960.18531      0.99696118
   2149000  -297.39343      60.194361     -357.58779      320.53906     -1496.5251      960.18531      0.99696118
   2150000  -316.45176      58.290268     -374.74203      310.39963     -766.77133      960.18531      0.99696118
   2151000  -323.58739      64.851958     -388.43935      345.34108     -3969.6016      960.18531      0.99696118
   2152000  -332.78291      56.284473     -389.06738      299.71864     -48.783431      960.18531      0.99696118
   2153000  -315.14788      61.396356     -376.54423      326.93976     -1861.1834      960.18531      0.99696118
   2154000  -323.14424      62.821386     -385.96562      334.52815     -947.12349      960.18531      0.99696118
   2155000  -339.21752      52.384209     -391.60173      278.94947      972.72344      960.18531      0.99696118
   2156000  -338.59264      53.540783     -392.13342      285.10831     -1001.1994      960.18531      0.99696118
   2157000  -330.49116      51.823674     -382.31484      275.96458      1415.0769      960.18531      0.99696118
   2158000  -315.26365      51.027528     -366.29118      271.72505      1752.5529      960.18531      0.99696118
   2159000  -319.05744      61.727185     -380.78462      328.70145      918.25938      960.18531      0.99696118
   2160000  -320.82862      55.990908     -376.81953      298.15538     -2460.6341      960.18531      0.99696118
   2161000  -323.18715      55.073645     -378.2608       293.2709       6181.4822      960.18531      0.99696118
   2162000  -317.09968      55.417324     -372.51701      295.10101     -1243.4739      960.18531      0.99696118
   2163000  -330.54918      52.111319     -382.6605       277.49631      2553.9475      960.18531      0.99696118
   2164000  -345.10256      48.92025      -394.02281      260.50365     -3433.2148      960.18531      0.99696118
   2165000  -324.56204      52.871782     -377.43383      281.54583     -144.37196      960.18531      0.99696118
   2166000  -334.72602      48.679137     -383.40516      259.21971      43.839236      960.18531      0.99696118
   2167000  -331.26498      60.371811     -391.6368       321.48399      144.41408      960.18531      0.99696118
   2168000  -309.39836      65.058873     -374.45723      346.44292     -1434.4824      960.18531      0.99696118
   2169000  -315.05534      55.391358     -370.44669      294.96274      509.01979      960.18531      0.99696118
   2170000  -313.42142      54.748839     -368.17026      291.54128     -1225.0915      960.18531      0.99696118
   2171000  -318.67409      54.44965      -373.12374      289.94808      6617.634       960.18531      0.99696118
   2172000  -326.93783      52.959488     -379.89732      282.01287     -459.4763       960.18531      0.99696118
   2173000  -328.35418      59.370951     -387.72513      316.15435      300.33243      960.18531      0.99696118
   2174000  -306.52707      54.244647     -360.77171      288.85643      1606.4125      960.18531      0.99696118
   2175000  -303.20951      60.284128     -363.49364      321.01707     -1714.8825      960.18531      0.99696118
   2176000  -314.40618      47.532628     -361.93881      253.11447     -101.02519      960.18531      0.99696118
   2177000  -320.92159      57.894956     -378.81655      308.29457     -1323.4657      960.18531      0.99696118
   2178000  -322.76661      54.571779     -377.33839      290.59843     -3342.9235      960.18531      0.99696118
   2179000  -315.67258      61.818229     -377.49081      329.18626     -815.49098      960.18531      0.99696118
   2180000  -325.40519      53.554808     -378.96         285.18299     -1233.1642      960.18531      0.99696118
   2181000  -324.97882      51.886224     -376.86504      276.29766     -409.32175      960.18531      0.99696118
   2182000  -320.22739      58.862902     -379.09029      313.44895     -855.88015      960.18531      0.99696118
   2183000  -325.72206      55.412828     -381.13488      295.07707     -686.43628      960.18531      0.99696118
   2184000  -331.86561      52.38076      -384.24637      278.9311       2025.1123      960.18531      0.99696118
   2185000  -331.00565      55.137301     -386.14296      293.60987     -704.27763      960.18531      0.99696118
   2186000  -323.61971      66.460197     -390.07991      353.90506      3374.7531      960.18531      0.99696118
   2187000  -312.82351      62.242207     -375.06572      331.44398      74.654062      960.18531      0.99696118
   2188000  -335.36922      56.209576     -391.5788       299.31981     -1782.9997      960.18531      0.99696118
   2189000  -322.74996      55.478868     -378.22883      295.42874     -2200.4663      960.18531      0.99696118
   2190000  -331.41343      59.568744     -390.98217      317.20761     -904.14043      960.18531      0.99696118
   2191000  -325.83689      61.028315     -386.86521      324.97992      1427.0773      960.18531      0.99696118
   2192000  -316.23422      57.184781     -373.419        304.51284     -184.09912      960.18531      0.99696118
   2193000  -321.22756      45.038331     -366.2659       239.83217     -1337.0606      960.18531      0.99696118
   2194000  -313.26104      55.440296     -368.70134      295.22334      2142.6854      960.18531      0.99696118
   2195000  -325.49846      60.710751     -386.20921      323.28887      42.944404      960.18531      0.99696118
   2196000  -315.70311      54.014863     -369.71797      287.63281      565.75939      960.18531      0.99696118
   2197000  -310.30832      58.344802     -368.65312      310.69003     -159.7079       960.18531      0.99696118
   2198000  -324.99553      52.744111     -377.73964      280.86597     -891.12395      960.18531      0.99696118
   2199000  -328.57324      55.330245     -383.90349      294.63731     -2625.9171      960.18531      0.99696118
   2200000  -313.63966      55.044629     -368.68429      293.11639      1227.4504      960.18531      0.99696118
   2201000  -321.71789      50.741194     -372.45908      270.2003      -1054.6829      960.18531      0.99696118
   2202000  -316.01503      55.264868     -371.2799       294.28918     -391.81509      960.18531      0.99696118
   2203000  -325.25024      55.0598       -380.31004      293.19717     -3068.6855      960.18531      0.99696118
   2204000  -321.89339      60.266761     -382.16016      320.9246       2193.7949      960.18531      0.99696118
   2205000  -320.09793      62.336706     -382.43464      331.94719     -422.52244      960.18531      0.99696118
   2206000  -334.14088      46.433262     -380.57414      247.26027     -113.87218      960.18531      0.99696118
   2207000  -311.70188      64.646271     -376.34815      344.24578     -3055.4408      960.18531      0.99696118
   2208000  -324.44783      50.227939     -374.67577      267.46719     -1522.8595      960.18531      0.99696118
   2209000  -322.75012      52.496962     -375.24708      279.54988     -2659.2754      960.18531      0.99696118
   2210000  -323.33427      57.948196     -381.28247      308.57808     -1201.7555      960.18531      0.99696118
   2211000  -326.19879      54.620865     -380.81965      290.85981     -280.01977      960.18531      0.99696118
   2212000  -326.73257      57.279051     -384.01162      305.01483     -4133.3675      960.18531      0.99696118
   2213000  -318.27734      55.862153     -374.13949      297.46976     -1143.7235      960.18531      0.99696118
   2214000  -322.44073      55.291161     -377.73189      294.42919     -2114.2928      960.18531      0.99696118
   2215000  -329.66724      43.827274     -373.49451      233.38321     -1899.9423      960.18531      0.99696118
   2216000  -334.12062      44.216519     -378.33714      235.45597     -1921.2338      960.18531      0.99696118
   2217000  -322.89158      52.904801     -375.79638      281.72166     -936.93294      960.18531      0.99696118
   2218000  -329.5657       54.943757     -384.50946      292.57923     -82.646023      960.18531      0.99696118
   2219000  -323.27273      60.625881     -383.89861      322.83693      1484.7025      960.18531      0.99696118
   2220000  -314.99442      57.813455     -372.80787      307.86058      342.21055      960.18531      0.99696118
   2221000  -315.03743      57.690826     -372.72825      307.20757     -690.00585      960.18531      0.99696118
   2222000  -329.51267      52.386294     -381.89896      278.96057     -1717.4533      960.18531      0.99696118
   2223000  -341.90388      47.423064     -389.32695      252.53104     -761.07842      960.18531      0.99696118
   2224000  -337.42354      58.092405     -395.51594      309.346        1197.2929      960.18531      0.99696118
   2225000  -310.00767      69.084044     -379.09171      367.87723      2370.7718      960.18531      0.99696118
   2226000  -335.59946      54.424902     -390.02436      289.8163      -2155.989       960.18531      0.99696118
   2227000  -327.68752      59.966996     -387.65452      319.32832     -348.65887      960.18531      0.99696118
   2228000  -328.41763      61.843921     -390.26155      329.32308     -1319.3943      960.18531      0.99696118
   2229000  -324.42317      62.351293     -386.77447      332.02487     -3459.4732      960.18531      0.99696118
   2230000  -330.70122      45.246902     -375.94813      240.94282     -2704.5018      960.18531      0.99696118
   2231000  -308.04214      68.138581     -376.18072      362.84257      2476.3942      960.18531      0.99696118
   2232000  -328.0807       56.572119     -384.65282      301.25037     -1751.9958      960.18531      0.99696118
   2233000  -317.05936      52.918961     -369.97833      281.79706      2347.1119      960.18531      0.99696118
   2234000  -307.31695      65.549472     -372.86643      349.05539     -1315.9488      960.18531      0.99696118
   2235000  -316.58316      53.677966     -370.26112      285.83882     -4481.7365      960.18531      0.99696118
   2236000  -315.95483      58.115984     -374.07081      309.47156      149.04439      960.18531      0.99696118
   2237000  -336.10831      52.769755     -388.87807      281.00253      631.79447      960.18531      0.99696118
   2238000  -315.86946      54.245007     -370.11447      288.85834     -413.93751      960.18531      0.99696118
   2239000  -323.50476      61.817377     -385.32214      329.18173      2021.0711      960.18531      0.99696118
   2240000  -336.93197      56.143758     -393.07573      298.96932     -2319.5513      960.18531      0.99696118
   2241000  -335.32146      51.860434     -387.18189      276.16033     -1892.8335      960.18531      0.99696118
   2242000  -336.1773       54.563355     -390.74066      290.55357      1476.139       960.18531      0.99696118
   2243000  -325.36975      51.835442     -377.2052       276.02725      3597.6569      960.18531      0.99696118
   2244000  -317.8789       62.970014     -380.84891      335.3196       2752.95        960.18531      0.99696118
   2245000  -299.21641      69.181616     -368.39802      368.3968       248.30197      960.18531      0.99696118
   2246000  -320.62974      55.250597     -375.88034      294.21318     -1215.6938      960.18531      0.99696118
   2247000  -320.77892      53.377608     -374.15653      284.23939      585.62845      960.18531      0.99696118
   2248000  -326.01766      49.961818     -375.97948      266.05007     -632.61287      960.18531      0.99696118
   2249000  -319.74867      64.574076     -384.32274      343.86134     -1737.6174      960.18531      0.99696118
   2250000  -304.80543      51.774293     -356.57972      275.70163     -1629.8445      960.18531      0.99696118
   2251000  -325.95109      51.591758     -377.54285      274.72961     -2139.0155      960.18531      0.99696118
   2252000  -340.60121      53.000721     -393.60193      282.23244      720.77882      960.18531      0.99696118
   2253000  -318.52513      56.555263     -375.0804       301.16061     -753.08525      960.18531      0.99696118
   2254000  -324.78857      55.438833     -380.2274       295.21555     -1196.3446      960.18531      0.99696118
   2255000  -318.44291      62.869286     -381.31219      334.78321      367.77286      960.18531      0.99696118
   2256000  -312.18915      53.009688     -365.19884      282.28018      1521.8701      960.18531      0.99696118
   2257000  -327.02993      63.479328     -390.50926      338.03173     -1944.8124      960.18531      0.99696118
   2258000  -313.84141      59.397353     -373.23876      316.29494     -558.77343      960.18531      0.99696118
   2259000  -315.76978      62.227018     -377.99679      331.3631      -2206.6923      960.18531      0.99696118
   2260000  -322.22998      71.209649     -393.43963      379.19621     -341.8683       960.18531      0.99696118
   2261000  -334.55126      51.782606     -386.33387      275.74589     -4140.5648      960.18531      0.99696118
   2262000  -326.90731      64.039901     -390.94721      341.01682     -1729.0399      960.18531      0.99696118
   2263000  -307.35938      58.17482      -365.5342       309.78487     -890.35537      960.18531      0.99696118
   2264000  -291.22318      66.718524     -357.94171      355.28067      3824.567       960.18531      0.99696118
   2265000  -308.62143      58.622952     -367.24438      312.1712       1252.7792      960.18531      0.99696118
   2266000  -326.06786      60.074529     -386.14239      319.90095      952.79013      960.18531      0.99696118
   2267000  -338.47317      50.563873     -389.03704      269.25606     -1674.7221      960.18531      0.99696118
   2268000  -314.26728      56.20473      -370.47201      299.294       -835.44006      960.18531      0.99696118
   2269000  -341.7094       50.342061     -392.05146      268.07489     -1359.2905      960.18531      0.99696118
   2270000  -321.40655      58.081616     -379.48817      309.28855      4.3116182      960.18531      0.99696118
   2271000  -327.42457      55.798032     -383.2226       297.12831      136.6847       960.18531      0.99696118
   2272000  -316.38743      54.888575     -371.27601      292.28539      1924.3457      960.18531      0.99696118
   2273000  -316.98664      58.768544     -375.75518      312.94649      322.35831      960.18531      0.99696118
   2274000  -315.29524      53.159186     -368.45443      283.07627     -1705.4521      960.18531      0.99696118
   2275000  -321.20721      56.981665     -378.18887      303.43123      570.21246      960.18531      0.99696118
   2276000  -328.52464      54.149559     -382.6742       288.35008      1298.6011      960.18531      0.99696118
   2277000  -333.12501      56.678244     -389.80325      301.8155      -2607.7558      960.18531      0.99696118
   2278000  -324.90862      49.084003     -373.99262      261.37565     -2645.8256      960.18531      0.99696118
   2279000  -325.57273      58.224073     -383.7968       310.04714     -2730.1767      960.18531      0.99696118
   2280000  -321.06199      51.226821     -372.28881      272.7863      -3927.5865      960.18531      0.99696118
   2281000  -313.39654      58.673428     -372.06997      312.43999      880.65629      960.18531      0.99696118
   2282000  -316.40131      53.215112     -369.61642      283.37408     -1364.8886      960.18531      0.99696118
   2283000  -315.05249      52.17996      -367.23245      277.86183     -2811.0127      960.18531      0.99696118
   2284000  -296.43032      62.726824     -359.15714      334.0246       7499.1753      960.18531      0.99696118
   2285000  -312.74273      53.246426     -365.98916      283.54083     -3121.6601      960.18531      0.99696118
   2286000  -322.29488      61.763315     -384.05819      328.89385      489.67726      960.18531      0.99696118
   2287000  -309.86981      63.603237     -373.47305      338.69155     -3753.0205      960.18531      0.99696118
   2288000  -310.41962      55.384104     -365.80373      294.92411      860.44258      960.18531      0.99696118
   2289000  -327.48619      52.471486     -379.95768      279.41423     -1667.1224      960.18531      0.99696118
   2290000  -328.10777      57.117795     -385.22557      304.15614     -1164.2916      960.18531      0.99696118
   2291000  -313.76324      62.077531     -375.84077      330.56707      332.96078      960.18531      0.99696118
   2292000  -308.18304      65.784412     -373.96745      350.30646      1687.9571      960.18531      0.99696118
   2293000  -326.44005      59.359924     -385.79997      316.09563     -1869.73        960.18531      0.99696118
   2294000  -312.44476      60.396315     -372.84108      321.61448      3645.4307      960.18531      0.99696118
   2295000  -330.2248       49.161255     -379.38605      261.78702     -86.955924      960.18531      0.99696118
   2296000  -309.1855       62.080387     -371.26589      330.58227     -236.69081      960.18531      0.99696118
   2297000  -338.26784      57.118807     -395.38665      304.16153     -35.747504      960.18531      0.99696118
   2298000  -332.02093      60.298752     -392.31968      321.09495     -797.80512      960.18531      0.99696118
   2299000  -326.34567      62.404495     -388.75016      332.30817      695.1391       960.18531      0.99696118
   2300000  -319.14663      62.852185     -381.99882      334.69215      161.33746      960.18531      0.99696118
   2301000  -323.68327      56.533986     -380.21726      301.04732     -149.53536      960.18531      0.99696118
   2302000  -322.83589      56.131128     -378.96702      298.90207     -682.70272      960.18531      0.99696118
   2303000  -327.22144      60.885016     -388.10645      324.21685      1796.0015      960.18531      0.99696118
   2304000  -299.21159      63.046195     -362.25779      335.72527      1849.9238      960.18531      0.99696118
   2305000  -320.26114      60.487425     -380.74857      322.09965      2122.8708      960.18531      0.99696118
   2306000  -308.37648      56.520004     -364.89648      300.97286     -1153.7631      960.18531      0.99696118
   2307000  -314.87722      56.390882     -371.2681       300.28528      7084.9156      960.18531      0.99696118
   2308000  -334.89651      55.595186     -390.49169      296.04814      769.80457      960.18531      0.99696118
   2309000  -332.62295      52.085158     -384.70811      277.357       -901.81847      960.18531      0.99696118
   2310000  -325.66473      51.84469      -377.50942      276.07649     -2402.2882      960.18531      0.99696118
   2311000  -320.65874      61.33436      -381.9931       326.60963     -236.62417      960.18531      0.99696118
   2312000  -326.55987      52.49208      -379.05195      279.52389     -833.13376      960.18531      0.99696118
   2313000  -307.52969      63.264467     -370.79416      336.88758      627.84494      960.18531      0.99696118
   2314000  -319.41642      51.452837     -370.86926      273.98985     -880.66807      960.18531      0.99696118
   2315000  -321.92284      46.745991     -368.66883      248.92558      2117.1959      960.18531      0.99696118
   2316000  -307.93242      62.946606     -370.87903      335.19495     -1368.0473      960.18531      0.99696118
   2317000  -315.4496       65.937221     -381.38682      351.12018      204.9971       960.18531      0.99696118
   2318000  -315.43621      58.192028     -373.62824      309.8765       623.78785      960.18531      0.99696118
   2319000  -323.13969      54.39358      -377.53327      289.64951     -2239.7057      960.18531      0.99696118
   2320000  -331.45624      49.011299     -380.46754      260.98849     -532.57547      960.18531      0.99696118
   2321000  -328.77909      51.968532     -380.74762      276.73596     -1848.6109      960.18531      0.99696118
   2322000  -332.52636      57.093838     -389.6202       304.02856     -1755.9792      960.18531      0.99696118
   2323000  -336.54822      61.855382     -398.4036       329.38411      2920.8924      960.18531      0.99696118
   2324000  -331.37176      57.262959     -388.63472      304.92915      2999.7927      960.18531      0.99696118
   2325000  -326.50463      56.008962     -382.51359      298.25152     -5533.1191      960.18531      0.99696118
   2326000  -318.89924      64.649842     -383.54908      344.2648       384.92414      960.18531      0.99696118
   2327000  -324.07342      53.471197     -377.54462      284.73775     -552.07834      960.18531      0.99696118
   2328000  -333.65792      57.020472     -390.67839      303.63788     -195.31378      960.18531      0.99696118
   2329000  -324.92025      59.010805     -383.93105      314.23654      333.03561      960.18531      0.99696118
   2330000  -327.91917      53.074945     -380.99412      282.62769      1581.4945      960.18531      0.99696118
   2331000  -318.60407      53.80842      -372.41249      286.53349      5.9306489      960.18531      0.99696118
   2332000  -310.36304      62.269868     -372.63291      331.59128      3741.3191      960.18531      0.99696118
   2333000  -320.81257      61.594729     -382.4073       327.99611     -1522.7424      960.18531      0.99696118
   2334000  -338.00933      45.810386     -383.81971      243.94341      1161.721       960.18531      0.99696118
   2335000  -324.68734      47.495163     -372.1825       252.91497      8.5986855      960.18531      0.99696118
   2336000  -309.89091      63.595952     -373.48686      338.65276     -1850.6414      960.18531      0.99696118
   2337000  -333.8357       55.624881     -389.46059      296.20627      2067.8575      960.18531      0.99696118
   2338000  -329.70073      55.733329     -385.43406      296.78376     -116.73803      960.18531      0.99696118
   2339000  -310.11828      58.488054     -368.60634      311.45286      4954.3417      960.18531      0.99696118
   2340000  -332.01472      52.200744     -384.21547      277.9725       1093.324       960.18531      0.99696118
   2341000  -321.69534      54.755779     -376.45112      291.57824     -5599.5336      960.18531      0.99696118
   2342000  -316.98602      60.298013     -377.28403      321.09101     -3613.5739      960.18531      0.99696118
   2343000  -327.35047      57.247025     -384.59749      304.84429     -303.73241      960.18531      0.99696118
   2344000  -324.17388      55.144854     -379.31873      293.65009      398.56053      960.18531      0.99696118
   2345000  -315.33513      66.406318     -381.74145      353.61815     -105.57349      960.18531      0.99696118
   2346000  -335.28695      57.458987     -392.74594      305.97301     -1163.8298      960.18531      0.99696118
   2347000  -317.14416      60.659677     -377.80383      323.0169       4164.9337      960.18531      0.99696118
   2348000  -322.27366      64.613785     -386.88744      344.07279      1082.1199      960.18531      0.99696118
   2349000  -314.77464      58.395057     -373.1697       310.95764      3648.6952      960.18531      0.99696118
   2350000  -328.16857      62.441744     -390.61031      332.50653     -3512.3008      960.18531      0.99696118
   2351000  -304.30631      58.349948     -362.65626      310.71744      1800.8946      960.18531      0.99696118
   2352000  -307.38711      61.44712      -368.83423      327.21008      186.72977      960.18531      0.99696118
   2353000  -328.63944      54.348224     -382.98767      289.40798      1731.5775      960.18531      0.99696118
   2354000  -327.44158      53.60563      -381.04721      285.45362      303.49639      960.18531      0.99696118
   2355000  -317.98884      52.494981     -370.48382      279.53934     -314.2474       960.18531      0.99696118
   2356000  -346.94208      56.47948      -403.42156      300.75706     -502.97803      960.18531      0.99696118
   2357000  -317.54058      69.391904     -386.93248      369.5166       464.74445      960.18531      0.99696118
   2358000  -305.19441      72.147018     -377.34143      384.18777      202.95263      960.18531      0.99696118
   2359000  -345.26145      46.959151     -392.2206       250.06066      603.60198      960.18531      0.99696118
   2360000  -322.52482      56.326583     -378.85141      299.94288     -1892.5854      960.18531      0.99696118
   2361000  -312.53276      61.431105     -373.96386      327.1248       1110.8087      960.18531      0.99696118
   2362000  -331.67427      51.18293      -382.8572       272.55258      1823.0965      960.18531      0.99696118
   2363000  -302.4057       59.972664     -362.37836      319.35851     -47.118176      960.18531      0.99696118
   2364000  -303.1171       60.237073     -363.35417      320.7665       217.6286       960.18531      0.99696118
   2365000  -325.18452      58.544704     -383.72922      311.75452     -2808.2852      960.18531      0.99696118
   2366000  -314.26586      57.108134     -371.374        304.10469     -12.772133      960.18531      0.99696118
   2367000  -300.57436      65.076842     -365.6512       346.5386      -415.59914      960.18531      0.99696118
   2368000  -329.58099      48.951899     -378.53289      260.67219      1971.5657      960.18531      0.99696118
   2369000  -329.25856      60.057764     -389.31632      319.81167     -3697.1786      960.18531      0.99696118
   2370000  -303.5099       58.745801     -362.2557       312.82538      1628.0032      960.18531      0.99696118
   2371000  -319.10868      57.727059     -376.83574      307.40051     -1407.9242      960.18531      0.99696118
   2372000  -327.24542      59.253348     -386.49877      315.5281      -728.30985      960.18531      0.99696118
   2373000  -303.35206      58.933382     -362.28544      313.82426      2268.2353      960.18531      0.99696118
   2374000  -335.6948       55.806897     -391.5017       297.17551      5365.9191      960.18531      0.99696118
   2375000  -347.33923      45.661184     -393.00041      243.14891     -2043.2348      960.18531      0.99696118
   2376000  -323.14672      56.799483     -379.9462       302.4611       2462.7897      960.18531      0.99696118
   2377000  -325.95237      62.582593     -388.53496      333.25656      729.07508      960.18531      0.99696118
   2378000  -320.63065      55.053666     -375.68432      293.16451     -3557.5478      960.18531      0.99696118
   2379000  -336.38547      50.50533      -386.8908       268.94431     -2520.0407      960.18531      0.99696118
   2380000  -336.55477      51.231321     -387.78609      272.81026     -446.00908      960.18531      0.99696118
   2381000  -343.00522      44.597789     -387.603        237.48625      714.01279      960.18531      0.99696118
   2382000  -330.12853      51.217063     -381.34559      272.73434      1060.4137      960.18531      0.99696118
   2383000  -309.4174       60.238985     -369.65638      320.77669      2064.1508      960.18531      0.99696118
   2384000  -321.16192      58.746663     -379.90858      312.82997     -2814.3088      960.18531      0.99696118
   2385000  -315.08731      55.484009     -370.57132      295.45611     -4528.1021      960.18531      0.99696118
   2386000  -326.58228      48.998794     -375.58108      260.9219      -1295.8569      960.18531      0.99696118
   2387000  -325.41499      57.264691     -382.67968      304.93837      27.310417      960.18531      0.99696118
   2388000  -305.71791      61.792353     -367.51027      329.04847      181.68178      960.18531      0.99696118
   2389000  -330.43347      59.367126     -389.8006       316.13398      7513.0404      960.18531      0.99696118
   2390000  -316.16864      65.572599     -381.74123      349.17854     -1542.7485      960.18531      0.99696118
   2391000  -332.7854       52.343912     -385.12932      278.73489     -657.776        960.18531      0.99696118
   2392000  -326.53111      57.185863     -383.71697      304.5186      -408.6034       960.18531      0.99696118
   2393000  -334.40067      57.518236     -391.9189       306.28851      1908.5103      960.18531      0.99696118
   2394000  -329.88934      52.754937     -382.64428      280.92362      1596.4641      960.18531      0.99696118
   2395000  -318.08672      56.676491     -374.76322      301.80616     -1276.3147      960.18531      0.99696118
   2396000  -301.56888      61.17064      -362.73952      325.73781     -1551.6677      960.18531      0.99696118
   2397000  -318.89442      47.26057      -366.15499      251.66574     -4970.3364      960.18531      0.99696118
   2398000  -321.6874       67.186988     -388.87438      357.77527      7685.2896      960.18531      0.99696118
   2399000  -314.97576      66.533275     -381.50903      354.2942      -950.657        960.18531      0.99696118
   2400000  -314.18027      60.898629     -375.0789       324.28933      1734.1816      960.18531      0.99696118
   2401000  -311.34951      54.98702      -366.33653      292.80962     -1342.9246      960.18531      0.99696118
   2402000  -338.80533      53.845971     -392.6513       286.73345      518.11877      960.18531      0.99696118
   2403000  -325.08386      50.848691     -375.93255      270.77273      1639.6086      960.18531      0.99696118
   2404000  -339.02162      44.781882     -383.80351      238.46656     -4629.359       960.18531      0.99696118
   2405000  -318.75259      66.117986     -384.87057      352.08276     -2771.8853      960.18531      0.99696118
   2406000  -341.67701      48.386595     -390.0636       257.6619      -1251.0665      960.18531      0.99696118
   2407000  -332.9238       48.163853     -381.08765      256.47579     -1854.1042      960.18531      0.99696118
   2408000  -318.23211      50.922683     -369.15479      271.16674     -737.48341      960.18531      0.99696118
   2409000  -302.05488      54.1213       -356.17618      288.19959      189.86944      960.18531      0.99696118
   2410000  -317.44334      59.040531     -376.48387      314.39483      853.60709      960.18531      0.99696118
   2411000  -314.89994      55.051148     -369.95109      293.1511       189.53199      960.18531      0.99696118
   2412000  -300.12221      55.475015     -355.59723      295.40822      190.20733      960.18531      0.99696118
   2413000  -330.26646      49.757603     -380.02407      264.96261     -3851.5985      960.18531      0.99696118
   2414000  -313.51687      58.307465     -371.82434      310.49121      4593.2997      960.18531      0.99696118
   2415000  -308.38257      61.415839     -369.79841      327.04351     -4756.981       960.18531      0.99696118
   2416000  -330.44796      53.34731      -383.79527      284.07805     -1108.5237      960.18531      0.99696118
   2417000  -304.17442      64.445201     -368.61962      343.17507      334.67215      960.18531      0.99696118
   2418000  -316.62967      52.873705     -369.50337      281.55607     -2131.3071      960.18531      0.99696118
   2419000  -329.69474      56.342978     -386.03772      300.03018     -2569.1841      960.18531      0.99696118
   2420000  -322.0239       47.806331     -369.83023      254.57196     -196.54676      960.18531      0.99696118
   2421000  -305.65201      55.964119     -361.61613      298.01273     -691.68432      960.18531      0.99696118
   2422000  -318.72481      58.687146     -377.41196      312.51304      152.29839      960.18531      0.99696118
   2423000  -324.10349      58.153296     -382.25678      309.67025      1517.6435      960.18531      0.99696118
   2424000  -309.9166       61.771237     -371.68784      328.93603      1330.3754      960.18531      0.99696118
   2425000  -301.91679      69.908906     -371.8257       372.26967     -2261.9599      960.18531      0.99696118
   2426000  -299.62948      64.912078     -364.54156      345.66122     -2645.2043      960.18531      0.99696118
   2427000  -301.87397      55.379672     -357.25364      294.90051     -45.860664      960.18531      0.99696118
   2428000  -335.73026      58.459849     -394.1901       311.30266      3479.6549      960.18531      0.99696118
   2429000  -318.66369      58.423079     -377.08677      311.10686     -3303.0026      960.18531      0.99696118
   2430000  -325.23215      58.544256     -383.77641      311.75214     -1147.9107      960.18531      0.99696118
   2431000  -339.79071      45.795613     -385.58633      243.86475     -1216.4417      960.18531      0.99696118
   2432000  -320.84664      60.794035     -381.64068      323.73236     -1734.9651      960.18531      0.99696118
   2433000  -333.3973       50.51867      -383.91597      269.01535     -2849.2479      960.18531      0.99696118
   2434000  -326.45378      50.964405     -377.41819      271.38892     -2383.5983      960.18531      0.99696118
   2435000  -322.18762      51.88835      -374.07596      276.30898     -3389.7832      960.18531      0.99696118
   2436000  -301.76903      55.332642     -357.10167      294.65007     -4527.1271      960.18531      0.99696118
   2437000  -328.70221      54.729477     -383.43169      291.43818      286.27773      960.18531      0.99696118
   2438000  -305.0886       64.922198     -370.0108       345.71511     -188.67677      960.18531      0.99696118
   2439000  -333.10929      56.918427     -390.02772      303.09449     -3218.59        960.18531      0.99696118
   2440000  -309.80559      60.216844     -370.02244      320.65878     -151.94934      960.18531      0.99696118
   2441000  -328.63169      55.033052     -383.66474      293.05474     -421.332        960.18531      0.99696118
   2442000  -309.55605      65.249924     -374.80597      347.46028     -905.96814      960.18531      0.99696118
   2443000  -328.84597      55.994438     -384.8404       298.17418      931.98364      960.18531      0.99696118
   2444000  -320.16553      55.966606     -376.13213      298.02598      1795.0872      960.18531      0.99696118
   2445000  -338.2763       40.961904     -379.2382       218.12492      4681.8255      960.18531      0.99696118
   2446000  -330.07547      45.096717     -375.17219      240.14308     -2301.0393      960.18531      0.99696118
   2447000  -331.2947       54.57614      -385.87084      290.62165     -808.92136      960.18531      0.99696118
   2448000  -342.12573      51.846067     -393.9718       276.08383     -3178.294       960.18531      0.99696118
   2449000  -350.22656      51.179442     -401.406        272.53401     -914.53638      960.18531      0.99696118
   2450000  -333.12961      47.756154     -380.88577      254.30476      3697.5584      960.18531      0.99696118
   2451000  -335.84377      52.055117     -387.89888      277.19703      2924.9678      960.18531      0.99696118
   2452000  -320.68658      52.132568     -372.81915      277.60946     -4126.6332      960.18531      0.99696118
   2453000  -320.04482      50.101976     -370.1468       266.79642     -2664.9689      960.18531      0.99696118
   2454000  -296.91936      62.11997      -359.03933      330.79306     -5697.8053      960.18531      0.99696118
   2455000  -324.54767      50.255052     -374.80272      267.61156      18.906821      960.18531      0.99696118
   2456000  -314.34984      61.371737     -375.72157      326.80866     -236.17311      960.18531      0.99696118
   2457000  -310.81223      66.84518      -377.65741      355.95512     -2390.1534      960.18531      0.99696118
   2458000  -307.50031      73.301442     -380.80175      390.33516      388.63902      960.18531      0.99696118
   2459000  -327.25433      59.390343     -386.64468      316.25761     -845.62844      960.18531      0.99696118
   2460000  -319.85452      69.028165     -388.88269      367.57966     -77.053153      960.18531      0.99696118
   2461000  -327.8503       56.203068     -384.05337      299.28515     -1811.8301      960.18531      0.99696118
   2462000  -320.81417      50.364641     -371.17881      268.19513     -3571.2225      960.18531      0.99696118
   2463000  -327.82466      47.93807      -375.76273      255.27348     -1105.7852      960.18531      0.99696118
   2464000  -335.60763      45.633412     -381.24104      243.00102     -3620.6633      960.18531      0.99696118
   2465000  -323.99178      55.899622     -379.8914       297.66928     -685.15289      960.18531      0.99696118
   2466000  -318.27672      51.751035     -370.02776      275.57778      817.17235      960.18531      0.99696118
   2467000  -330.42483      57.264165     -387.68899      304.93557     -898.03167      960.18531      0.99696118
   2468000  -329.07723      64.781705     -393.85894      344.96698     -1478.1645      960.18531      0.99696118
   2469000  -332.70298      44.10741      -376.81039      234.87495     -992.16373      960.18531      0.99696118
   2470000  -314.50966      58.493965     -373.00363      311.48434     -2393.234       960.18531      0.99696118
   2471000  -321.55185      45.930375     -367.48222      244.58237      1443.0441      960.18531      0.99696118
   2472000  -317.75256      55.20335      -372.95591      293.96159     -2657.8689      960.18531      0.99696118
   2473000  -331.84102      56.894705     -388.73572      302.96817      82.756815      960.18531      0.99696118
   2474000  -318.7289       70.271655     -389.00055      374.20133      640.93039      960.18531      0.99696118
   2475000  -338.35891      56.983849     -395.34276      303.44286      282.4091       960.18531      0.99696118
   2476000  -321.02128      59.219844     -380.24113      315.34969     -374.70506      960.18531      0.99696118
   2477000  -328.83001      65.048983     -393.879        346.39025      2207.1753      960.18531      0.99696118
   2478000  -327.68956      54.267384     -381.95694      288.9775      -1873.9144      960.18531      0.99696118
   2479000  -332.55833      48.871892     -381.43023      260.24614     -1691.1089      960.18531      0.99696118
   2480000  -328.60559      52.279971     -380.88556      278.39439      790.69075      960.18531      0.99696118
   2481000  -332.46982      53.096405     -385.56623      282.74196     -1652.4271      960.18531      0.99696118
   2482000  -302.72759      57.171757     -359.89935      304.44349     -770.99823      960.18531      0.99696118
   2483000  -328.35703      59.216674     -387.57371      315.33281      3060.6789      960.18531      0.99696118
   2484000  -327.97944      51.310268     -379.28971      273.23066      709.5294       960.18531      0.99696118
   2485000  -323.32735      60.471181     -383.79853      322.01314     -1786.6115      960.18531      0.99696118
   2486000  -310.57775      56.748855     -367.3266       302.1915      -1257.1773      960.18531      0.99696118
   2487000  -315.84704      62.515832     -378.36287      332.90105      1247.1719      960.18531      0.99696118
   2488000  -326.1003       52.450983     -378.55129      279.30505      1968.8656      960.18531      0.99696118
   2489000  -315.3437       64.52091      -379.86461      343.57823      332.98675      960.18531      0.99696118
   2490000  -332.66447      50.563245     -383.22771      269.25271     -1193.4178      960.18531      0.99696118
   2491000  -321.92139      55.160222     -377.08161      293.73192     -298.5344       960.18531      0.99696118
   2492000  -321.77838      61.492764     -383.27114      327.45314     -949.71751      960.18531      0.99696118
   2493000  -326.97509      59.637763     -386.61285      317.57514     -137.36776      960.18531      0.99696118
   2494000  -313.03384      52.594645     -365.62848      280.07005     -929.24349      960.18531      0.99696118
   2495000  -324.70914      62.665698     -387.37483      333.69909     -1121.2899      960.18531      0.99696118
   2496000  -311.03077      54.26021      -365.29098      288.9393      -22.422818      960.18531      0.99696118
   2497000  -308.8443       56.616163     -365.46046      301.48491     -3450.5528      960.18531      0.99696118
   2498000  -316.20416      59.334985     -375.53914      315.96282      1471.2509      960.18531      0.99696118
   2499000  -301.33883      63.288878     -364.62771      337.01757      2516.864       960.18531      0.99696118
   2500000  -335.10116      47.049746     -382.1509       250.54309     -4204.8867      960.18531      0.99696118
   2501000  -330.01206      60.061191     -390.07325      319.82992      1113.0956      960.18531      0.99696118
   2502000  -335.52958      52.687068     -388.21665      280.56221     -2071.9706      960.18531      0.99696118
   2503000  -330.5412       51.635532     -382.17673      274.96271      1135.9256      960.18531      0.99696118
   2504000  -341.88989      56.521349     -398.41124      300.98002      782.31967      960.18531      0.99696118
   2505000  -330.81119      60.085462     -390.89665      319.95917      2529.9256      960.18531      0.99696118
   2506000  -313.93473      61.64314      -375.57787      328.25391      1227.04        960.18531      0.99696118
   2507000  -344.12494      47.617692     -391.74263      253.56744     -5876.8624      960.18531      0.99696118
   2508000  -321.1644       64.7209       -385.8853       344.64319     -3214.7405      960.18531      0.99696118
   2509000  -299.90342      63.326937     -363.23036      337.22024      715.95864      960.18531      0.99696118
   2510000  -312.79001      70.694492     -383.4845       376.45297     -3186.1399      960.18531      0.99696118
   2511000  -330.22897      60.94948      -391.17844      324.56012     -6721.6081      960.18531      0.99696118
   2512000  -348.44868      47.817369     -396.26605      254.63074     -2898.0165      960.18531      0.99696118
   2513000  -324.3302       58.459759     -382.78996      311.30219     -971.55453      960.18531      0.99696118
   2514000  -335.45143      49.751796     -385.20323      264.93169      1103.5466      960.18531      0.99696118
   2515000  -326.82866      51.739209     -378.56787      275.5148       743.17603      960.18531      0.99696118
   2516000  -325.28765      55.4167       -380.70435      295.09769     -1080.2197      960.18531      0.99696118
   2517000  -312.09877      58.046633     -370.1454       309.10226      1241.1982      960.18531      0.99696118
   2518000  -339.14688      42.400774     -381.54765      225.787       -4312.2696      960.18531      0.99696118
   2519000  -310.05414      58.491382     -368.54552      311.47058     -2723.9357      960.18531      0.99696118
   2520000  -314.57708      53.698026     -368.27511      285.94564     -580.24139      960.18531      0.99696118
   2521000  -327.85814      47.663834     -375.52197      253.81315      1610.9013      960.18531      0.99696118
   2522000  -332.16301      56.181872     -388.34488      299.17228     -2802.3753      960.18531      0.99696118
   2523000  -317.37409      64.151934     -381.52602      341.6134       879.97993      960.18531      0.99696118
   2524000  -304.50244      66.517332     -371.01977      354.20931      1208.7936      960.18531      0.99696118
   2525000  -308.91281      54.91401      -363.82682      292.42083     -308.64817      960.18531      0.99696118
   2526000  -317.3595       59.834291     -377.19379      318.62166      2261.7148      960.18531      0.99696118
   2527000  -343.73307      42.222065     -385.95513      224.83536     -2982.4238      960.18531      0.99696118
   2528000  -323.12834      62.487731     -385.61608      332.75141     -4037.7584      960.18531      0.99696118
   2529000  -339.04319      54.654057     -393.69725      291.03657     -2162.5287      960.18531      0.99696118
   2530000  -327.77716      64.061805     -391.83896      341.13346     -764.90902      960.18531      0.99696118
   2531000  -316.9718       60.414066     -377.38586      321.709       -1093.0316      960.18531      0.99696118
   2532000  -330.41848      47.941655     -378.36014      255.29257      3077.896       960.18531      0.99696118
   2533000  -329.87528      49.389225     -379.2645       263.00098     -3912.4957      960.18531      0.99696118
   2534000  -324.95262      59.216149     -384.16877      315.33001     -1074.4783      960.18531      0.99696118
   2535000  -329.23391      59.348797     -388.58271      316.03637     -808.8478       960.18531      0.99696118
   2536000  -318.93557      53.061837     -371.9974       282.55788      341.51006      960.18531      0.99696118
   2537000  -318.93255      53.161808     -372.09436      283.09023     -1427.5735      960.18531      0.99696118
   2538000  -322.47498      45.73835      -368.21333      243.55982      2129.9761      960.18531      0.99696118
   2539000  -326.29154      57.072439     -383.36398      303.91461     -2867.3266      960.18531      0.99696118
   2540000  -344.01768      51.706237     -395.72392      275.33922     -2922.1877      960.18531      0.99696118
   2541000  -333.36448      65.946526     -399.31101      351.16973     -2081.2551      960.18531      0.99696118
   2542000  -321.47046      67.940204     -389.41066      361.7862      -2596.7208      960.18531      0.99696118
   2543000  -322.78024      51.588134     -374.36837      274.71032      1875.8084      960.18531      0.99696118
   2544000  -339.07884      48.316539     -387.39538      257.28885      1207.9649      960.18531      0.99696118
   2545000  -320.87789      50.147465     -371.02535      267.03866     -1833.4132      960.18531      0.99696118
   2546000  -308.55346      56.745844     -365.29931      302.17547     -2387.6974      960.18531      0.99696118
   2547000  -312.87857      56.165542     -369.04411      299.08532     -743.44575      960.18531      0.99696118
   2548000  -316.33154      57.056286     -373.38783      303.8286      -730.66255      960.18531      0.99696118
   2549000  -308.79901      51.31393      -360.11294      273.25016      2097.5561      960.18531      0.99696118
   2550000  -325.06423      53.733748     -378.79798      286.13586     -2126.2718      960.18531      0.99696118
   2551000  -337.91964      47.19719      -385.11683      251.32824     -1246.98        960.18531      0.99696118
   2552000  -298.29172      57.968572     -356.26029      308.68658      275.62745      960.18531      0.99696118
   2553000  -331.04724      58.106076     -389.15332      309.4188       1864.4231      960.18531      0.99696118
   2554000  -324.96304      63.384965     -388.348        337.52924      2722.2975      960.18531      0.99696118
   2555000  -319.03195      54.304281     -373.33623      289.17398     -6084.2619      960.18531      0.99696118
   2556000  -331.41323      54.724091     -386.13732      291.4095      -829.53657      960.18531      0.99696118
   2557000  -322.62613      44.440541     -367.06667      236.6489      -3119.5905      960.18531      0.99696118
   2558000  -332.81582      50.350131     -383.16595      268.11787     -490.19056      960.18531      0.99696118
   2559000  -337.80784      51.884648     -389.69249      276.28927     -56.845176      960.18531      0.99696118
   2560000  -320.0215       64.764677     -384.78617      344.8763       1537.3369      960.18531      0.99696118
   2561000  -322.43178      51.074482     -373.50627      271.97509      4038.5713      960.18531      0.99696118
   2562000  -314.87748      67.30874      -382.18622      358.42361     -836.69031      960.18531      0.99696118
   2563000  -327.63698      59.502099     -387.13908      316.85272      2494.3033      960.18531      0.99696118
   2564000  -327.38171      55.343034     -382.72474      294.70541     -817.80598      960.18531      0.99696118
   2565000  -338.99827      52.348035     -391.34631      278.75684      77.924225      960.18531      0.99696118
   2566000  -332.47136      62.215909     -394.68726      331.30394      3764.5544      960.18531      0.99696118
   2567000  -324.92486      62.353616     -387.27847      332.03724      2556.8272      960.18531      0.99696118
   2568000  -311.51988      64.159079     -375.67896      341.65145     -3578.0825      960.18531      0.99696118
   2569000  -329.46214      47.596649     -377.05879      253.45539     -1353.6628      960.18531      0.99696118
   2570000  -335.27832      48.264363     -383.54268      257.01101      1161.4003      960.18531      0.99696118
   2571000  -326.97718      57.753692     -384.73087      307.54233      3544.6535      960.18531      0.99696118
   2572000  -333.04152      57.67614      -390.71766      307.12936     -672.18969      960.18531      0.99696118
   2573000  -319.02389      64.536797     -383.56069      343.66283     -834.80298      960.18531      0.99696118
   2574000  -332.95536      53.394034     -386.34939      284.32686      2436.7603      960.18531      0.99696118
   2575000  -341.45659      43.004766     -384.46136      229.0033      -514.40181      960.18531      0.99696118
   2576000  -301.64459      59.436681     -361.08127      316.50436     -1542.9156      960.18531      0.99696118
   2577000  -314.63446      64.396785     -379.03125      342.91725      849.22686      960.18531      0.99696118
   2578000  -324.07626      54.690884     -378.76715      291.23267      683.74617      960.18531      0.99696118
   2579000  -311.66423      65.466275     -377.1305       348.61236     -209.4117       960.18531      0.99696118
   2580000  -330.11189      57.988496     -388.10039      308.79268      593.31782      960.18531      0.99696118
   2581000  -334.02268      58.275772     -392.29846      310.32244     -1682.2758      960.18531      0.99696118
   2582000  -324.60601      54.874611     -379.48062      292.21103      246.23026      960.18531      0.99696118
   2583000  -312.36681      52.983541     -365.35035      282.14095     -1093.3447      960.18531      0.99696118
   2584000  -304.19887      60.838124     -365.03699      323.96714     -588.15405      960.18531      0.99696118
   2585000  -317.93429      61.175644     -379.10993      325.76446      182.76583      960.18531      0.99696118
   2586000  -322.60552      61.642113     -384.24763      328.24843     -1176.1269      960.18531      0.99696118
   2587000  -326.18345      49.907764     -376.09122      265.76223     -3729.9897      960.18531      0.99696118
   2588000  -308.07271      65.180047     -373.25276      347.08817     -2746.1006      960.18531      0.99696118
   2589000  -327.97278      59.880626     -387.8534       318.8684       2948.1128      960.18531      0.99696118
   2590000  -319.45449      46.00358      -365.45807      244.97219      3778.8336      960.18531      0.99696118
   2591000  -333.48922      54.386997     -387.87622      289.61445     -1018.4765      960.18531      0.99696118
   2592000  -330.5853       58.881737     -389.46704      313.54925     -1754.8891      960.18531      0.99696118
   2593000  -320.30208      56.199672     -376.50175      299.26707      253.45617      960.18531      0.99696118
   2594000  -334.14408      62.561416     -396.70549      333.14379     -3407.5054      960.18531      0.99696118
   2595000  -304.66893      59.047291     -363.71622      314.43083     -861.62023      960.18531      0.99696118
   2596000  -336.80706      52.046722     -388.85378      277.15233     -2690.1693      960.18531      0.99696118
   2597000  -316.83649      48.228908     -365.0654       256.82221     -3325.4681      960.18531      0.99696118
   2598000  -323.43211      51.173946     -374.60606      272.50473     -1529.281       960.18531      0.99696118
   2599000  -308.15333      55.818245     -363.97157      297.23594     -576.05939      960.18531      0.99696118
   2600000  -334.32722      54.948727     -389.27594      292.6057      -3436.9384      960.18531      0.99696118
   2601000  -326.47258      69.299993     -395.77257      369.02717     -2190.8821      960.18531      0.99696118
   2602000  -341.24986      50.267921     -391.51778      267.68009     -686.82406      960.18531      0.99696118
   2603000  -333.69427      59.273662     -392.96793      315.63627      1679.5962      960.18531      0.99696118
   2604000  -333.85742      57.138728     -390.99615      304.2676       455.40142      960.18531      0.99696118
   2605000  -321.16458      54.514794     -375.67938      290.29498     -1401.9517      960.18531      0.99696118
   2606000  -326.47424      52.323348     -378.79759      278.62538     -2237.5795      960.18531      0.99696118
   2607000  -325.76846      40.739956     -366.50842      216.94303     -1348.211       960.18531      0.99696118
   2608000  -333.76043      53.93458      -387.69501      287.2053       1258.9845      960.18531      0.99696118
   2609000  -318.66943      52.308404     -370.97783      278.5458       3640.7074      960.18531      0.99696118
   2610000  -326.29153      48.004011     -374.29554      255.62462     -2160.6823      960.18531      0.99696118
   2611000  -314.38182      47.651623     -362.03344      253.74813      3887.6498      960.18531      0.99696118
   2612000  -323.35393      59.835245     -383.18918      318.62674     -445.28065      960.18531      0.99696118
   2613000  -324.38712      55.811242     -380.19837      297.19865     -2789.9928      960.18531      0.99696118
   2614000  -320.24159      56.394653     -376.63625      300.30536     -1631.5473      960.18531      0.99696118
   2615000  -306.23229      56.245058     -362.47734      299.50875     -912.88863      960.18531      0.99696118
   2616000  -308.70289      65.406533     -374.10942      348.29423     -1277.6586      960.18531      0.99696118
   2617000  -319.78769      59.462621     -379.25031      316.64249     -90.232699      960.18531      0.99696118
   2618000  -324.096        64.084335     -388.18033      341.25343      1955.4451      960.18531      0.99696118
   2619000  -337.49187      45.7034       -383.19527      243.37371     -1426.5564      960.18531      0.99696118
   2620000  -328.82319      57.221459     -386.04465      304.70816      370.18999      960.18531      0.99696118
   2621000  -319.85423      56.65954      -376.51377      301.71589      1013.1932      960.18531      0.99696118
   2622000  -323.95486      62.478161     -386.43302      332.70045     -480.33296      960.18531      0.99696118
   2623000  -318.08305      54.82206      -372.90511      291.93119     -897.28112      960.18531      0.99696118
   2624000  -300.67121      64.582001     -365.25321      343.90354     -2278.7506      960.18531      0.99696118
   2625000  -319.63301      57.089212     -376.72222      304.00393      1896.0129      960.18531      0.99696118
   2626000  -308.28496      58.346006     -366.63097      310.69644     -719.7698       960.18531      0.99696118
   2627000  -332.7278       50.868656     -383.59645      270.87905     -1052.9247      960.18531      0.99696118
   2628000  -329.99268      53.297399     -383.29007      283.81227      980.35383      960.18531      0.99696118
   2629000  -319.37172      60.259497     -379.63122      320.88591      3062.5238      960.18531      0.99696118
   2630000  -317.88202      65.061093     -382.94311      346.45474     -3240.7242      960.18531      0.99696118
   2631000  -344.82345      49.971119     -394.79457      266.0996      -3179.9026      960.18531      0.99696118
   2632000  -332.289        49.88637      -382.17537      265.64831     -3450.4235      960.18531      0.99696118
   2633000  -314.23348      63.233695     -377.46717      336.72372      1502.4729      960.18531      0.99696118
   2634000  -325.21755      59.015543     -384.2331       314.26177     -4351.0359      960.18531      0.99696118
   2635000  -321.47163      50.978142     -372.44977      271.46207     -1369.5683      960.18531      0.99696118
   2636000  -333.54733      57.700785     -391.24811      307.2606      -501.32933      960.18531      0.99696118
   2637000  -337.93164      49.494415     -387.42606      263.56112      2910.793       960.18531      0.99696118
   2638000  -330.10071      52.278965     -382.37968      278.38904      1007.3574      960.18531      0.99696118
   2639000  -318.47761      59.002656     -377.48027      314.19315     -2688.3821      960.18531      0.99696118
   2640000  -319.0907       53.310822     -372.40152      283.88375     -2259.1219      960.18531      0.99696118
   2641000  -314.13353      56.530243     -370.66377      301.02738     -767.93123      960.18531      0.99696118
   2642000  -331.91004      53.399749     -385.30979      284.35729     -641.63301      960.18531      0.99696118
   2643000  -312.58034      57.154321     -369.73467      304.35064      3801.9173      960.18531      0.99696118
   2644000  -332.21898      55.893877     -388.11286      297.63869     -3683.1615      960.18531      0.99696118
   2645000  -337.50803      50.429686     -387.93772      268.5415      -74.727189      960.18531      0.99696118
   2646000  -303.22451      58.947004     -362.17151      313.8968       379.75212      960.18531      0.99696118
   2647000  -316.61206      63.917512     -380.52957      340.36509     -1936.0547      960.18531      0.99696118
   2648000  -326.12419      58.727665     -384.85186      312.7288       34.975071      960.18531      0.99696118
   2649000  -337.67506      52.625794     -390.30085      280.23592     -1351.781       960.18531      0.99696118
   2650000  -305.44187      65.451949     -370.89381      348.53607      3267.311       960.18531      0.99696118
   2651000  -324.52591      50.904274     -375.43018      271.06871      62.842019      960.18531      0.99696118
   2652000  -320.68524      56.270715     -376.95595      299.64538      966.35957      960.18531      0.99696118
   2653000  -342.9528       52.067789     -395.02058      277.26451      1457.0993      960.18531      0.99696118
   2654000  -344.33656      48.800362     -393.13692      259.86524      3529.6317      960.18531      0.99696118
   2655000  -317.94865      57.716341     -375.66499      307.34343     -3608.8078      960.18531      0.99696118
   2656000  -334.4613       57.548844     -392.01014      306.4515      -643.85305      960.18531      0.99696118
   2657000  -342.48517      48.691403     -391.17658      259.28503      427.98935      960.18531      0.99696118
   2658000  -330.73722      55.076308     -385.81353      293.28508     -1020.5264      960.18531      0.99696118
   2659000  -316.44704      60.085777     -376.53282      319.96084     -339.56738      960.18531      0.99696118
   2660000  -292.57776      68.472421     -361.05018      364.62029      1603.7548      960.18531      0.99696118
   2661000  -305.29916      60.098453     -365.39761      320.02834      1460.1842      960.18531      0.99696118
   2662000  -321.21375      52.824936     -374.03869      281.29637      512.39717      960.18531      0.99696118
   2663000  -329.22514      57.947048     -387.17218      308.57196     -984.46966      960.18531      0.99696118
   2664000  -328.55292      51.999671     -380.55259      276.90178     -265.0264       960.18531      0.99696118
   2665000  -329.88         57.771125     -387.65113      307.63516     -799.00338      960.18531      0.99696118
   2666000  -349.02924      56.154074     -405.18332      299.02426     -898.69999      960.18531      0.99696118
   2667000  -320.53567      51.80708      -372.34275      275.87622      6318.3586      960.18531      0.99696118
   2668000  -319.00214      57.673482     -376.67562      307.11521      950.61927      960.18531      0.99696118
   2669000  -327.76065      57.514043     -385.2747       306.26618      3703.4215      960.18531      0.99696118
   2670000  -312.71929      58.54185      -371.26114      311.73933      3112.9976      960.18531      0.99696118
   2671000  -311.18919      57.763023     -368.95221      307.59202     -1075.9389      960.18531      0.99696118
   2672000  -323.45498      59.54514      -383.00012      317.08191     -1889.2465      960.18531      0.99696118
   2673000  -318.31485      55.77048      -374.08533      296.98159     -6164.7518      960.18531      0.99696118
   2674000  -311.89348      56.290744     -368.18422      299.75203     -639.93782      960.18531      0.99696118
   2675000  -330.7557       44.713716     -375.46942      238.10357     -2174.2623      960.18531      0.99696118
   2676000  -328.83004      57.669315     -386.49935      307.09302     -3262.4749      960.18531      0.99696118
   2677000  -328.11518      61.861106     -389.97628      329.41459     -68.098339      960.18531      0.99696118
   2678000  -336.52983      42.612994     -379.14283      226.91709      206.10684      960.18531      0.99696118
   2679000  -324.68624      56.187578     -380.87382      299.20267     -742.15887      960.18531      0.99696118
   2680000  -333.53941      55.538683     -389.07809      295.74726      1748.5592      960.18531      0.99696118
   2681000  -324.73546      59.583289     -384.31875      317.28506      2631.0954      960.18531      0.99696118
   2682000  -321.66081      53.228074     -374.88889      283.44311      753.56366      960.18531      0.99696118
   2683000  -324.48634      52.98785      -377.47419      282.1639      -5542.7656      960.18531      0.99696118
   2684000  -306.22368      71.080495     -377.30418      378.50846      215.32093      960.18531      0.99696118
   2685000  -327.11008      49.03895      -376.14903      261.13574     -910.7835       960.18531      0.99696118
   2686000  -315.48852      57.434418     -372.92294      305.84218     -17.569084      960.18531      0.99696118
   2687000  -311.7304       65.726586     -377.45699      349.99853      5308.0148      960.18531      0.99696118
   2688000  -320.24862      55.946088     -376.19471      297.91672      2561.5009      960.18531      0.99696118
   2689000  -328.33874      55.827147     -384.16589      297.28335      913.98674      960.18531      0.99696118
   2690000  -316.6164       62.786577     -379.40297      334.34278      93.460715      960.18531      0.99696118
   2691000  -315.00119      50.182425     -365.18361      267.22482     -3405.8885      960.18531      0.99696118
   2692000  -323.28715      55.380445     -378.6676       294.90463      3060.3917      960.18531      0.99696118
   2693000  -322.70488      58.166644     -380.87153      309.74133     -678.61503      960.18531      0.99696118
   2694000  -334.31302      48.108948     -382.42197      256.18341      1492.281       960.18531      0.99696118
   2695000  -332.00358      50.803163     -382.80674      270.53029     -1863.4249      960.18531      0.99696118
   2696000  -316.87428      62.297188     -379.17147      331.73676     -1575.9065      960.18531      0.99696118
   2697000  -296.91077      68.798739     -365.70951      366.35796      1268.8069      960.18531      0.99696118
   2698000  -335.55791      52.893514     -388.45143      281.66155      1755.5927      960.18531      0.99696118
   2699000  -327.37863      54.469439     -381.84807      290.05346      1093.4715      960.18531      0.99696118
   2700000  -311.82824      59.601274     -371.42951      317.38083     -1004.3288      960.18531      0.99696118
   2701000  -337.26936      59.757414     -397.02677      318.21229      350.00882      960.18531      0.99696118
   2702000  -328.40124      61.401739     -389.80298      326.96843      709.35681      960.18531      0.99696118
   2703000  -318.35645      69.591055     -387.94751      370.57709     -3326.7882      960.18531      0.99696118
   2704000  -325.02129      54.989814     -380.01111      292.8245      -742.61622      960.18531      0.99696118
   2705000  -315.50803      63.01996      -378.52799      335.58557     -2203.2346      960.18531      0.99696118
   2706000  -334.16632      50.976486     -385.1428       271.45325      43.770183      960.18531      0.99696118
   2707000  -310.05325      60.295869     -370.34912      321.0796      -2848.7949      960.18531      0.99696118
   2708000  -327.72662      56.142116     -383.86874      298.96058     -113.66845      960.18531      0.99696118
   2709000  -336.28605      42.746401     -379.03245      227.62749      2725.6175      960.18531      0.99696118
   2710000  -321.28419      44.359634     -365.64382      236.21806      469.2845       960.18531      0.99696118
   2711000  -325.29047      56.345101     -381.63557      300.04149     -1687.5722      960.18531      0.99696118
   2712000  -325.77535      52.774737     -378.55008      281.02906      1262.4568      960.18531      0.99696118
   2713000  -308.36178      52.880668     -361.24245      281.59315      2366.0844      960.18531      0.99696118
   2714000  -321.96059      62.204537     -384.16513      331.24338      749.75147      960.18531      0.99696118
   2715000  -322.01119      58.35824      -380.36943      310.76159      916.59529      960.18531      0.99696118
   2716000  -329.33989      50.372194     -379.71209      268.23535     -1496.3831      960.18531      0.99696118
   2717000  -304.13178      61.472806     -365.60458      327.34687     -2958.3248      960.18531      0.99696118
   2718000  -339.14708      45.399411     -384.54649      241.75494     -2769.9652      960.18531      0.99696118
   2719000  -341.49254      49.111984     -390.60452      261.52465     -442.40076      960.18531      0.99696118
   2720000  -318.83449      68.309597     -387.14408      363.75324     -1865.7607      960.18531      0.99696118
   2721000  -297.57248      64.168839     -361.74132      341.70343     -2256.9958      960.18531      0.99696118
   2722000  -308.14991      68.013857     -376.16377      362.1784       3193.0132      960.18531      0.99696118
   2723000  -325.37391      60.774509     -386.14842      323.62839     -1176.725       960.18531      0.99696118
   2724000  -324.16177      53.016102     -377.17788      282.31434      1195.2832      960.18531      0.99696118
   2725000  -331.06009      51.14694      -382.20703      272.36093      2284.6408      960.18531      0.99696118
   2726000  -320.45557      60.96162      -381.41719      324.62477     -1905.9969      960.18531      0.99696118
   2727000  -324.85444      59.367296     -384.22174      316.13488      1977.7328      960.18531      0.99696118
   2728000  -315.09552      65.50519      -380.60071      348.81958     -1754.4349      960.18531      0.99696118
   2729000  -309.53484      67.479104     -377.01394      359.33081      5993.4744      960.18531      0.99696118
   2730000  -316.88382      52.490289     -369.37411      279.51435     -2254.0935      960.18531      0.99696118
   2731000  -348.32692      52.663275     -400.9902       280.43552      3464.6837      960.18531      0.99696118
   2732000  -319.23185      50.057154     -369.289        266.55774     -1164.3622      960.18531      0.99696118
   2733000  -311.70148      57.392683     -369.09416      305.61993     -334.19746      960.18531      0.99696118
   2734000  -338.80859      59.142202     -397.95079      314.93624     -87.125826      960.18531      0.99696118
   2735000  -315.38231      62.073412     -377.45572      330.54513      2171.3838      960.18531      0.99696118
   2736000  -328.47301      49.923313     -378.39632      265.84503      3372.1852      960.18531      0.99696118
   2737000  -323.86449      59.607249     -383.47174      317.41264      1645.627       960.18531      0.99696118
   2738000  -324.07818      57.78403      -381.86221      307.70388      1276.8781      960.18531      0.99696118
   2739000  -329.17689      48.780223     -377.95712      259.758       -434.7094       960.18531      0.99696118
   2740000  -322.86796      55.298399     -378.16636      294.46773     -1534.9164      960.18531      0.99696118
   2741000  -292.56505      69.671812     -362.23686      371.00713      3282.4125      960.18531      0.99696118
   2742000  -321.79081      68.878121     -390.66893      366.78067     -977.89465      960.18531      0.99696118
   2743000  -343.59633      56.192763     -399.7891       299.23028     -606.44097      960.18531      0.99696118
   2744000  -335.65051      55.928205     -391.57872      297.82149     -2784.2497      960.18531      0.99696118
   2745000  -327.85873      57.330521     -385.18925      305.28892      702.66715      960.18531      0.99696118
   2746000  -321.63281      58.148903     -379.78172      309.64686      4516.4011      960.18531      0.99696118
   2747000  -329.66739      52.956493     -382.62388      281.99692      533.46358      960.18531      0.99696118
   2748000  -317.85914      61.059153     -378.91829      325.14413      936.55066      960.18531      0.99696118
   2749000  -318.41645      61.328893     -379.74535      326.58052      3111.2042      960.18531      0.99696118
   2750000  -311.80057      58.996839     -370.79741      314.16217     -928.42965      960.18531      0.99696118
   2751000  -329.55382      48.978367     -378.53219      260.81313     -2476.9614      960.18531      0.99696118
   2752000  -316.93558      55.251813     -372.18739      294.21965      159.6214       960.18531      0.99696118
   2753000  -315.9155       58.955578     -374.87107      313.94245      2627.5904      960.18531      0.99696118
   2754000  -328.14131      51.180642     -379.32195      272.54039      666.40389      960.18531      0.99696118
   2755000  -322.77712      56.431667     -379.20879      300.50246     -3707.5942      960.18531      0.99696118
   2756000  -330.32164      48.174455     -378.4961       256.53224     -332.02073      960.18531      0.99696118
   2757000  -314.65855      75.286928     -389.94548      400.908        1388.6284      960.18531      0.99696118
   2758000  -321.8544       60.425491     -382.27989      321.76984     -1774.7417      960.18531      0.99696118
   2759000  -326.03736      52.662425     -378.69979      280.43099      4686.5972      960.18531      0.99696118
   2760000  -308.86687      54.513746     -363.38062      290.2894      -2352.5841      960.18531      0.99696118
   2761000  -334.67952      46.746401     -381.42593      248.92776     -1828.1389      960.18531      0.99696118
   2762000  -324.47689      58.989503     -383.46639      314.12311      1547.4796      960.18531      0.99696118
   2763000  -330.87396      52.130504     -383.00447      277.59847     -1655.8546      960.18531      0.99696118
   2764000  -326.6991       56.887077     -383.58618      302.92754     -1380.1783      960.18531      0.99696118
   2765000  -322.69335      58.875873     -381.56922      313.51802     -3270.7387      960.18531      0.99696118
   2766000  -320.85135      62.647509     -383.49885      333.60224     -808.60385      960.18531      0.99696118
   2767000  -335.81461      53.608235     -389.42284      285.46749     -986.72177      960.18531      0.99696118
   2768000  -335.94446      54.011417     -389.95587      287.61446     -1552.7388      960.18531      0.99696118
   2769000  -302.47231      72.320155     -374.79246      385.10973      2328.8861      960.18531      0.99696118
   2770000  -329.67846      42.861602     -372.54006      228.24094     -1587.6058      960.18531      0.99696118
   2771000  -326.25618      61.392142     -387.64832      326.91732     -1265.9842      960.18531      0.99696118
   2772000  -330.78356      57.323047     -388.10661      305.24912     -1616.3635      960.18531      0.99696118
   2773000  -324.11925      57.286219     -381.40547      305.05301     -1770.982       960.18531      0.99696118
   2774000  -310.44419      61.108461     -371.55265      325.4067      -1044.7487      960.18531      0.99696118
   2775000  -328.73612      61.256171     -389.99229      326.19327      747.5808       960.18531      0.99696118
   2776000  -328.37685      59.290092     -387.66695      315.72377      1881.9331      960.18531      0.99696118
   2777000  -324.04392      59.978379     -384.0223       319.38894     -3198.8517      960.18531      0.99696118
   2778000  -316.29252      55.625085     -371.9176       296.20736     -4270.1741      960.18531      0.99696118
   2779000  -331.01749      51.542828     -382.56032      274.46906      3204.78        960.18531      0.99696118
   2780000  -325.6977       56.460472     -382.15817      300.65584      2630.3488      960.18531      0.99696118
   2781000  -346.16842      51.708901     -397.87732      275.35341      1314.089       960.18531      0.99696118
   2782000  -343.09631      52.101464     -395.19778      277.44383     -4040.7971      960.18531      0.99696118
   2783000  -325.63879      55.506802     -381.1456       295.57749     -748.17176      960.18531      0.99696118
   2784000  -337.0865       52.794324     -389.88082      281.13336      1013.7249      960.18531      0.99696118
   2785000  -333.50128      53.485732     -386.98701      284.81516      1594.5157      960.18531      0.99696118
   2786000  -318.46864      54.473268     -372.9419       290.07385      1777.3445      960.18531      0.99696118
   2787000  -303.70959      72.089781     -375.79937      383.88298      1671.2547      960.18531      0.99696118
   2788000  -311.77813      57.198796     -368.97692      304.58747     -1197.3588      960.18531      0.99696118
   2789000  -313.7511       54.54327      -368.29437      290.44662      286.45987      960.18531      0.99696118
   2790000  -332.83157      50.324283     -383.15585      267.98022      689.6929       960.18531      0.99696118
   2791000  -319.11889      53.46547      -372.58436      284.70726     -3575.7165      960.18531      0.99696118
   2792000  -319.39382      64.015903     -383.40972      340.88903     -554.85654      960.18531      0.99696118
   2793000  -317.99033      60.047385     -378.03772      319.7564       285.45615      960.18531      0.99696118
   2794000  -325.7304       51.937427     -377.66783      276.57033     -1378.6238      960.18531      0.99696118
   2795000  -334.70297      43.927584     -378.63055      233.91737     -112.74226      960.18531      0.99696118
   2796000  -334.91346      51.212368     -386.12583      272.70933     -2124.774       960.18531      0.99696118
   2797000  -315.49468      67.697111     -383.19179      360.49171     -1412.5492      960.18531      0.99696118
   2798000  -318.11396      51.934053     -370.04801      276.55236      165.62938      960.18531      0.99696118
   2799000  -315.07971      60.857642     -375.93735      324.07107     -3062.4307      960.18531      0.99696118
   2800000  -328.10575      53.201059     -381.30681      283.29925     -3807.1132      960.18531      0.99696118
   2801000  -320.03588      62.586129     -382.62201      333.27539     -1918.8554      960.18531      0.99696118
   2802000  -327.12118      57.4624       -384.58358      305.99118      1259.9791      960.18531      0.99696118
   2803000  -322.34446      62.301443     -384.6459       331.75941     -2177.1384      960.18531      0.99696118
   2804000  -310.99307      61.015235     -372.00831      324.91027      1300.903       960.18531      0.99696118
   2805000  -334.61496      46.516498     -381.13146      247.70351      380.10373      960.18531      0.99696118
   2806000  -342.6905       57.691442     -400.38194      307.21085     -343.20897      960.18531      0.99696118
   2807000  -321.38766      62.502263     -383.88992      332.82879     -1934.834       960.18531      0.99696118
   2808000  -314.49194      57.450194     -371.94213      305.92618      85.761255      960.18531      0.99696118
   2809000  -323.42036      57.18058      -380.60094      304.49047      4024.9454      960.18531      0.99696118
   2810000  -334.22486      56.421959     -390.64682      300.45076      1082.4274      960.18531      0.99696118
   2811000  -331.67533      65.411814     -397.08714      348.32235     -2998.4325      960.18531      0.99696118
   2812000  -318.55636      61.830631     -380.38699      329.25231      143.73427      960.18531      0.99696118
   2813000  -314.82246      59.106892     -373.92935      314.74821     -724.31442      960.18531      0.99696118
   2814000  -325.06292      60.683302     -385.74622      323.1427       2998.3349      960.18531      0.99696118
   2815000  -312.84834      56.822976     -369.67132      302.5862      -3254.4297      960.18531      0.99696118
   2816000  -327.0825       48.821027     -375.90352      259.97528     -54.339694      960.18531      0.99696118
   2817000  -346.52262      43.203706     -389.72632      230.06267     -2210.7125      960.18531      0.99696118
   2818000  -325.74524      56.390193     -382.13543      300.2816      -177.86424      960.18531      0.99696118
   2819000  -322.78387      61.592108     -384.37598      327.98216     -1499.6582      960.18531      0.99696118
   2820000  -312.23199      58.81569      -371.04768      313.19754     -3610.1485      960.18531      0.99696118
   2821000  -333.21495      61.496409     -394.71136      327.47255     -1265.3466      960.18531      0.99696118
   2822000  -334.90243      53.581871     -388.4843       285.3271       2586.0648      960.18531      0.99696118
   2823000  -331.04624      45.882601     -376.92884      244.32796      720.18287      960.18531      0.99696118
   2824000  -337.23972      52.102807     -389.34253      277.45098      268.00113      960.18531      0.99696118
   2825000  -335.57439      54.469842     -390.04423      290.05561      2122.7328      960.18531      0.99696118
   2826000  -307.09955      62.0989       -369.19845      330.68086     -1551.6267      960.18531      0.99696118
   2827000  -334.67037      55.905367     -390.57573      297.69987      72.426506      960.18531      0.99696118
   2828000  -314.30856      53.524295     -367.83285      285.0205      -2831.449       960.18531      0.99696118
   2829000  -330.94709      50.93685      -381.88394      271.24219     -1970.6131      960.18531      0.99696118
   2830000  -335.88344      45.908505     -381.79194      244.4659      -889.09695      960.18531      0.99696118
   2831000  -322.68272      53.247099     -375.92982      283.54442     -487.56905      960.18531      0.99696118
   2832000  -296.44651      65.537546     -361.98406      348.99188      109.4518       960.18531      0.99696118
   2833000  -310.57405      64.277041     -374.8511       342.27961     -1117.396       960.18531      0.99696118
   2834000  -337.8992       51.412209     -389.31141      273.7735       798.80969      960.18531      0.99696118
   2835000  -340.481        53.266717     -393.74771      283.64888     -4321.1897      960.18531      0.99696118
   2836000  -330.64822      60.227166     -390.87539      320.71375      2970.3452      960.18531      0.99696118
   2837000  -322.16049      55.029265     -377.18975      293.03457      1648.2909      960.18531      0.99696118
   2838000  -327.96176      53.135961     -381.09772      282.9526      -234.45543      960.18531      0.99696118
   2839000  -311.03844      68.196112     -379.23455      363.14893      3187.6871      960.18531      0.99696118
   2840000  -318.2105       55.763481     -373.97398      296.94432     -2274.3819      960.18531      0.99696118
   2841000  -309.49801      49.010589     -358.5086       260.98471      2074.9775      960.18531      0.99696118
   2842000  -334.22069      47.228152     -381.44884      251.49311      1885.517       960.18531      0.99696118
   2843000  -314.22245      60.681723     -374.90417      323.13429      4471.6805      960.18531      0.99696118
   2844000  -315.75836      57.416375     -373.17474      305.74609     -1947.8462      960.18531      0.99696118
   2845000  -315.20308      50.035311     -365.23839      266.44143     -601.84195      960.18531      0.99696118
   2846000  -328.62283      47.609212     -376.23204      253.52229      1654.7507      960.18531      0.99696118
   2847000  -313.19274      58.052377     -371.24512      309.13285      508.0872       960.18531      0.99696118
   2848000  -325.06058      61.125248     -386.18583      325.4961       4229.288       960.18531      0.99696118
   2849000  -332.81104      61.197154     -394.00819      325.879        1248.3783      960.18531      0.99696118
   2850000  -333.3892       61.017323     -394.40652      324.92138      1065.0541      960.18531      0.99696118
   2851000  -321.77986      59.002383     -380.78224      314.1917       2659.4036      960.18531      0.99696118
   2852000  -325.40336      53.816328     -379.21968      286.5756      -2444.8462      960.18531      0.99696118
   2853000  -324.62755      63.733552     -388.3611       339.38549      835.14254      960.18531      0.99696118
   2854000  -311.84433      63.23711      -375.08144      336.7419      -2412.9522      960.18531      0.99696118
   2855000  -311.33938      62.19332      -373.5327       331.18365      612.25044      960.18531      0.99696118
   2856000  -332.48288      47.680467     -380.16335      253.90172      1177.5805      960.18531      0.99696118
   2857000  -320.08082      67.213045     -387.29386      357.91402      1781.3274      960.18531      0.99696118
   2858000  -316.56007      55.265958     -371.82602      294.29498     -2189.4336      960.18531      0.99696118
   2859000  -335.43502      53.751576     -389.18659      286.23079     -1769.8975      960.18531      0.99696118
   2860000  -322.36304      60.387898     -382.75094      321.56966      2726.0724      960.18531      0.99696118
   2861000  -336.08968      47.017441     -383.10712      250.37106      1900.5935      960.18531      0.99696118
   2862000  -317.46954      60.544058     -378.0136       322.40122      1939.6482      960.18531      0.99696118
   2863000  -343.85331      49.504264     -393.35757      263.61357      1303.6233      960.18531      0.99696118
   2864000  -326.39788      48.966729     -375.36461      260.75115     -3145.9875      960.18531      0.99696118
   2865000  -311.2096       60.177858     -371.38746      320.45118      216.37274      960.18531      0.99696118
   2866000  -313.52637      63.189837     -376.71621      336.49017      458.45357      960.18531      0.99696118
   2867000  -312.91306      61.02632      -373.93938      324.96929     -2711.1385      960.18531      0.99696118
   2868000  -336.37813      53.216163     -389.59429      283.37968     -1891.3842      960.18531      0.99696118
   2869000  -326.88831      47.530618     -374.41893      253.10377     -1475.3988      960.18531      0.99696118
   2870000  -328.0866       62.724443     -390.81104      334.01192     -1755.9715      960.18531      0.99696118
   2871000  -331.5173       57.319261     -388.83657      305.22896     -1929.6612      960.18531      0.99696118
   2872000  -307.11103      64.684797     -371.79583      344.45094     -518.97006      960.18531      0.99696118
   2873000  -310.83181      61.753327     -372.58514      328.84066     -2868.6395      960.18531      0.99696118
   2874000  -313.39786      55.872593     -369.27046      297.52535     -2942.1147      960.18531      0.99696118
   2875000  -326.62643      51.403448     -378.02988      273.72685      546.47959      960.18531      0.99696118
   2876000  -319.65491      55.56501      -375.21992      295.88745      1803.704       960.18531      0.99696118
   2877000  -327.93899      53.635005     -381.574        285.61005      3749.322       960.18531      0.99696118
   2878000  -328.64844      51.900137     -380.54858      276.37175     -874.36553      960.18531      0.99696118
   2879000  -344.25514      59.12682      -403.38196      314.85433      463.24414      960.18531      0.99696118
   2880000  -330.85521      51.244355     -382.09956      272.87967      2000.3294      960.18531      0.99696118
   2881000  -321.67971      59.691656     -381.37137      317.86212     -4007.0308      960.18531      0.99696118
   2882000  -328.88089      53.967761     -382.84865      287.38199     -1689.6438      960.18531      0.99696118
   2883000  -326.29244      57.453924     -383.74637      305.94605     -1282.7088      960.18531      0.99696118
   2884000  -325.68484      56.875537     -382.56037      302.8661       984.12537      960.18531      0.99696118
   2885000  -326.14631      64.977616     -391.12393      346.01022      568.02131      960.18531      0.99696118
   2886000  -316.07314      55.243162     -371.31631      294.17359      1777.8428      960.18531      0.99696118
   2887000  -320.28529      57.151817     -377.43711      304.3373       1525.1455      960.18531      0.99696118
   2888000  -322.62286      51.296166     -373.91903      273.15557     -2906.5886      960.18531      0.99696118
   2889000  -317.97871      61.419789     -379.3985       327.06454      3148.9264      960.18531      0.99696118
   2890000  -287.31437      69.817767     -357.13214      371.78435      2734.0846      960.18531      0.99696118
   2891000  -308.01894      59.932958     -367.9519       319.14707     -1819.4013      960.18531      0.99696118
   2892000  -306.30601      61.180727     -367.48674      325.79152      516.00219      960.18531      0.99696118
   2893000  -324.62174      63.009239     -387.63098      335.52847     -2997.4345      960.18531      0.99696118
   2894000  -321.2365       58.932389     -380.16889      313.81897      918.72425      960.18531      0.99696118
   2895000  -331.53459      47.410009     -378.94459      252.46152     -1182.9016      960.18531      0.99696118
   2896000  -317.00443      61.479237     -378.48367      327.38111     -216.89456      960.18531      0.99696118
   2897000  -322.66058      53.510341     -376.17092      284.9462      -336.42872      960.18531      0.99696118
   2898000  -336.02241      47.107916     -383.13033      250.85285     -336.97134      960.18531      0.99696118
   2899000  -323.99244      53.601204     -377.59365      285.43005      772.00749      960.18531      0.99696118
   2900000  -321.57785      61.814068     -383.39192      329.16411      1374.7634      960.18531      0.99696118
   2901000  -324.91798      54.048798     -378.96678      287.81352     -1218.3556      960.18531      0.99696118
   2902000  -325.3928       59.279046     -384.67185      315.66495     -1222.8693      960.18531      0.99696118
   2903000  -328.55906      53.83665      -382.39571      286.68382      1427.8764      960.18531      0.99696118
   2904000  -330.87079      47.250508     -378.1213       251.61216     -2245.6087      960.18531      0.99696118
   2905000  -326.18439      54.680481     -380.86487      291.17727     -1354.4372      960.18531      0.99696118
   2906000  -338.59196      55.656452     -394.24841      296.37438      804.23759      960.18531      0.99696118
   2907000  -324.47179      49.595224     -374.06701      264.09794      2636.1175      960.18531      0.99696118
   2908000  -321.64258      56.56212      -378.2047       301.19713      1587.8868      960.18531      0.99696118
   2909000  -303.65234      66.36743      -370.01977      353.41107      537.25519      960.18531      0.99696118
   2910000  -323.54793      50.603274     -374.15121      269.46587      3110.6984      960.18531      0.99696118
   2911000  -293.66503      71.258278     -364.92331      379.45517     -359.68284      960.18531      0.99696118
   2912000  -333.80674      63.479423     -397.28616      338.03224     -2424.3115      960.18531      0.99696118
   2913000  -322.27396      62.580272     -384.85423      333.2442       5617.7115      960.18531      0.99696118
   2914000  -325.36016      58.591864     -383.95202      312.00565     -23.926987      960.18531      0.99696118
   2915000  -339.80551      50.137763     -389.94327      266.98699     -3112.3531      960.18531      0.99696118
   2916000  -309.91153      57.767804     -367.67933      307.61748     -2030.1296      960.18531      0.99696118
   2917000  -328.83841      58.200277     -387.03869      309.92042      2055.877       960.18531      0.99696118
   2918000  -331.94787      51.278159     -383.22603      273.05968      2280.1285      960.18531      0.99696118
   2919000  -331.23917      52.131498     -383.37067      277.60377     -5145.8317      960.18531      0.99696118
   2920000  -332.7969       56.723911     -389.52081      302.05868     -2797.4351      960.18531      0.99696118
   2921000  -335.99932      58.189555     -394.18887      309.86333     -3472.314       960.18531      0.99696118
   2922000  -311.96583      55.478696     -367.44453      295.42782      416.07659      960.18531      0.99696118
   2923000  -317.3739       55.178795     -372.5527       293.83083     -157.10667      960.18531      0.99696118
   2924000  -327.86003      55.454985     -383.31502      295.30156     -4092.523       960.18531      0.99696118
   2925000  -332.20904      51.633953     -383.84299      274.95431      1973.3731      960.18531      0.99696118
   2926000  -315.97315      67.075675     -383.04882      357.18252     -915.20719      960.18531      0.99696118
   2927000  -322.24638      57.161428     -379.40781      304.38848      2056.0456      960.18531      0.99696118
   2928000  -328.75274      52.883254     -381.63599      281.60692      546.92654      960.18531      0.99696118
   2929000  -339.48565      54.598684     -394.08433      290.7417      -1033.9301      960.18531      0.99696118
   2930000  -321.03568      64.156834     -385.19251      341.6395      -596.0493       960.18531      0.99696118
   2931000  -322.93279      51.10243      -374.03522      272.12391     -2384.2575      960.18531      0.99696118
   2932000  -326.46972      54.164041     -380.63376      288.4272       4530.0315      960.18531      0.99696118
   2933000  -300.1927       60.233536     -360.42624      320.74767     -1650.1435      960.18531      0.99696118
   2934000  -311.48828      62.695966     -374.18425      333.86028      570.13976      960.18531      0.99696118
   2935000  -310.54347      62.979054     -373.52253      335.36774     -2718.9991      960.18531      0.99696118
   2936000  -323.90584      53.283988     -377.18983      283.74085      997.75585      960.18531      0.99696118
   2937000  -315.98768      55.934166     -371.92185      297.85323     -3443.9408      960.18531      0.99696118
   2938000  -310.37257      63.17453      -373.5471       336.40866      2183.1275      960.18531      0.99696118
   2939000  -335.29045      57.035456     -392.3259       303.71768     -1024.7147      960.18531      0.99696118
   2940000  -325.30337      55.253953     -380.55732      294.23105     -402.59369      960.18531      0.99696118
   2941000  -306.51321      56.188298     -362.7015       299.2065      -2385.2056      960.18531      0.99696118
   2942000  -323.98986      51.600859     -375.59072      274.77808     -311.33982      960.18531      0.99696118
   2943000  -316.21833      69.196932     -385.41526      368.47836     -2025.7388      960.18531      0.99696118
   2944000  -331.23747      51.969471     -383.20694      276.74096     -1768.0699      960.18531      0.99696118
   2945000  -332.97461      54.132734     -387.10734      288.26048     -2579.0033      960.18531      0.99696118
   2946000  -314.91205      53.853429     -368.76548      286.77317      268.72026      960.18531      0.99696118
   2947000  -323.64773      63.37748      -387.02521      337.48938      335.82607      960.18531      0.99696118
   2948000  -324.85865      56.131725     -380.99037      298.90525     -994.69261      960.18531      0.99696118
   2949000  -323.3514       57.229967     -380.58137      304.75346      3280.2449      960.18531      0.99696118
   2950000  -309.98038      61.956399     -371.93678      329.92203      1356.3612      960.18531      0.99696118
   2951000  -332.40451      52.956065     -385.36057      281.99464     -3362.7058      960.18531      0.99696118
   2952000  -327.39889      54.451432     -381.85032      289.95757     -932.39852      960.18531      0.99696118
   2953000  -330.1822       52.676275     -382.85848      280.50474      855.17433      960.18531      0.99696118
   2954000  -318.21278      52.51652      -370.7293       279.65403      1845.6668      960.18531      0.99696118
   2955000  -346.20614      52.772406     -398.97855      281.01664      1882.4963      960.18531      0.99696118
   2956000  -309.22861      64.494302     -373.72291      343.43654     -254.87157      960.18531      0.99696118
   2957000  -338.54007      53.305349     -391.84542      283.8546      -1304.8239      960.18531      0.99696118
   2958000  -342.97882      60.604178     -403.583        322.72136      98.137675      960.18531      0.99696118
   2959000  -326.18563      58.035722     -384.22135      309.04416     -1272.0847      960.18531      0.99696118
   2960000  -325.61064      56.302892     -381.91353      299.81672      2509.527       960.18531      0.99696118
   2961000  -316.61269      47.66695      -364.27964      253.82975      48.218725      960.18531      0.99696118
   2962000  -323.30901      62.692824     -386.00183      333.84354     -1009.2783      960.18531      0.99696118
   2963000  -326.93758      53.29434      -380.23192      283.79598     -593.17771      960.18531      0.99696118
   2964000  -317.52824      52.238555     -369.76679      278.17385      830.12896      960.18531      0.99696118
   2965000  -343.49366      50.275348     -393.76901      267.71964      2097.241       960.18531      0.99696118
   2966000  -329.62659      57.89122      -387.51781      308.27467     -1824.4087      960.18531      0.99696118
   2967000  -315.74892      61.743612     -377.49253      328.78892     -2697.7229      960.18531      0.99696118
   2968000  -321.92245      52.8598       -374.78225      281.48202     -1438.8681      960.18531      0.99696118
   2969000  -315.29105      57.90974      -373.20079      308.3733      -1315.2843      960.18531      0.99696118
   2970000  -328.90288      61.102668     -390.00555      325.37585      428.82909      960.18531      0.99696118
   2971000  -325.18122      51.283739     -376.46496      273.08939     -3575.6169      960.18531      0.99696118
   2972000  -304.621        52.496563     -357.11756      279.54776     -6061.3782      960.18531      0.99696118
   2973000  -327.03373      56.062558     -383.09629      298.53693     -2309.8429      960.18531      0.99696118
   2974000  -317.17386      60.964018     -378.13788      324.63753     -1185.8241      960.18531      0.99696118
   2975000  -311.4655       55.699121     -367.16462      296.6016       1055.2823      960.18531      0.99696118
   2976000  -330.43877      45.578361     -376.01713      242.70787     -2988.7134      960.18531      0.99696118
   2977000  -323.42411      49.125691     -372.5498       261.59764      882.56215      960.18531      0.99696118
   2978000  -313.34333      51.238559     -364.58189      272.84881     -531.82746      960.18531      0.99696118
   2979000  -337.36622      51.376414     -388.74263      273.58289     -210.77495      960.18531      0.99696118
   2980000  -332.07587      53.263452     -385.33932      283.6315      -2613.2879      960.18531      0.99696118
   2981000  -322.77886      56.84877      -379.62763      302.72356      481.51969      960.18531      0.99696118
   2982000  -330.56694      52.518324     -383.08526      279.66364     -538.65228      960.18531      0.99696118
   2983000  -312.48925      57.591432     -370.08068      306.67829      2023.0577      960.18531      0.99696118
   2984000  -334.86572      52.154871     -387.02059      277.72823      2108.5224      960.18531      0.99696118
   2985000  -325.89914      57.031816     -382.93095      303.69829      2938.1624      960.18531      0.99696118
   2986000  -336.06175      45.895095     -381.95684      244.3945      -1538.9997      960.18531      0.99696118
   2987000  -328.71451      52.723803     -381.43832      280.75783     -1562.1355      960.18531      0.99696118
   2988000  -317.4856       51.068494     -368.5541       271.9432       696.93796      960.18531      0.99696118
   2989000  -325.9603       57.639057     -383.59936      306.93189     -759.85591      960.18531      0.99696118
   2990000  -313.29246      67.501404     -380.79386      359.44956      1178.9584      960.18531      0.99696118
   2991000  -328.27931      53.007949     -381.28725      282.27093      106.43575      960.18531      0.99696118
   2992000  -332.19994      50.625268     -382.82521      269.58299     -3540.3569      960.18531      0.99696118
   2993000  -331.72986      56.338039     -388.0679       300.00388     -5793.5206      960.18531      0.99696118
   2994000  -311.77198      61.104448     -372.87643      325.38534     -2044.0553      960.18531      0.99696118
   2995000  -326.53403      53.595232     -380.12926      285.39825     -2855.8577      960.18531      0.99696118
   2996000  -330.03259      54.814074     -384.84667      291.88867     -3288.7939      960.18531      0.99696118
   2997000  -315.37418      68.099155     -383.47334      362.63263      3346.8431      960.18531      0.99696118
   2998000  -327.98225      53.895547     -381.8778       286.99745      1957.5622      960.18531      0.99696118
   2999000  -336.61871      53.494211     -390.11292      284.86031      2797.7824      960.18531      0.99696118
   3000000  -317.68598      65.64562      -383.3316       349.56739      598.02933      960.18531      0.99696118
Loop time of 1044.95 on 1 procs for 2000000 steps with 96 atoms

Performance: 165.366 ns/day, 0.145 hours/ns, 1913.963 timesteps/s
99.7% CPU use with 1 MPI tasks x 1 OpenMP threads

MPI task timing breakdown:
Section |  min time  |  avg time  |  max time  |%varavg| %total
---------------------------------------------------------------
Pair    | 854.23     | 854.23     | 854.23     |   0.0 | 81.75
Bond    | 0.10609    | 0.10609    | 0.10609    |   0.0 |  0.01
Kspace  | 120.75     | 120.75     | 120.75     |   0.0 | 11.56
Neigh   | 31.73      | 31.73      | 31.73      |   0.0 |  3.04
Comm    | 22.971     | 22.971     | 22.971     |   0.0 |  2.20
Output  | 0.25554    | 0.25554    | 0.25554    |   0.0 |  0.02
Modify  | 11.597     | 11.597     | 11.597     |   0.0 |  1.11
Other   |            | 3.316      |            |       |  0.32

Nlocal:             96 ave          96 max          96 min
Histogram: 1 0 0 0 0 0 0 0 0 0
Nghost:           3860 ave        3860 max        3860 min
Histogram: 1 0 0 0 0 0 0 0 0 0
Neighs:          34752 ave       34752 max       34752 min
Histogram: 1 0 0 0 0 0 0 0 0 0

Total # of neighbors = 34752
Ave neighs/atom = 362
Ave special neighs/atom = 2
Neighbor list builds = 44072
Dangerous builds = 0

# write data file
write_data data.after_prod.lmp
System init for write_data ...
PPPM initialization ...
  using 12-bit tables for long-range coulomb (src/kspace.cpp:342)
  G vector (1/distance) = 0.30847861
  grid = 9 9 9
  stencil order = 5
  estimated absolute RMS force accuracy = 0.0027675926
  estimated relative force accuracy = 8.334523e-06
  using double precision FFTW3
  3d grid and FFT values/proc = 4096 729
Generated 1 of 1 mixed pair_coeff terms from geometric mixing rule

# clean up
undump dPROD
unfix fTHERMO
unfix fMOM
unfix fSHAKE
Total wall time: 0:26:06
