LAMMPS (23 Jun 2022 - Update 4)
  using 1 OpenMP thread(s) per MPI task
# created by fftool

# System settings
units real
boundary p p p  # Periodic boundary conditions

# definition of atoms, bonds, angles
atom_style full
bond_style harmonic
angle_style harmonic

# definition of pair potentials
special_bonds lj/coul 0.0 0.0 0.5
pair_style lj/cut/coul/long 10.0 10.0
pair_modify mix geometric tail yes
kspace_style pppm 1.0e-5

# read data file
read_data data.lmp
Reading data file ...
  orthogonal box = (0 0 0) to (12.42973 12.42973 12.42973)
  1 by 1 by 1 MPI processor grid
  reading atoms ...
  192 atoms
  scanning bonds ...
  1 = max bonds/atom
  scanning angles ...
  1 = max angles/atom
  reading bonds ...
  128 bonds
  reading angles ...
  64 angles
Finding 1-2 1-3 1-4 neighbors ...
  special bond factors lj:    0        0        0.5
  special bond factors coul:  0        0        0.5
     2 = max # of 1-2 neighbors
     1 = max # of 1-3 neighbors
     1 = max # of 1-4 neighbors
     2 = max # of special neighbors
  special bonds CPU = 0.000 seconds
  read_data CPU = 0.006 seconds

# definition of LJ parameters
pair_coeff    1    1     0.000000     0.000000  # Hw Hw
pair_coeff    2    2     0.162985     3.178841  # Ow-Ow

############################################

# remove energy hotspots
minimize 1.0e-4 1.0e-6 100 1000
WARNING: Using 'neigh_modify every 1 delay 0 check yes' setting during minimization (src/min.cpp:187)
PPPM initialization ...
  using 12-bit tables for long-range coulomb (src/kspace.cpp:342)
  G vector (1/distance) = 0.31260513
  grid = 12 12 12
  stencil order = 5
  estimated absolute RMS force accuracy = 0.0021455329
  estimated relative force accuracy = 6.4612085e-06
  using double precision FFTW3
  3d grid and FFT values/proc = 6859 1728
Generated 1 of 1 mixed pair_coeff terms from geometric mixing rule
Neighbor list info ...
  update every 1 steps, delay 0 steps, check yes
  max neighbors/atom: 2000, page size: 100000
  master list distance cutoff = 12
  ghost atom cutoff = 12
  binsize = 6, bins = 3 3 3
  1 neighbor lists, perpetual/occasional/extra = 1 0 0
  (1) pair lj/cut/coul/long, perpetual
      attributes: half, newton on
      pair build: half/bin/newton
      stencil: half/bin/3d
      bin: standard
Per MPI rank memory allocation (min/avg/max) = 8.743 | 8.743 | 8.743 Mbytes
   Step          Temp          E_pair         E_mol          TotEng         Press
         0   0              22957.842      2.3418202e-07  22957.842      3319592.8
       100   0             -953.76281      72.41317      -881.34964     -7150.8643
Loop time of 0.21882 on 1 procs for 100 steps with 192 atoms

99.6% CPU use with 1 MPI tasks x 1 OpenMP threads

Minimization stats:
  Stopping criterion = max iterations
  Energy initial, next-to-last, final =
      22957.8418485065  -879.395632548584  -881.349639051058
  Force two-norm initial, final = 131212.27 36.050799
  Force max component initial, final = 58444.034 8.3325848
  Final line search alpha, max atom move = 0.0088672495 0.073887108
  Iterations, force evaluations = 100 179

MPI task timing breakdown:
Section |  min time  |  avg time  |  max time  |%varavg| %total
---------------------------------------------------------------
Pair    | 0.1889     | 0.1889     | 0.1889     |   0.0 | 86.33
Bond    | 0.00069663 | 0.00069663 | 0.00069663 |   0.0 |  0.32
Kspace  | 0.02086    | 0.02086    | 0.02086    |   0.0 |  9.53
Neigh   | 0.004959   | 0.004959   | 0.004959   |   0.0 |  2.27
Comm    | 0.0024461  | 0.0024461  | 0.0024461  |   0.0 |  1.12
Output  | 1.2147e-05 | 1.2147e-05 | 1.2147e-05 |   0.0 |  0.01
Modify  | 0          | 0          | 0          |   0.0 |  0.00
Other   |            | 0.0009435  |            |       |  0.43

Nlocal:            192 ave         192 max         192 min
Histogram: 1 0 0 0 0 0 0 0 0 0
Nghost:           4692 ave        4692 max        4692 min
Histogram: 1 0 0 0 0 0 0 0 0 0
Neighs:          69127 ave       69127 max       69127 min
Histogram: 1 0 0 0 0 0 0 0 0 0

Total # of neighbors = 69127
Ave neighs/atom = 360.03646
Ave special neighs/atom = 2
Neighbor list builds = 4
Dangerous builds = 0
reset_timestep 0

# constrain water bonds and angles
fix fSHAKE all shake 0.0001 20 0 b 1 a 1
       0 = # of size 2 clusters
       0 = # of size 3 clusters
       0 = # of size 4 clusters
      64 = # of frozen angles
  find clusters CPU = 0.000 seconds

# remove Center of Mass movement every 100 steps
fix fMOM all momentum 100 linear 1 1 1

# define the neighbor list
neighbor 2.0 bin

# IMPORTANT: timestep and temperature and pressure
timestep 1.0
variable vTK equal 298.15
variable vPBAR equal 1.0

# randomize velocities
velocity all create ${vTK} 89375
velocity all create 298.15 89375

# thermostat (solving the ODE)
fix fTHERMO all nvt temp ${vTK} ${vTK} 100
fix fTHERMO all nvt temp 298.15 ${vTK} 100
fix fTHERMO all nvt temp 298.15 298.15 100

# print settings
thermo 1000
thermo_style custom step etotal ke pe temp press vol density
# trajectory output
dump dEQUI all custom 1000 equi.lammpstrj id element xu yu zu
dump_modify dEQUI element H O sort id

# equilibration
# 1 ns
run 1000000
PPPM initialization ...
  using 12-bit tables for long-range coulomb (src/kspace.cpp:342)
  G vector (1/distance) = 0.31260513
  grid = 12 12 12
  stencil order = 5
  estimated absolute RMS force accuracy = 0.0021455329
  estimated relative force accuracy = 6.4612085e-06
  using double precision FFTW3
  3d grid and FFT values/proc = 6859 1728
Generated 1 of 1 mixed pair_coeff terms from geometric mixing rule
Per MPI rank memory allocation (min/avg/max) = 9.76 | 9.76 | 9.76 Mbytes
   Step         TotEng         KinEng         PotEng          Temp          Press          Volume        Density
         0  -840.89429      112.86852     -953.76281      298.15        -9079.5624      1920.3708      0.9969611
      1000  -627.80423      121.43345     -749.23769      320.77485     -3434.4145      1920.3708      0.9969611
      2000  -633.70101      118.56884     -752.26985      313.20778      851.375        1920.3708      0.9969611
      3000  -633.19718      113.73022     -746.9274       300.42625      1662.9808      1920.3708      0.9969611
      4000  -619.67619      109.70748     -729.38368      289.7999      -1336.8584      1920.3708      0.9969611
      5000  -623.37481      112.12594     -735.50075      296.18842      2253.5564      1920.3708      0.9969611
      6000  -640.31345      108.68275     -748.9962       287.09301     -767.99436      1920.3708      0.9969611
      7000  -639.55788      104.88932     -744.4472       277.0724      -22.492886      1920.3708      0.9969611
      8000  -632.50097      106.36652     -738.8675       280.97452      413.70227      1920.3708      0.9969611
      9000  -649.20056      106.46456     -755.66512      281.23348      194.14501      1920.3708      0.9969611
     10000  -653.67574      107.12175     -760.7975       282.96951      1833.4645      1920.3708      0.9969611
     11000  -648.98896      115.13196     -764.12092      304.12904     -1516.4613      1920.3708      0.9969611
     12000  -643.80485      115.77386     -759.57871      305.82465      497.82155      1920.3708      0.9969611
     13000  -666.95318      103.58533     -770.53851      273.62781     -3250.0541      1920.3708      0.9969611
     14000  -625.62524      116.85063     -742.47587      308.66902     -216.68388      1920.3708      0.9969611
     15000  -643.906        105.44184     -749.34784      278.5319      -755.58502      1920.3708      0.9969611
     16000  -596.46191      127.74835     -724.21026      337.45609      502.17588      1920.3708      0.9969611
     17000  -645.48643      117.20874     -762.69517      309.61497     -2567.9171      1920.3708      0.9969611
     18000  -637.34195      107.9108      -745.25275      285.05382     -2157.5613      1920.3708      0.9969611
     19000  -641.16966      109.52572     -750.69537      289.31975     -1301.257       1920.3708      0.9969611
     20000  -630.3188       111.11323     -741.43203      293.51328      2940.6161      1920.3708      0.9969611
     21000  -638.90066      107.16981     -746.07047      283.09646     -598.11955      1920.3708      0.9969611
     22000  -635.95511      108.9642      -744.91931      287.83647     -1877.7658      1920.3708      0.9969611
     23000  -624.37243      121.30533     -745.67776      320.43641      3226.4477      1920.3708      0.9969611
     24000  -626.81507      116.63867     -743.45374      308.1091       1805.702       1920.3708      0.9969611
     25000  -653.62055      119.72635     -773.3469       316.26543     -2805.5442      1920.3708      0.9969611
     26000  -617.80853      105.1551      -722.96363      277.77447      433.31189      1920.3708      0.9969611
     27000  -624.20267      109.39653     -733.59919      288.97848     -1357.5935      1920.3708      0.9969611
     28000  -638.55649      112.40226     -750.95875      296.91834      389.41475      1920.3708      0.9969611
     29000  -640.92631      110.78346     -751.70976      292.64216     -1679.4009      1920.3708      0.9969611
     30000  -618.50624      112.08724     -730.59348      296.08619     -956.94711      1920.3708      0.9969611
     31000  -653.88887      108.17539     -762.06426      285.75277     -711.14123      1920.3708      0.9969611
     32000  -626.55898      118.66574     -745.22472      313.46376      4015.3078      1920.3708      0.9969611
     33000  -653.18804      113.21706     -766.40511      299.0707       880.84375      1920.3708      0.9969611
     34000  -629.29606      111.7034      -740.99946      295.07225      2597.9646      1920.3708      0.9969611
     35000  -651.02322      103.4482      -754.47142      273.26557      2400.2789      1920.3708      0.9969611
     36000  -622.99647      118.92854     -741.92501      314.15796      1611.7162      1920.3708      0.9969611
     37000  -618.02457      121.80526     -739.82982      321.757        1470.6946      1920.3708      0.9969611
     38000  -638.82684      95.741498     -734.56834      252.90778      1929.3467      1920.3708      0.9969611
     39000  -609.87846      129.42425     -739.30271      341.8831      -740.15873      1920.3708      0.9969611
     40000  -629.03312      120.39695     -749.43007      318.03687     -2733.6049      1920.3708      0.9969611
     41000  -611.37725      109.98405     -721.36131      290.53047      110.01593      1920.3708      0.9969611
     42000  -616.22578      120.281       -736.50677      317.73056      800.61867      1920.3708      0.9969611
     43000  -625.848        107.38274     -733.23074      283.65893     -2058.4867      1920.3708      0.9969611
     44000  -621.80286      115.03645     -736.8393       303.87673      2364.8537      1920.3708      0.9969611
     45000  -641.42748      116.87826     -758.30574      308.74201     -562.63946      1920.3708      0.9969611
     46000  -648.4553       102.22126     -750.67657      270.02453     -357.25704      1920.3708      0.9969611
     47000  -626.71309      120.31972     -747.03281      317.83285      2794.6596      1920.3708      0.9969611
     48000  -615.01751      124.73317     -739.75068      329.49128     -414.00707      1920.3708      0.9969611
     49000  -625.33476      104.93978     -730.27454      277.20569      545.11579      1920.3708      0.9969611
     50000  -629.08713      103.45369     -732.54081      273.28006      1250.0488      1920.3708      0.9969611
     51000  -627.85413      118.4257      -746.27983      312.82966     -269.2509       1920.3708      0.9969611
     52000  -634.93934      105.78163     -740.72096      279.42948     -2393.5227      1920.3708      0.9969611
     53000  -647.84312      107.68314     -755.52626      284.45246     -1869.9679      1920.3708      0.9969611
     54000  -638.45971      112.22459     -750.6843       296.44901      628.40244      1920.3708      0.9969611
     55000  -620.19361      119.56526     -739.75887      315.8399       766.08186      1920.3708      0.9969611
     56000  -627.80139      110.98409     -738.78549      293.17215     -1404.5998      1920.3708      0.9969611
     57000  -644.45949      120.54584     -765.00532      318.43016     -589.43207      1920.3708      0.9969611
     58000  -649.84087      102.2309      -752.07177      270.05        -273.40176      1920.3708      0.9969611
     59000  -633.07132      113.59893     -746.67025      300.07943      589.59018      1920.3708      0.9969611
     60000  -629.17049      121.08093     -750.25142      319.84364      854.07532      1920.3708      0.9969611
     61000  -624.51198      117.87328     -742.38526      311.37043      1841.4232      1920.3708      0.9969611
     62000  -618.86547      120.76885     -739.63431      319.01925      1500.4816      1920.3708      0.9969611
     63000  -617.3961       124.01933     -741.41543      327.60562      701.74102      1920.3708      0.9969611
     64000  -642.12465      102.88488     -745.00953      271.77751     -298.5388       1920.3708      0.9969611
     65000  -641.39224      113.18021     -754.57246      298.97336      1502.4735      1920.3708      0.9969611
     66000  -633.65377      117.57137     -751.22515      310.57291      78.932421      1920.3708      0.9969611
     67000  -616.50185      110.73898     -727.24082      292.52467     -754.17683      1920.3708      0.9969611
     68000  -628.92309      120.45576     -749.37885      318.19222      3599.4378      1920.3708      0.9969611
     69000  -641.43507      109.03469     -750.46976      288.02268      3403.1816      1920.3708      0.9969611
     70000  -626.79152      118.98859     -745.78011      314.31658     -2443.0593      1920.3708      0.9969611
     71000  -644.24514      100.90363     -745.14877      266.54392      1222.4183      1920.3708      0.9969611
     72000  -632.73422      107.89182     -740.62604      285.0037      -1014.5907      1920.3708      0.9969611
     73000  -620.91828      114.13955     -735.05783      301.50752      1318.2555      1920.3708      0.9969611
     74000  -622.21396      128.15117     -750.36512      338.52016     -873.94985      1920.3708      0.9969611
     75000  -618.60004      110.25407     -728.85412      291.24375      2416.6504      1920.3708      0.9969611
     76000  -633.93377      109.28341     -743.21718      288.67969      627.05961      1920.3708      0.9969611
     77000  -636.62412      109.67483     -746.29896      289.71365     -1173.8969      1920.3708      0.9969611
     78000  -648.22211      108.97653     -757.19865      287.86904     -1366.6469      1920.3708      0.9969611
     79000  -634.1493       111.20634     -745.35564      293.75924      120.87545      1920.3708      0.9969611
     80000  -632.17825      111.60479     -743.78303      294.81175     -2176.4575      1920.3708      0.9969611
     81000  -621.5592       109.44439     -731.00359      289.10491      2635.9297      1920.3708      0.9969611
     82000  -631.32901      105.6472      -736.97622      279.07439     -1262.9931      1920.3708      0.9969611
     83000  -642.19382      115.41249     -757.60631      304.87008     -1372.3896      1920.3708      0.9969611
     84000  -639.68172      115.25652     -754.93824      304.45807     -1301.0022      1920.3708      0.9969611
     85000  -640.33148      115.94988     -756.28136      306.28962     -2026.033       1920.3708      0.9969611
     86000  -633.00164      112.92233     -745.92397      298.29213      2277.5241      1920.3708      0.9969611
     87000  -630.80613      104.37505     -735.18118      275.71392     -2049.6952      1920.3708      0.9969611
     88000  -647.11887      102.27039     -749.38926      270.15429      1544.4665      1920.3708      0.9969611
     89000  -627.82802      125.70829     -753.53631      332.06715     -240.20772      1920.3708      0.9969611
     90000  -642.76344      110.41491     -753.17835      291.66861     -263.77269      1920.3708      0.9969611
     91000  -644.12039      104.28148     -748.40187      275.46674      1197.8505      1920.3708      0.9969611
     92000  -659.16607      104.09533     -763.2614       274.97501      2396.8434      1920.3708      0.9969611
     93000  -644.4461       104.92459     -749.37069      277.16557     -2026.7694      1920.3708      0.9969611
     94000  -636.9556       112.76462     -749.72021      297.87552     -947.02327      1920.3708      0.9969611
     95000  -643.81295      105.05219     -748.86514      277.50262     -797.19796      1920.3708      0.9969611
     96000  -636.38587      112.22515     -748.61103      296.4505      -1343.345       1920.3708      0.9969611
     97000  -658.21661      105.22781     -763.44442      277.96655     -1084.9809      1920.3708      0.9969611
     98000  -636.58739      106.64969     -743.23709      281.72254      1351.7256      1920.3708      0.9969611
     99000  -615.70183      105.47851     -721.18033      278.62876     -249.52038      1920.3708      0.9969611
    100000  -619.12614      103.81647     -722.9426       274.23837      1219.3377      1920.3708      0.9969611
    101000  -630.33735      106.28702     -736.62437      280.76451     -588.08359      1920.3708      0.9969611
    102000  -636.50553      115.45737     -751.96289      304.98861      223.57108      1920.3708      0.9969611
    103000  -643.69314      115.93487     -759.62802      306.24998     -542.02668      1920.3708      0.9969611
    104000  -629.66006      114.09566     -743.75572      301.39156     -709.7714       1920.3708      0.9969611
    105000  -637.60309      107.31997     -744.92305      283.49311      1648.039       1920.3708      0.9969611
    106000  -645.51594      116.80539     -762.32134      308.54951      642.13571      1920.3708      0.9969611
    107000  -648.31702      108.05155     -756.36857      285.42564      1611.766       1920.3708      0.9969611
    108000  -645.46013      122.94697     -768.40711      324.77293      3730.9272      1920.3708      0.9969611
    109000  -615.61817      117.16228     -732.78046      309.49227     -104.34868      1920.3708      0.9969611
    110000  -641.74684      104.39616     -746.143        275.76967     -931.09684      1920.3708      0.9969611
    111000  -625.19965      99.421756     -724.62141      262.62944      2538.5568      1920.3708      0.9969611
    112000  -637.89944      113.46796     -751.3674       299.73345      2217.4481      1920.3708      0.9969611
    113000  -633.22725      114.47419     -747.70144      302.39148     -1008.4739      1920.3708      0.9969611
    114000  -626.49303      108.86194     -735.35498      287.56635     -954.55127      1920.3708      0.9969611
    115000  -642.59728      102.60798     -745.20525      271.04606     -2368.6765      1920.3708      0.9969611
    116000  -607.06413      109.3504      -716.41453      288.85663      1999.7637      1920.3708      0.9969611
    117000  -620.01661      118.08524     -738.10184      311.93031      1220.1381      1920.3708      0.9969611
    118000  -644.04615      113.5711      -757.61725      300.00591      68.46768       1920.3708      0.9969611
    119000  -631.9437       116.41276     -748.35647      307.51236     -521.83799      1920.3708      0.9969611
    120000  -664.73903      98.834956     -763.57398      261.07937      1033.4249      1920.3708      0.9969611
    121000  -650.46586      111.0489      -761.51475      293.34333      1065.7809      1920.3708      0.9969611
    122000  -633.99514      110.84558     -744.84071      292.80625      1312.7597      1920.3708      0.9969611
    123000  -632.37724      109.0093      -741.38654      287.95561      862.57989      1920.3708      0.9969611
    124000  -626.46608      102.65435     -729.12043      271.16855      75.592411      1920.3708      0.9969611
    125000  -634.15095      122.06905     -756.22         322.45383     -396.7286       1920.3708      0.9969611
    126000  -642.30463      107.58858     -749.89321      284.20267      2520.0559      1920.3708      0.9969611
    127000  -654.7431       109.91311     -764.65621      290.34308      750.09832      1920.3708      0.9969611
    128000  -639.30062      116.39721     -755.69783      307.47128     -1478.5819      1920.3708      0.9969611
    129000  -632.42629      114.75389     -747.18018      303.13032     -678.49979      1920.3708      0.9969611
    130000  -613.04977      117.20909     -730.25886      309.61591      911.50325      1920.3708      0.9969611
    131000  -641.09406      114.97105     -756.06511      303.70397      311.39812      1920.3708      0.9969611
    132000  -619.4644       130.87982     -750.34422      345.7281       1111.0569      1920.3708      0.9969611
    133000  -637.11134      105.16817     -742.27951      277.80898      2523.3659      1920.3708      0.9969611
    134000  -645.36549      109.88288     -755.24837      290.26322     -862.15734      1920.3708      0.9969611
    135000  -635.25683      119.20029     -754.45712      314.87579     -568.77508      1920.3708      0.9969611
    136000  -613.44249      120.27637     -733.71886      317.71835      1136.1868      1920.3708      0.9969611
    137000  -639.5829       112.91158     -752.49447      298.26374     -151.44815      1920.3708      0.9969611
    138000  -660.73911      103.06945     -763.80856      272.26508      3042.7994      1920.3708      0.9969611
    139000  -651.10155      104.47537     -755.57692      275.9789      -1354.4652      1920.3708      0.9969611
    140000  -608.97846      106.80506     -715.78352      282.13296     -1226.8781      1920.3708      0.9969611
    141000  -601.47778      120.05457     -721.53234      317.13243      439.99142      1920.3708      0.9969611
    142000  -634.21682      117.0694      -751.28622      309.2469       2412.0474      1920.3708      0.9969611
    143000  -667.79922      89.838846     -757.63806      237.31552     -2288.5623      1920.3708      0.9969611
    144000  -633.37007      110.50386     -743.87393      291.90357      826.87557      1920.3708      0.9969611
    145000  -643.2551       99.256389     -742.51149      262.19261      1462.4121      1920.3708      0.9969611
    146000  -640.98687      107.93583     -748.9227       285.11996      987.53363      1920.3708      0.9969611
    147000  -632.22428      125.84626     -758.07054      332.43158      131.29803      1920.3708      0.9969611
    148000  -642.22646      105.17095     -747.39741      277.81633      83.059888      1920.3708      0.9969611
    149000  -627.59958      114.34671     -741.94629      302.05474      533.26304      1920.3708      0.9969611
    150000  -625.12068      111.92756     -737.04824      295.66438     -2460.3576      1920.3708      0.9969611
    151000  -620.08072      118.41344     -738.49416      312.79729     -1842.4592      1920.3708      0.9969611
    152000  -652.00933      104.05456     -756.06389      274.86732      1656.6537      1920.3708      0.9969611
    153000  -628.09633      119.0414      -747.13774      314.45609      140.67796      1920.3708      0.9969611
    154000  -640.40685      100.32943     -740.73627      265.02712     -1762.4126      1920.3708      0.9969611
    155000  -618.62902      117.7437      -736.37273      311.02813     -3786.1558      1920.3708      0.9969611
    156000  -627.56937      118.73367     -746.30304      313.64319     -67.633175      1920.3708      0.9969611
    157000  -636.95957      96.604673     -733.56425      255.18792     -981.88796      1920.3708      0.9969611
    158000  -648.77423      99.945975     -748.7202       264.0142      -679.78017      1920.3708      0.9969611
    159000  -630.02025      118.10665     -748.12691      311.98689      2741.2334      1920.3708      0.9969611
    160000  -637.51661      116.78381     -754.30042      308.49251      1914.4725      1920.3708      0.9969611
    161000  -609.64834      121.47211     -731.12044      320.87697      420.9626       1920.3708      0.9969611
    162000  -647.02163      110.60318     -757.62481      292.16594      1456.0294      1920.3708      0.9969611
    163000  -653.28472      107.20043     -760.48514      283.17733     -1366.3745      1920.3708      0.9969611
    164000  -651.31779      109.93923     -761.25702      290.41206     -4009.7392      1920.3708      0.9969611
    165000  -639.75561      106.94416     -746.69978      282.5004       1797.2911      1920.3708      0.9969611
    166000  -634.47417      117.59571     -752.06988      310.63719      517.37796      1920.3708      0.9969611
    167000  -646.67572      124.06949     -770.74521      327.73814      664.38702      1920.3708      0.9969611
    168000  -614.06644      121.21167     -735.27811      320.189        2337.8959      1920.3708      0.9969611
    169000  -659.70091      97.825591     -757.5265       258.41306     -1933.0894      1920.3708      0.9969611
    170000  -647.90997      116.72329     -764.63326      308.33263     -1199.1811      1920.3708      0.9969611
    171000  -630.04483      120.29305     -750.33789      317.76242     -2590.0046      1920.3708      0.9969611
    172000  -641.07241      123.25746     -764.32988      325.59311     -3200.7269      1920.3708      0.9969611
    173000  -656.72991      100.69758     -757.42749      265.99962     -875.68196      1920.3708      0.9969611
    174000  -623.0131       119.7494      -742.7625       316.32631     -7.1789077      1920.3708      0.9969611
    175000  -633.87829      119.98357     -753.86186      316.94488     -2796.2223      1920.3708      0.9969611
    176000  -651.48277      111.59899     -763.08176      294.79643      415.59975      1920.3708      0.9969611
    177000  -632.13336      111.01151     -743.14487      293.24457     -663.76367      1920.3708      0.9969611
    178000  -609.29783      120.85987     -730.1577       319.25971     -682.20288      1920.3708      0.9969611
    179000  -611.90908      128.26866     -740.17774      338.83053      1073.2018      1920.3708      0.9969611
    180000  -634.3668       104.37808     -738.74488      275.72191      1236.0626      1920.3708      0.9969611
    181000  -631.10423      114.75059     -745.85481      303.12161     -432.9673       1920.3708      0.9969611
    182000  -648.93188      109.07025     -758.00213      288.11661     -1300.2192      1920.3708      0.9969611
    183000  -642.30995      104.10737     -746.41731      275.0068       1453.1403      1920.3708      0.9969611
    184000  -653.69374      108.31339     -762.00713      286.11731     -245.89773      1920.3708      0.9969611
    185000  -612.10316      111.68765     -723.79081      295.03066      960.79636      1920.3708      0.9969611
    186000  -624.85198      112.91668     -737.76866      298.27721      674.08752      1920.3708      0.9969611
    187000  -652.98198      100.84745     -753.82943      266.39551     -1411.9192      1920.3708      0.9969611
    188000  -633.06644      106.65372     -739.72016      281.73316     -2617.1866      1920.3708      0.9969611
    189000  -642.81308      109.53886     -752.35194      289.35447     -301.05799      1920.3708      0.9969611
    190000  -639.00927      109.38338     -748.39265      288.94376     -1458.1875      1920.3708      0.9969611
    191000  -635.80005      115.9249      -751.72495      306.22363      338.75805      1920.3708      0.9969611
    192000  -642.70076      108.74115     -751.4419       287.24726      878.69338      1920.3708      0.9969611
    193000  -640.34217      105.07612     -745.4183       277.56584      613.35236      1920.3708      0.9969611
    194000  -646.03291      100.8248      -746.85771      266.33569     -1891.683       1920.3708      0.9969611
    195000  -649.78302      100.44483     -750.22786      265.33197     -1826.396       1920.3708      0.9969611
    196000  -631.8874       107.59618     -739.48358      284.22273     -1618.9495      1920.3708      0.9969611
    197000  -625.55761      115.97464     -741.53224      306.35502     -1118.0879      1920.3708      0.9969611
    198000  -644.82317      126.62516     -771.44833      334.48912      1347.8009      1920.3708      0.9969611
    199000  -652.37717      107.18278     -759.55995      283.13072      761.86786      1920.3708      0.9969611
    200000  -643.22957      115.25536     -758.48493      304.45499     -871.44664      1920.3708      0.9969611
    201000  -633.16173      122.38898     -755.55071      323.29894     -137.66574      1920.3708      0.9969611
    202000  -652.84324      108.93024     -761.77348      287.74677     -663.81227      1920.3708      0.9969611
    203000  -612.95951      120.41751     -733.37702      318.09118     -1091.3906      1920.3708      0.9969611
    204000  -622.71653      105.76534     -728.48188      279.38647     -1326.0515      1920.3708      0.9969611
    205000  -645.21083      106.62538     -751.83621      281.6583       909.82326      1920.3708      0.9969611
    206000  -626.8311       121.38938     -748.22048      320.65843      686.73994      1920.3708      0.9969611
    207000  -651.13886      110.15835     -761.29722      290.9909       1694.7297      1920.3708      0.9969611
    208000  -632.00607      115.65362     -747.65969      305.50704      1817.2863      1920.3708      0.9969611
    209000  -644.77125      105.97431     -750.74556      279.93846      391.76966      1920.3708      0.9969611
    210000  -645.41882      96.212686     -741.6315       254.15246      674.03394      1920.3708      0.9969611
    211000  -623.1129       104.31536     -727.42826      275.55624     -1768.6262      1920.3708      0.9969611
    212000  -621.36341      106.45967     -727.82308      281.22057     -1813.4964      1920.3708      0.9969611
    213000  -604.78063      130.85356     -735.63419      345.65871     -1634.8384      1920.3708      0.9969611
    214000  -647.91834      110.50457     -758.42292      291.90546      468.42865      1920.3708      0.9969611
    215000  -622.7903       112.44476     -735.23506      297.03061     -378.93035      1920.3708      0.9969611
    216000  -624.96985      122.76155     -747.73139      324.28311      2122.1034      1920.3708      0.9969611
    217000  -653.16907      109.21119     -762.38025      288.48889     -2069.4199      1920.3708      0.9969611
    218000  -636.26361      118.25671     -754.52032      312.38328     -1784.34        1920.3708      0.9969611
    219000  -667.26727      95.042142     -762.30941      251.06039     -438.21954      1920.3708      0.9969611
    220000  -619.09049      111.05487     -730.14535      293.3591       369.37244      1920.3708      0.9969611
    221000  -648.01607      109.38281     -757.39887      288.94224     -714.92538      1920.3708      0.9969611
    222000  -629.18992      113.43467     -742.62459      299.64552     -2350.4513      1920.3708      0.9969611
    223000  -631.71465      109.74976     -741.46441      289.91158     -765.31254      1920.3708      0.9969611
    224000  -641.03846      117.21194     -758.2504       309.62344      3597.2988      1920.3708      0.9969611
    225000  -656.8839       114.92569     -771.80959      303.58416     -357.8148       1920.3708      0.9969611
    226000  -662.38644      101.49894     -763.88538      268.11645      785.54581      1920.3708      0.9969611
    227000  -643.68525      109.73509     -753.42034      289.87283      578.36854      1920.3708      0.9969611
    228000  -668.47757      120.58858     -789.06615      318.54307     -1194.3072      1920.3708      0.9969611
    229000  -654.37251      110.46166     -764.83418      291.79211      469.08746      1920.3708      0.9969611
    230000  -638.40507      126.39315     -764.79821      333.87623      1471.7707      1920.3708      0.9969611
    231000  -636.98777      117.17276     -754.16054      309.51995     -1081.2068      1920.3708      0.9969611
    232000  -654.36523      111.47876     -765.84398      294.47885      1801.3563      1920.3708      0.9969611
    233000  -628.63052      123.80102     -752.43154      327.02895      1150.7962      1920.3708      0.9969611
    234000  -644.29655      102.37331     -746.66987      270.42618      1731.6873      1920.3708      0.9969611
    235000  -635.32922      112.36122     -747.69044      296.80992     -615.60105      1920.3708      0.9969611
    236000  -625.76461      119.75291     -745.51752      316.33558      826.62333      1920.3708      0.9969611
    237000  -645.80894      102.6999      -748.50883      271.28887     -2177.6377      1920.3708      0.9969611
    238000  -612.30484      123.81614     -736.12098      327.0689       287.28418      1920.3708      0.9969611
    239000  -606.93174      134.10279     -741.03453      354.24178      2671.8461      1920.3708      0.9969611
    240000  -631.99625      107.88533     -739.88158      284.98656     -1219.9221      1920.3708      0.9969611
    241000  -631.79994      115.6535      -747.45345      305.50672     -859.963        1920.3708      0.9969611
    242000  -620.11158      129.17776     -749.28934      341.23198      328.20992      1920.3708      0.9969611
    243000  -630.80291      110.75201     -741.55491      292.55909     -2284.3869      1920.3708      0.9969611
    244000  -634.51424      121.25442     -755.76866      320.30194      102.5522       1920.3708      0.9969611
    245000  -645.5304       102.6172      -748.1476       271.07044      250.39863      1920.3708      0.9969611
    246000  -658.78624      95.437778     -754.22402      252.10549      1204.9671      1920.3708      0.9969611
    247000  -638.553        106.46057     -745.01357      281.22296     -3346.4425      1920.3708      0.9969611
    248000  -621.89975      119.68015     -741.5799       316.14338      3140.1185      1920.3708      0.9969611
    249000  -645.34997      96.709118     -742.05909      255.46382     -772.99193      1920.3708      0.9969611
    250000  -608.85011      123.37407     -732.22417      325.90113      1060.9248      1920.3708      0.9969611
    251000  -654.75354      106.84581     -761.59935      282.2406      -235.30346      1920.3708      0.9969611
    252000  -633.82585      117.95387     -751.77973      311.5833      -797.2869       1920.3708      0.9969611
    253000  -644.1668       113.1384      -757.3052       298.8629       1115.8299      1920.3708      0.9969611
    254000  -654.77099      104.71201     -759.48299      276.604        1286.5119      1920.3708      0.9969611
    255000  -650.79216      100.13197     -750.92413      264.50552      729.88324      1920.3708      0.9969611
    256000  -626.20879      112.73171     -738.9405       297.78859     -598.43268      1920.3708      0.9969611
    257000  -618.63089      117.3579      -735.98879      310.00902      1500.2243      1920.3708      0.9969611
    258000  -635.63243      109.87569     -745.50812      290.24422     -279.58644      1920.3708      0.9969611
    259000  -613.86415      124.80641     -738.67057      329.68477      326.61533      1920.3708      0.9969611
    260000  -641.50135      103.65634     -745.15769      273.81538     -2499.5184      1920.3708      0.9969611
    261000  -611.666        124.70819     -736.37419      329.42529      1262.8201      1920.3708      0.9969611
    262000  -627.79575      117.77106     -745.56681      311.10038     -566.98466      1920.3708      0.9969611
    263000  -598.18196      129.51087     -727.69283      342.11191      3370.8244      1920.3708      0.9969611
    264000  -619.57312      117.6742      -737.24732      310.84454     -1105.1997      1920.3708      0.9969611
    265000  -614.88356      107.70606     -722.58963      284.51301      581.82432      1920.3708      0.9969611
    266000  -653.21066      109.87338     -763.08404      290.23812      1620.3625      1920.3708      0.9969611
    267000  -612.29964      120.15092     -732.45057      317.38697      484.62124      1920.3708      0.9969611
    268000  -644.07311      100.38531     -744.45843      265.17474      386.78629      1920.3708      0.9969611
    269000  -618.46316      118.00187     -736.46503      311.7101      -1274.4283      1920.3708      0.9969611
    270000  -649.6172       119.77644     -769.39363      316.39773     -157.11016      1920.3708      0.9969611
    271000  -639.28085      103.68066     -742.96151      273.87963      1733.678       1920.3708      0.9969611
    272000  -641.71011      93.548724     -735.25883      247.11542      11.094333      1920.3708      0.9969611
    273000  -618.05133      125.09617     -743.1475       330.45017      24.79634       1920.3708      0.9969611
    274000  -630.64661      101.64259     -732.2892       268.49592     -657.46084      1920.3708      0.9969611
    275000  -614.8866       118.58674     -733.47335      313.25508     -1461.8228      1920.3708      0.9969611
    276000  -630.8653       117.89743     -748.76273      311.43421     -506.38054      1920.3708      0.9969611
    277000  -640.99677      101.9927      -742.98947      269.42078      1592.4141      1920.3708      0.9969611
    278000  -648.65999      115.62297     -764.28296      305.42605     -1905.3773      1920.3708      0.9969611
    279000  -656.01888      121.0225      -777.04138      319.6893       1700.511       1920.3708      0.9969611
    280000  -650.00723      108.88887     -758.89611      287.63748      1383.0667      1920.3708      0.9969611
    281000  -632.16065      114.60556     -746.76622      302.73851      1791.4015      1920.3708      0.9969611
    282000  -638.40128      99.943729     -738.34501      264.00827     -385.754        1920.3708      0.9969611
    283000  -620.22228      117.3603      -737.58258      310.01535     -541.21787      1920.3708      0.9969611
    284000  -606.03626      111.57684     -717.6131       294.73794      1441.8696      1920.3708      0.9969611
    285000  -624.8064       110.95571     -735.76211      293.09718      2036.5478      1920.3708      0.9969611
    286000  -639.63478      102.2407      -741.87548      270.07586     -606.99501      1920.3708      0.9969611
    287000  -620.65972      121.25272     -741.91244      320.29744      1078.576       1920.3708      0.9969611
    288000  -654.59016      93.841005     -748.43117      247.8875       102.32578      1920.3708      0.9969611
    289000  -634.08061      107.94475     -742.02536      285.14351     -1392.8916      1920.3708      0.9969611
    290000  -636.86048      107.6857      -744.54618      284.45923     -2512.7392      1920.3708      0.9969611
    291000  -648.08563      104.56909     -752.65472      276.22648     -95.052708      1920.3708      0.9969611
    292000  -644.08711      124.57721     -768.66432      329.0793      -169.52316      1920.3708      0.9969611
    293000  -634.90073      107.02766     -741.92839      282.72097     -2374.0287      1920.3708      0.9969611
    294000  -634.86544      116.21032     -751.07576      306.97759      11.254028      1920.3708      0.9969611
    295000  -644.78315      110.25388     -755.03703      291.24323      3052.5292      1920.3708      0.9969611
    296000  -599.70129      123.75315     -723.45444      326.90249     -2588.4315      1920.3708      0.9969611
    297000  -615.11594      122.16628     -737.28222      322.71066      724.31009      1920.3708      0.9969611
    298000  -624.57676      101.65965     -726.23641      268.54099     -1758.4213      1920.3708      0.9969611
    299000  -627.27793      119.21851     -746.49644      314.92393      2741.3102      1920.3708      0.9969611
    300000  -643.13079      112.53263     -755.66343      297.26273     -1372.9008      1920.3708      0.9969611
    301000  -649.72414      115.204       -764.92814      304.31933      433.44869      1920.3708      0.9969611
    302000  -627.1535       107.49521     -734.64871      283.95603      569.92503      1920.3708      0.9969611
    303000  -605.13972      120.97504     -726.11477      319.56394     -1363.2596      1920.3708      0.9969611
    304000  -636.3094       110.50418     -746.81357      291.90442     -1107.9261      1920.3708      0.9969611
    305000  -639.551        99.646181     -739.19718      263.22227     -1148.6238      1920.3708      0.9969611
    306000  -638.66779      99.913596     -738.58139      263.92867      712.82286      1920.3708      0.9969611
    307000  -638.18549      103.72434     -741.90983      273.995       -201.51219      1920.3708      0.9969611
    308000  -643.6646       109.16487     -752.82947      288.36654     -1565.0977      1920.3708      0.9969611
    309000  -641.09496      104.79301     -745.88797      276.81799      1802.2874      1920.3708      0.9969611
    310000  -627.97145      118.28026     -746.25171      312.44548      1577.136       1920.3708      0.9969611
    311000  -633.88971      104.45965     -738.34936      275.93739     -1752.6528      1920.3708      0.9969611
    312000  -647.31096      114.02714     -761.3381       301.21056      1425.754       1920.3708      0.9969611
    313000  -649.44352      111.35995     -760.80347      294.165       -2778.1279      1920.3708      0.9969611
    314000  -622.39444      119.96095     -742.3554       316.88515      560.98185      1920.3708      0.9969611
    315000  -619.81251      116.49324     -736.30575      307.72495     -308.80708      1920.3708      0.9969611
    316000  -642.95706      111.89039     -754.84745      295.56618      246.16239      1920.3708      0.9969611
    317000  -635.56365      111.08343     -746.64709      293.43457     -945.20543      1920.3708      0.9969611
    318000  -629.21464      109.20587     -738.42052      288.47486      1297.317       1920.3708      0.9969611
    319000  -635.95846      106.49007     -742.44853      281.30088      226.45134      1920.3708      0.9969611
    320000  -628.78972      120.44107     -749.23079      318.15341     -1460.8445      1920.3708      0.9969611
    321000  -662.45234      104.50092     -766.95325      276.04639     -295.14053      1920.3708      0.9969611
    322000  -631.90297      115.33741     -747.24038      304.67173      2237.825       1920.3708      0.9969611
    323000  -624.95167      125.63269     -750.58437      331.86744     -1615.439       1920.3708      0.9969611
    324000  -648.11659      96.63397      -744.75056      255.26531     -968.09938      1920.3708      0.9969611
    325000  -642.87728      109.10638     -751.98366      288.21203      3410.3143      1920.3708      0.9969611
    326000  -622.24466      124.28503     -746.52969      328.3075      -500.17384      1920.3708      0.9969611
    327000  -639.15166      107.37012     -746.52178      283.62559      5.2192812      1920.3708      0.9969611
    328000  -621.24276      123.29371     -744.53648      325.68886      2069.7941      1920.3708      0.9969611
    329000  -595.04917      129.48035     -724.52951      342.03128      845.21319      1920.3708      0.9969611
    330000  -601.28316      121.79521     -723.07837      321.73046      561.71864      1920.3708      0.9969611
    331000  -628.98734      110.30191     -739.28925      291.37011      886.55088      1920.3708      0.9969611
    332000  -615.55974      112.28635     -727.84609      296.61214      1430.7669      1920.3708      0.9969611
    333000  -643.20133      117.93136     -761.13269      311.52384     -1030.2911      1920.3708      0.9969611
    334000  -653.38817      112.35697     -765.74514      296.7987       2044.7482      1920.3708      0.9969611
    335000  -639.73926      105.46421     -745.20347      278.59099      1333.8528      1920.3708      0.9969611
    336000  -631.75592      101.45977     -733.21569      268.01301      523.24196      1920.3708      0.9969611
    337000  -600.04155      113.05597     -713.09753      298.64517      1377.5552      1920.3708      0.9969611
    338000  -611.09184      118.34198     -729.43382      312.60851     -1259.9021      1920.3708      0.9969611
    339000  -635.90776      108.4196      -744.32736      286.39787      1802.9243      1920.3708      0.9969611
    340000  -622.58059      108.53736     -731.11795      286.70894      606.08483      1920.3708      0.9969611
    341000  -645.0152       108.24468     -753.25988      285.9358       341.66086      1920.3708      0.9969611
    342000  -640.85095      119.04713     -759.89808      314.47122      3405.1032      1920.3708      0.9969611
    343000  -611.68825      121.69285     -733.38109      321.46006      53.129509      1920.3708      0.9969611
    344000  -629.8215       124.78464     -754.60614      329.62726     -567.99312      1920.3708      0.9969611
    345000  -632.82782      109.27546     -742.10328      288.65868      112.92814      1920.3708      0.9969611
    346000  -626.12503      132.7387      -758.86373      350.63846     -24.333221      1920.3708      0.9969611
    347000  -642.003        116.74967     -758.75268      308.40233     -262.13656      1920.3708      0.9969611
    348000  -620.48449      114.83403     -735.31852      303.34203     -1479.4389      1920.3708      0.9969611
    349000  -649.42964      103.40638     -752.83602      273.1551       1016.9845      1920.3708      0.9969611
    350000  -628.14453      112.84649     -740.99102      298.09181      632.02546      1920.3708      0.9969611
    351000  -622.1035       131.08105     -753.18455      346.25964      478.39851      1920.3708      0.9969611
    352000  -652.81717      114.81447     -767.63163      303.29035     -2897.4191      1920.3708      0.9969611
    353000  -635.88637      115.82403     -751.71041      305.95719     -1351.6434      1920.3708      0.9969611
    354000  -634.71665      116.60867     -751.32532      308.02986     -2164.8063      1920.3708      0.9969611
    355000  -632.29453      128.67035     -760.96488      339.89163      625.17291      1920.3708      0.9969611
    356000  -635.80414      107.26751     -743.07165      283.35454      2070.2919      1920.3708      0.9969611
    357000  -622.64124      110.9931      -733.63434      293.19595     -269.79242      1920.3708      0.9969611
    358000  -638.71434      112.29088     -751.00522      296.62411     -76.552797      1920.3708      0.9969611
    359000  -600.78103      124.39996     -725.18099      328.61109      3058.0535      1920.3708      0.9969611
    360000  -641.45196      114.65949     -756.11146      302.88097      1919.636       1920.3708      0.9969611
    361000  -657.61781      99.431004     -757.04881      262.65387      563.65563      1920.3708      0.9969611
    362000  -633.80247      131.66867     -765.47114      347.81189     -25.016848      1920.3708      0.9969611
    363000  -634.28713      104.524       -738.81113      276.10738     -201.10307      1920.3708      0.9969611
    364000  -629.11882      122.49523     -751.61405      323.57963      684.1572       1920.3708      0.9969611
    365000  -634.1603       112.74249     -746.90279      297.81707      1359.8762      1920.3708      0.9969611
    366000  -641.39436      97.369003     -738.76336      257.20695     -808.09156      1920.3708      0.9969611
    367000  -630.04204      119.04688     -749.08892      314.47055     -177.995        1920.3708      0.9969611
    368000  -612.81522      119.90609     -732.72131      316.74022     -2563.6818      1920.3708      0.9969611
    369000  -652.60023      100.83648     -753.43671      266.36652     -1707.8146      1920.3708      0.9969611
    370000  -633.88852      110.20083     -744.08935      291.10311      1321.2821      1920.3708      0.9969611
    371000  -636.9198       123.3154      -760.2352       325.74616      870.97527      1920.3708      0.9969611
    372000  -655.5322       105.21102     -760.74322      277.92217     -1817.5752      1920.3708      0.9969611
    373000  -651.88844      111.16144     -763.04988      293.64064      1534.8586      1920.3708      0.9969611
    374000  -627.70634      119.25548     -746.96183      315.0216      -617.18938      1920.3708      0.9969611
    375000  -650.03196      96.313923     -746.34588      254.41988      1818.6723      1920.3708      0.9969611
    376000  -622.77601      115.65449     -738.4305       305.50932     -922.75147      1920.3708      0.9969611
    377000  -616.29643      106.9828      -723.27923      282.60247     -549.63008      1920.3708      0.9969611
    378000  -654.4378       108.73347     -763.17127      287.22699     -252.01551      1920.3708      0.9969611
    379000  -621.07683      122.17348     -743.25031      322.72968      2440.8845      1920.3708      0.9969611
    380000  -616.35077      122.92028     -739.27105      324.7024      -1187.8751      1920.3708      0.9969611
    381000  -615.43288      115.67727     -731.11014      305.5695       1649.1901      1920.3708      0.9969611
    382000  -614.28728      117.92115     -732.20843      311.49686      3190.0234      1920.3708      0.9969611
    383000  -628.73599      110.98997     -739.72596      293.18767     -1151.7009      1920.3708      0.9969611
    384000  -630.25211      88.118559     -718.37067      232.77126      1567.6863      1920.3708      0.9969611
    385000  -618.90484      118.87893     -737.78377      314.02691     -662.11663      1920.3708      0.9969611
    386000  -606.15394      140.84153     -746.99547      372.04265     -3095.2349      1920.3708      0.9969611
    387000  -645.77103      109.70398     -755.475        289.79063      2066.0156      1920.3708      0.9969611
    388000  -639.15519      105.98473     -745.13991      279.96598     -2024.8683      1920.3708      0.9969611
    389000  -639.58424      113.1968      -752.78105      299.01718     -1212.6679      1920.3708      0.9969611
    390000  -623.62249      121.31078     -744.93326      320.45081      1362.2736      1920.3708      0.9969611
    391000  -626.57192      108.22841     -734.80033      285.89283      2407.8742      1920.3708      0.9969611
    392000  -647.29285      119.52122     -766.81407      315.72357     -2020.7194      1920.3708      0.9969611
    393000  -620.59512      122.6672      -743.26232      324.03389      991.11846      1920.3708      0.9969611
    394000  -639.55098      98.08602      -737.637        259.101        307.30158      1920.3708      0.9969611
    395000  -650.28989      106.89532     -757.18521      282.37137     -1837.5421      1920.3708      0.9969611
    396000  -632.30927      120.74641     -753.05567      318.95998     -2471.3009      1920.3708      0.9969611
    397000  -637.44458      109.59059     -747.03517      289.49112     -1072.4687      1920.3708      0.9969611
    398000  -619.13191      119.51012     -738.64203      315.69423     -2161.2114      1920.3708      0.9969611
    399000  -633.25824      112.69071     -745.94895      297.68031     -918.92048      1920.3708      0.9969611
    400000  -634.94885      121.63653     -756.58538      321.31129      668.68907      1920.3708      0.9969611
    401000  -636.66673      123.46891     -760.13564      326.15166     -1476.1904      1920.3708      0.9969611
    402000  -628.67475      121.43661     -750.11137      320.7832       1698.8201      1920.3708      0.9969611
    403000  -652.84154      110.25192     -763.09345      291.23805      2458.0804      1920.3708      0.9969611
    404000  -620.45341      115.59099     -736.0444       305.34159      456.00221      1920.3708      0.9969611
    405000  -601.00914      128.67982     -729.68895      339.91663      1397.983       1920.3708      0.9969611
    406000  -634.44697      107.82473     -742.27171      284.82649      3699.0261      1920.3708      0.9969611
    407000  -609.86827      122.18245     -732.05072      322.75339      293.67084      1920.3708      0.9969611
    408000  -634.02085      117.8766      -751.89745      311.37919      883.40325      1920.3708      0.9969611
    409000  -646.90146      105.4148      -752.31626      278.46048     -1110.0901      1920.3708      0.9969611
    410000  -632.47511      118.93406     -751.40917      314.17254      2070.4939      1920.3708      0.9969611
    411000  -651.44918      103.52244     -754.97162      273.46169      753.15117      1920.3708      0.9969611
    412000  -624.65202      118.5949      -743.24691      313.27662      283.52488      1920.3708      0.9969611
    413000  -639.65029      102.24634     -741.89663      270.09079      1286.8315      1920.3708      0.9969611
    414000  -633.27822      114.77252     -748.05074      303.17954      534.45369      1920.3708      0.9969611
    415000  -610.79484      106.11569     -716.91053      280.31192     -1339.203       1920.3708      0.9969611
    416000  -646.19322      110.90087     -757.09409      292.95231     -767.96039      1920.3708      0.9969611
    417000  -658.26233      104.45455     -762.71688      275.92391     -2105.7947      1920.3708      0.9969611
    418000  -633.2671       110.49439     -743.76149      291.87858     -419.2299       1920.3708      0.9969611
    419000  -635.24256      112.38485     -747.62741      296.87236     -726.37573      1920.3708      0.9969611
    420000  -646.94047      101.10222     -748.04269      267.0685       1684.01        1920.3708      0.9969611
    421000  -643.83359      116.88097     -760.71455      308.74916      875.23113      1920.3708      0.9969611
    422000  -668.84923      106.23815     -775.08738      280.63542     -70.598017      1920.3708      0.9969611
    423000  -639.687        97.708834     -737.39583      258.10464      239.86257      1920.3708      0.9969611
    424000  -588.44508      130.96703     -719.41211      345.95846      317.4413       1920.3708      0.9969611
    425000  -635.36055      107.86341     -743.22396      284.92864      1171.9063      1920.3708      0.9969611
    426000  -640.4576       107.12498     -747.58258      282.97803     -558.58483      1920.3708      0.9969611
    427000  -614.11304      118.4486      -732.56164      312.89016     -248.11727      1920.3708      0.9969611
    428000  -625.75556      122.28516     -748.04072      323.0247       1066.2147      1920.3708      0.9969611
    429000  -622.83575      113.67628     -736.51203      300.28374     -536.39661      1920.3708      0.9969611
    430000  -640.22097      111.15953     -751.38049      293.63557     -334.86382      1920.3708      0.9969611
    431000  -609.58918      115.15699     -724.74617      304.19516     -757.82727      1920.3708      0.9969611
    432000  -623.92496      106.53031     -730.45527      281.40717     -1181.6806      1920.3708      0.9969611
    433000  -627.00229      119.18503     -746.18732      314.8355      -2735.7856      1920.3708      0.9969611
    434000  -624.71931      117.25113     -741.97044      309.72697      739.83274      1920.3708      0.9969611
    435000  -655.08798      96.812004     -751.89998      255.7356      -187.03165      1920.3708      0.9969611
    436000  -603.45111      115.10634     -718.55745      304.06136      2534.8757      1920.3708      0.9969611
    437000  -622.37698      113.81152     -736.1885       300.64099      1103.2228      1920.3708      0.9969611
    438000  -643.49098      104.85285     -748.34384      276.97605     -150.30045      1920.3708      0.9969611
    439000  -620.84008      113.12394     -733.96403      298.82471     -383.65488      1920.3708      0.9969611
    440000  -624.51202      113.86593     -738.37795      300.78471      598.85223      1920.3708      0.9969611
    441000  -620.51688      109.08419     -729.60107      288.15343      420.38363      1920.3708      0.9969611
    442000  -616.0723       113.60669     -729.67899      300.09994     -783.57517      1920.3708      0.9969611
    443000  -647.903        111.80664     -759.70963      295.34496      684.57122      1920.3708      0.9969611
    444000  -618.27989      99.407757     -717.68764      262.59246      1198.6245      1920.3708      0.9969611
    445000  -648.37174      102.62739     -750.99913      271.09734      607.81445      1920.3708      0.9969611
    446000  -622.11728      109.70609     -731.82337      289.79621     -425.83057      1920.3708      0.9969611
    447000  -642.80596      98.358192     -741.16416      259.81996      615.76571      1920.3708      0.9969611
    448000  -620.87232      118.79187     -739.66419      313.79694     -111.0651       1920.3708      0.9969611
    449000  -615.23963      114.51385     -729.75348      302.49625      775.73043      1920.3708      0.9969611
    450000  -629.46956      112.53196     -742.00152      297.26095     -1294.2486      1920.3708      0.9969611
    451000  -617.50977      119.57639     -737.08616      315.8693      -706.1731       1920.3708      0.9969611
    452000  -630.31824      123.76129     -754.07953      326.92399     -1166.1484      1920.3708      0.9969611
    453000  -612.95918      122.70936     -735.66854      324.14525      3417.5974      1920.3708      0.9969611
    454000  -631.90517      108.642       -740.54717      286.98535      374.60373      1920.3708      0.9969611
    455000  -606.59874      120.94158     -727.54032      319.47554     -2197.7365      1920.3708      0.9969611
    456000  -620.39416      114.19546     -734.58962      301.65519     -2583.8033      1920.3708      0.9969611
    457000  -648.95732      112.01373     -760.97105      295.89201     -2988.6043      1920.3708      0.9969611
    458000  -623.80225      116.97545     -740.7777       308.99873      3411.3221      1920.3708      0.9969611
    459000  -613.48978      130.60265     -744.09243      344.99592      532.27394      1920.3708      0.9969611
    460000  -640.04183      109.9951      -750.03694      290.55967     -665.98015      1920.3708      0.9969611
    461000  -639.52986      106.28181     -745.81167      280.75074      1186.3911      1920.3708      0.9969611
    462000  -634.18763      113.9846      -748.17223      301.09821      1828.2301      1920.3708      0.9969611
    463000  -609.33373      117.46342     -726.79714      310.28773     -617.65177      1920.3708      0.9969611
    464000  -646.36099      122.62143     -768.98242      323.91299     -1824.4795      1920.3708      0.9969611
    465000  -623.04396      112.42514     -735.4691       296.97878     -238.80494      1920.3708      0.9969611
    466000  -641.79345      106.74825     -748.54169      281.98287     -499.44855      1920.3708      0.9969611
    467000  -646.19115      106.86947     -753.06062      282.3031       1082.7242      1920.3708      0.9969611
    468000  -617.84047      117.49253     -735.333        310.36464      1064.0676      1920.3708      0.9969611
    469000  -646.7827       105.41731     -752.2          278.4671       1768.4524      1920.3708      0.9969611
    470000  -614.76766      113.78587     -728.55353      300.57324      1380.2955      1920.3708      0.9969611
    471000  -617.71513      116.18901     -733.90414      306.9213       2213.8549      1920.3708      0.9969611
    472000  -639.04598      112.699       -751.74498      297.7022       979.2564       1920.3708      0.9969611
    473000  -595.28771      130.41841     -725.70613      344.50925      662.29516      1920.3708      0.9969611
    474000  -632.49475      111.88702     -744.38177      295.55729      359.69858      1920.3708      0.9969611
    475000  -619.12435      120.76528     -739.88963      319.00983     -490.80103      1920.3708      0.9969611
    476000  -623.66073      123.01435     -746.67507      324.9509       1542.9684      1920.3708      0.9969611
    477000  -615.96944      113.10834     -729.07778      298.7835      -540.7817       1920.3708      0.9969611
    478000  -595.43361      113.33268     -708.76629      299.37611      2921.3245      1920.3708      0.9969611
    479000  -636.02978      113.15934     -749.18912      298.91821      2537.9687      1920.3708      0.9969611
    480000  -647.35046      112.41101     -759.76147      296.94145      1314.5921      1920.3708      0.9969611
    481000  -624.41417      122.17773     -746.59189      322.74091      346.16633      1920.3708      0.9969611
    482000  -645.39623      112.08337     -757.4796       296.07597      185.22179      1920.3708      0.9969611
    483000  -653.38231      104.52067     -757.90297      276.09856     -883.86161      1920.3708      0.9969611
    484000  -657.36821      108.69034     -766.05856      287.11306     -1718.2098      1920.3708      0.9969611
    485000  -634.94789      120.54357     -755.49146      318.42417     -1873.0498      1920.3708      0.9969611
    486000  -656.57693      107.72078     -764.29771      284.55189     -316.90059      1920.3708      0.9969611
    487000  -637.94231      113.60493     -751.54724      300.09526     -3067.6466      1920.3708      0.9969611
    488000  -622.29577      118.33697     -740.63274      312.59528      2562.1645      1920.3708      0.9969611
    489000  -648.36927      106.12114     -754.49042      280.32633     -146.42594      1920.3708      0.9969611
    490000  -645.14144      106.89535     -752.03679      282.37145     -742.25216      1920.3708      0.9969611
    491000  -651.19758      103.58475     -754.78233      273.62628     -1361.9642      1920.3708      0.9969611
    492000  -621.65819      105.93632     -727.59451      279.83811     -370.10191      1920.3708      0.9969611
    493000  -640.5692       106.53858     -747.10778      281.42903      199.74044      1920.3708      0.9969611
    494000  -622.61722      128.18038     -750.7976       338.59734     -381.23508      1920.3708      0.9969611
    495000  -653.56692      101.74167     -755.30859      268.75765     -1079.0253      1920.3708      0.9969611
    496000  -646.12814      112.7932      -758.92135      297.95104     -2369.3915      1920.3708      0.9969611
    497000  -632.31189      109.55281     -741.8647       289.39133      1647.1904      1920.3708      0.9969611
    498000  -623.94537      118.42993     -742.3753       312.84084      922.91869      1920.3708      0.9969611
    499000  -625.12929      108.67222     -733.80151      287.06518     -2256.3656      1920.3708      0.9969611
    500000  -638.80882      118.31156     -757.12038      312.52817     -102.98469      1920.3708      0.9969611
    501000  -656.18012      109.3057      -765.48582      288.73857      360.63955      1920.3708      0.9969611
    502000  -617.77004      108.27204     -726.04208      286.00808      618.00655      1920.3708      0.9969611
    503000  -629.09256      114.12889     -743.22145      301.47935      297.00907      1920.3708      0.9969611
    504000  -630.53511      111.29781     -741.83292      294.00086      2656.8336      1920.3708      0.9969611
    505000  -618.41513      118.77824     -737.19338      313.76094      2310.1745      1920.3708      0.9969611
    506000  -642.17224      112.52445     -754.69669      297.2411       957.42596      1920.3708      0.9969611
    507000  -648.18355      113.47331     -761.65686      299.7476      -633.96056      1920.3708      0.9969611
    508000  -640.71027      105.24035     -745.95063      277.99967      52.56204       1920.3708      0.9969611
    509000  -619.61648      113.01515     -732.63163      298.53732     -1437.4833      1920.3708      0.9969611
    510000  -654.05105      107.46734     -761.51839      283.88241     -34.94559       1920.3708      0.9969611
    511000  -622.78634      113.88154     -736.66787      300.82595      4524.6901      1920.3708      0.9969611
    512000  -617.47009      113.71731     -731.1874       300.39212      238.42819      1920.3708      0.9969611
    513000  -637.01382      111.8154      -748.82922      295.3681       2556.8904      1920.3708      0.9969611
    514000  -638.38107      109.47902     -747.86009      289.1964      -1110.4152      1920.3708      0.9969611
    515000  -619.08123      109.88081     -728.96204      290.25774      2381.4827      1920.3708      0.9969611
    516000  -629.34203      118.12267     -747.4647       312.0292      -149.42363      1920.3708      0.9969611
    517000  -619.65276      111.52334     -731.17609      294.5966       772.59609      1920.3708      0.9969611
    518000  -620.78454      122.12521     -742.90976      322.60219     -89.473837      1920.3708      0.9969611
    519000  -640.57282      111.55116     -752.12398      294.6701      -577.46508      1920.3708      0.9969611
    520000  -662.99561      115.09297     -778.08858      304.02603      2549.2408      1920.3708      0.9969611
    521000  -620.51606      116.13734     -736.6534       306.78481     -1616.3141      1920.3708      0.9969611
    522000  -628.35128      114.38606     -742.73734      302.15867     -1154.413       1920.3708      0.9969611
    523000  -633.95152      119.8941      -753.84562      316.70855     -189.29594      1920.3708      0.9969611
    524000  -649.59756      103.23394     -752.8315       272.69958      176.73315      1920.3708      0.9969611
    525000  -633.82005      115.70765     -749.5277       305.64975      821.02485      1920.3708      0.9969611
    526000  -643.78217      107.71779     -751.49996      284.54398      1797.2621      1920.3708      0.9969611
    527000  -663.69488      104.78069     -768.47557      276.78543     -1061.6449      1920.3708      0.9969611
    528000  -623.45142      122.04713     -745.49855      322.39593      1410.9046      1920.3708      0.9969611
    529000  -605.16013      129.42407     -734.5842       341.88261      177.30368      1920.3708      0.9969611
    530000  -617.48799      123.87533     -741.36332      327.22525     -1337.9104      1920.3708      0.9969611
    531000  -629.15921      117.81444     -746.97365      311.21498     -1880.1221      1920.3708      0.9969611
    532000  -638.49752      107.83212     -746.32965      284.846       -1346.1299      1920.3708      0.9969611
    533000  -606.77625      118.0655      -724.84175      311.87818      272.29835      1920.3708      0.9969611
    534000  -656.49664      106.92897     -763.42561      282.46026      1006.6516      1920.3708      0.9969611
    535000  -620.4149       108.98112     -729.39602      287.88117      844.38398      1920.3708      0.9969611
    536000  -627.24187      116.47019     -743.71207      307.66407     -1348.7478      1920.3708      0.9969611
    537000  -633.16131      111.93007     -745.09138      295.67102      1587.7454      1920.3708      0.9969611
    538000  -631.26391      115.35568     -746.61958      304.71999     -2644.3311      1920.3708      0.9969611
    539000  -594.35614      137.26006     -731.61619      362.58193      369.21316      1920.3708      0.9969611
    540000  -626.38723      112.90568     -739.2929       298.24815      475.20409      1920.3708      0.9969611
    541000  -640.35091      110.73836     -751.08927      292.52303     -1088.2454      1920.3708      0.9969611
    542000  -616.92056      120.00804     -736.92861      317.00954      1216.9855      1920.3708      0.9969611
    543000  -584.56669      129.98718     -714.55387      343.37013     -214.39258      1920.3708      0.9969611
    544000  -622.40243      105.08534     -727.48776      277.59018      3045.2692      1920.3708      0.9969611
    545000  -646.27181      120.03437     -766.30618      317.07908     -1645.333       1920.3708      0.9969611
    546000  -622.121        118.33923     -740.46023      312.60125     -528.96029      1920.3708      0.9969611
    547000  -614.29256      126.22051     -740.51307      333.4202      -64.857012      1920.3708      0.9969611
    548000  -648.83933      103.28855     -752.12788      272.84385     -1153.7444      1920.3708      0.9969611
    549000  -655.3667       112.68395     -768.05065      297.66244      2186.2043      1920.3708      0.9969611
    550000  -659.54689      107.20821     -766.75509      283.19789      848.11541      1920.3708      0.9969611
    551000  -625.04805      129.67311     -754.72115      342.54047     -2166.0307      1920.3708      0.9969611
    552000  -642.91195      107.40752     -750.31947      283.72439      1122.2875      1920.3708      0.9969611
    553000  -650.61851      113.84181     -764.46033      300.72102     -1106.8772      1920.3708      0.9969611
    554000  -650.00125      108.33456     -758.33581      286.17322      1676.9242      1920.3708      0.9969611
    555000  -645.74659      106.90838     -752.65496      282.40587     -2304.7903      1920.3708      0.9969611
    556000  -648.1335       104.98463     -753.11813      277.32416      71.1663        1920.3708      0.9969611
    557000  -610.36453      115.28137     -725.6459       304.52371     -2822.6574      1920.3708      0.9969611
    558000  -621.21422      110.94532     -732.15954      293.06973     -427.44962      1920.3708      0.9969611
    559000  -646.97488      98.430227     -745.40511      260.01025      2047.2773      1920.3708      0.9969611
    560000  -636.62343      114.95193     -751.57536      303.65347      794.34772      1920.3708      0.9969611
    561000  -636.21332      116.99919     -753.21251      309.06143     -1175.9832      1920.3708      0.9969611
    562000  -658.81989      110.08905     -768.90894      290.80784     -2252.8341      1920.3708      0.9969611
    563000  -639.4995       101.65229     -741.15179      268.52155     -1080.7047      1920.3708      0.9969611
    564000  -627.77154      102.84973     -730.62127      271.68468     -822.60058      1920.3708      0.9969611
    565000  -648.68353      98.397324     -747.08085      259.92333      893.24863      1920.3708      0.9969611
    566000  -643.21205      108.44472     -751.65677      286.46422      321.97833      1920.3708      0.9969611
    567000  -618.99502      116.22296     -735.21798      307.01099     -2891.3498      1920.3708      0.9969611
    568000  -612.24679      124.47181     -736.7186       328.80088     -421.68237      1920.3708      0.9969611
    569000  -639.92284      111.49757     -751.42042      294.52854      1240.9859      1920.3708      0.9969611
    570000  -643.92458      109.91865     -753.84323      290.35771     -1627.2618      1920.3708      0.9969611
    571000  -610.79932      125.37433     -736.17365      331.18496      892.84331      1920.3708      0.9969611
    572000  -633.38622      109.56727     -742.95348      289.42951      4048.2099      1920.3708      0.9969611
    573000  -624.86621      124.55763     -749.42384      329.02758     -492.06141      1920.3708      0.9969611
    574000  -604.82026      124.32121     -729.14147      328.40307      2643.4708      1920.3708      0.9969611
    575000  -613.76817      128.2762      -742.04437      338.85044      372.24556      1920.3708      0.9969611
    576000  -652.42532      116.87185     -769.29717      308.72508     -1384.8833      1920.3708      0.9969611
    577000  -647.12201      108.45267     -755.57469      286.48523      3136.6108      1920.3708      0.9969611
    578000  -647.90542      110.80161     -758.70703      292.6901      -1575.8004      1920.3708      0.9969611
    579000  -615.16834      108.70672     -723.87506      287.15632      134.17399      1920.3708      0.9969611
    580000  -630.91299      109.62024     -740.53323      289.56944     -737.7325       1920.3708      0.9969611
    581000  -601.85863      125.62279     -727.48142      331.84129      1426.7717      1920.3708      0.9969611
    582000  -639.96216      112.3036      -752.26576      296.65772     -872.36323      1920.3708      0.9969611
    583000  -659.84859      97.66587      -757.51446      257.99115      553.34874      1920.3708      0.9969611
    584000  -631.41781      107.85194     -739.26975      284.89835     -537.53675      1920.3708      0.9969611
    585000  -629.08392      129.44285     -758.52676      341.93222      166.04589      1920.3708      0.9969611
    586000  -621.8002       126.29101     -748.09121      333.60643      385.2677       1920.3708      0.9969611
    587000  -629.99244      119.2887      -749.28114      315.10934      854.05569      1920.3708      0.9969611
    588000  -635.57398      111.33265     -746.90663      294.09288     -1570.8899      1920.3708      0.9969611
    589000  -629.38067      116.55201     -745.93268      307.88018      2968.9587      1920.3708      0.9969611
    590000  -643.0515       112.51606     -755.56756      297.21894     -1240.7854      1920.3708      0.9969611
    591000  -635.86721      116.97942     -752.84663      309.00923     -170.53486      1920.3708      0.9969611
    592000  -667.90009      107.15763     -775.05772      283.06428     -677.24393      1920.3708      0.9969611
    593000  -640.09676      106.72196     -746.81871      281.91342      3543.8797      1920.3708      0.9969611
    594000  -645.11291      107.3999      -752.51281      283.70425      209.64414      1920.3708      0.9969611
    595000  -625.42476      128.05781     -753.48257      338.27355     -85.536324      1920.3708      0.9969611
    596000  -652.37121      115.20064     -767.57185      304.31045     -817.60408      1920.3708      0.9969611
    597000  -610.54309      113.7318      -724.27489      300.43042     -2145.1332      1920.3708      0.9969611
    598000  -627.25128      114.83914     -742.09042      303.35554     -822.59853      1920.3708      0.9969611
    599000  -640.53114      99.088788     -739.61993      261.74988      2191.5232      1920.3708      0.9969611
    600000  -629.20346      120.21841     -749.42187      317.56525     -1499.5509      1920.3708      0.9969611
    601000  -621.83501      116.0358      -737.87081      306.51659     -3504.3485      1920.3708      0.9969611
    602000  -624.86819      115.65142     -740.51961      305.50123     -455.67181      1920.3708      0.9969611
    603000  -626.93675      110.66824     -737.605        292.33781     -169.75502      1920.3708      0.9969611
    604000  -669.43261      100.71458     -770.14719      266.04452     -1547.5092      1920.3708      0.9969611
    605000  -614.3032       101.52285     -715.82604      268.17961      2990.6452      1920.3708      0.9969611
    606000  -604.38344      118.95554     -723.33898      314.22929     -1418.1736      1920.3708      0.9969611
    607000  -617.20613      114.13904     -731.34517      301.50616      689.51708      1920.3708      0.9969611
    608000  -628.08482      123.46892     -751.55374      326.15169     -613.7302       1920.3708      0.9969611
    609000  -634.81703      109.64337     -744.4604       289.63053     -778.29592      1920.3708      0.9969611
    610000  -630.25276      114.65117     -744.90393      302.859        233.54946      1920.3708      0.9969611
    611000  -659.30338      121.16613     -780.4695       320.0687       2816.4864      1920.3708      0.9969611
    612000  -635.26756      108.42766     -743.69521      286.41915      966.87321      1920.3708      0.9969611
    613000  -665.01027      97.224681     -762.23495      256.82571     -17.393216      1920.3708      0.9969611
    614000  -622.24289      107.55095     -729.79384      284.10326      297.32024      1920.3708      0.9969611
    615000  -613.0378       127.27821     -740.31602      336.21419      1008.577       1920.3708      0.9969611
    616000  -642.19404      109.515       -751.70903      289.29144      20.058688      1920.3708      0.9969611
    617000  -645.85624      112.93203     -758.78826      298.31775      2173.7416      1920.3708      0.9969611
    618000  -663.80022      102.52207     -766.32228      270.81913     -1440.4939      1920.3708      0.9969611
    619000  -602.32557      128.59553     -730.9211       339.69397     -2585.3987      1920.3708      0.9969611
    620000  -629.05655      97.394374     -726.45093      257.27397      304.94906      1920.3708      0.9969611
    621000  -624.90308      113.88722     -738.7903       300.84096      4207.6624      1920.3708      0.9969611
    622000  -627.39819      112.7283      -740.12649      297.7796       1258.4165      1920.3708      0.9969611
    623000  -638.01396      118.14511     -756.15907      312.08848     -246.53151      1920.3708      0.9969611
    624000  -638.14009      110.61533     -748.75542      292.19803     -1322.8282      1920.3708      0.9969611
    625000  -657.89196      112.74268     -770.63464      297.81759     -262.8051       1920.3708      0.9969611
    626000  -670.72124      102.33372     -773.05495      270.32158     -1162.1197      1920.3708      0.9969611
    627000  -622.42554      128.14491     -750.57045      338.50363      531.97954      1920.3708      0.9969611
    628000  -624.55517      116.35402     -740.90919      307.35719      3143.7626      1920.3708      0.9969611
    629000  -650.48476      109.51604     -760.0008       289.29419      762.25328      1920.3708      0.9969611
    630000  -625.54189      107.76884     -733.31074      284.67885      1552.0317      1920.3708      0.9969611
    631000  -630.21584      111.63706     -741.85289      294.897       -1606.174       1920.3708      0.9969611
    632000  -606.4732       134.72184     -741.19505      355.87706     -159.57651      1920.3708      0.9969611
    633000  -615.27806      115.28802     -730.56607      304.54127      1464.841       1920.3708      0.9969611
    634000  -647.82121      93.755929     -741.57714      247.66277     -1466.8326      1920.3708      0.9969611
    635000  -635.07764      113.19482     -748.27246      299.01195     -98.064935      1920.3708      0.9969611
    636000  -616.70816      112.51387     -729.22203      297.21317      1389.8677      1920.3708      0.9969611
    637000  -652.80032      107.29364     -760.09396      283.42356      800.38799      1920.3708      0.9969611
    638000  -640.13321      113.4943      -753.62751      299.80303     -80.699754      1920.3708      0.9969611
    639000  -646.21584      119.70055     -765.91639      316.19728      982.73882      1920.3708      0.9969611
    640000  -665.83803      99.501913     -765.33994      262.84118     -2671.9793      1920.3708      0.9969611
    641000  -630.77778      118.82017     -749.59795      313.87169     -1111.0527      1920.3708      0.9969611
    642000  -654.36337      109.45398     -763.81736      289.13026     -898.26199      1920.3708      0.9969611
    643000  -632.0835       121.00908     -753.09258      319.65384     -791.44397      1920.3708      0.9969611
    644000  -641.99726      108.44326     -750.44053      286.46037     -1630.5025      1920.3708      0.9969611
    645000  -610.76433      132.69604     -743.46037      350.52577     -1895.5353      1920.3708      0.9969611
    646000  -629.02298      106.35661     -735.3796       280.94835     -258.48479      1920.3708      0.9969611
    647000  -647.83345      108.89284     -756.72629      287.64796      1577.6232      1920.3708      0.9969611
    648000  -624.21328      98.347322     -722.56061      259.79125      1026.1106      1920.3708      0.9969611
    649000  -632.46693      117.48223     -749.94916      310.33742      0.46423269     1920.3708      0.9969611
    650000  -628.86595      115.2815      -744.14745      304.52405      311.24507      1920.3708      0.9969611
    651000  -618.7829       107.30657     -726.08946      283.45772     -962.84955      1920.3708      0.9969611
    652000  -609.19235      125.72355     -734.91591      332.10746     -2716.154       1920.3708      0.9969611
    653000  -659.28066      108.96577     -768.24643      287.84062     -962.82357      1920.3708      0.9969611
    654000  -629.3254       114.70736     -744.03276      303.00741      1324.5554      1920.3708      0.9969611
    655000  -660.12015      117.27945     -777.3996       309.80178     -131.9993       1920.3708      0.9969611
    656000  -643.73764      109.46814     -753.20578      289.16765     -79.701156      1920.3708      0.9969611
    657000  -607.97177      119.00134     -726.97311      314.35025     -661.31595      1920.3708      0.9969611
    658000  -624.25906      125.57703     -749.83609      331.7204      -2407.1077      1920.3708      0.9969611
    659000  -610.51774      120.38491     -730.90265      318.00506     -492.51843      1920.3708      0.9969611
    660000  -651.32594      93.82185      -745.14779      247.8369      -1172.8746      1920.3708      0.9969611
    661000  -645.05294      109.36128     -754.41422      288.88538      1225.1931      1920.3708      0.9969611
    662000  -660.00707      110.27818     -770.28526      291.30744      157.98259      1920.3708      0.9969611
    663000  -633.32613      113.77074     -747.09686      300.53326     -1519.2468      1920.3708      0.9969611
    664000  -632.04711      108.79444     -740.84156      287.38804      1852.5135      1920.3708      0.9969611
    665000  -639.27165      106.32982     -745.60147      280.87758      66.916527      1920.3708      0.9969611
    666000  -636.36925      104.72057     -741.08982      276.62663     -767.79565      1920.3708      0.9969611
    667000  -641.17109      112.80268     -753.97377      297.97607      1107.201       1920.3708      0.9969611
    668000  -634.51395      112.09996     -746.6139       296.11979      875.67687      1920.3708      0.9969611
    669000  -642.60341      111.20092     -753.80434      293.74493      834.22195      1920.3708      0.9969611
    670000  -629.01283      122.85295     -751.86578      324.52457     -41.523457      1920.3708      0.9969611
    671000  -648.88156      118.57492     -767.45648      313.22386     -1489.5966      1920.3708      0.9969611
    672000  -660.50545      104.54793     -765.05338      276.17057     -1415.2416      1920.3708      0.9969611
    673000  -629.88344      128.87708     -758.76051      340.4377       295.84211      1920.3708      0.9969611
    674000  -653.1451       106.42831     -759.57342      281.13775     -93.952752      1920.3708      0.9969611
    675000  -674.0484       107.07878     -781.12717      282.85599     -2409.0431      1920.3708      0.9969611
    676000  -633.28536      115.11795     -748.40331      304.09202      2319.7189      1920.3708      0.9969611
    677000  -642.27581      106.69268     -748.96849      281.83609      314.53138      1920.3708      0.9969611
    678000  -626.12619      123.22842     -749.35461      325.51639     -62.594308      1920.3708      0.9969611
    679000  -592.77727      128.89017     -721.66744      340.47229      2691.6426      1920.3708      0.9969611
    680000  -616.38126      127.73851     -744.11977      337.43011     -1811.4168      1920.3708      0.9969611
    681000  -630.83215      114.8852      -745.71735      303.4772      -1510.9216      1920.3708      0.9969611
    682000  -609.30798      123.79682     -733.1048       327.01785      1875.192       1920.3708      0.9969611
    683000  -639.2324       107.83353     -747.06594      284.84973     -1275.6663      1920.3708      0.9969611
    684000  -645.62138      108.62079     -754.24217      286.92931      3064.1963      1920.3708      0.9969611
    685000  -605.97814      113.50666     -719.4848       299.8357      -1499.5162      1920.3708      0.9969611
    686000  -640.71626      117.63596     -758.35222      310.74351     -1551.4173      1920.3708      0.9969611
    687000  -633.04473      118.24008     -751.28481      312.33934      233.46844      1920.3708      0.9969611
    688000  -624.7914       118.66147     -743.45287      313.45248     -823.97471      1920.3708      0.9969611
    689000  -628.04022      115.26762     -743.30784      304.48737     -10.77274       1920.3708      0.9969611
    690000  -614.15629      119.47638     -733.63267      315.6051      -1247.5683      1920.3708      0.9969611
    691000  -643.03223      113.05777     -756.09         298.64991      325.83854      1920.3708      0.9969611
    692000  -652.12263      111.65796     -763.78059      294.95221     -677.67345      1920.3708      0.9969611
    693000  -650.28955      108.02812     -758.31766      285.36374      884.24763      1920.3708      0.9969611
    694000  -638.45726      108.89272     -747.34998      287.64764      520.92109      1920.3708      0.9969611
    695000  -620.05724      130.67665     -750.73389      345.19141      2337.5571      1920.3708      0.9969611
    696000  -656.87919      105.29052     -762.16971      278.13219     -1575.1404      1920.3708      0.9969611
    697000  -636.66285      113.24699     -749.90984      299.14976      268.15504      1920.3708      0.9969611
    698000  -634.90067      108.61171     -743.51238      286.90535     -3406.6244      1920.3708      0.9969611
    699000  -605.39111      117.30248     -722.69359      309.8626      -973.36551      1920.3708      0.9969611
    700000  -637.55565      90.148872     -727.70452      238.13447      704.19708      1920.3708      0.9969611
    701000  -624.96363      117.51821     -742.48184      310.43248      1628.6382      1920.3708      0.9969611
    702000  -631.46241      118.29686     -749.75927      312.48933     -2766.4424      1920.3708      0.9969611
    703000  -623.34559      117.22861     -740.57419      309.66747     -1101.2698      1920.3708      0.9969611
    704000  -669.53394      103.16627     -772.70022      272.52084      232.54107      1920.3708      0.9969611
    705000  -642.35885      109.48897     -751.84782      289.22267      974.31197      1920.3708      0.9969611
    706000  -630.34415      106.61171     -736.95586      281.62221      3212.6211      1920.3708      0.9969611
    707000  -630.98787      112.44725     -743.43512      297.03718     -818.69385      1920.3708      0.9969611
    708000  -615.78311      125.7136      -741.49671      332.08116      80.320448      1920.3708      0.9969611
    709000  -647.72876      102.98733     -750.71609      272.04815      1503.1021      1920.3708      0.9969611
    710000  -612.44696      104.68627     -717.13323      276.53602      1159.9534      1920.3708      0.9969611
    711000  -613.3239       112.27394     -725.59785      296.57938     -1092.6291      1920.3708      0.9969611
    712000  -610.45522      114.12855     -724.58377      301.47845      151.76282      1920.3708      0.9969611
    713000  -617.37343      115.61527     -732.9887       305.40574     -320.57008      1920.3708      0.9969611
    714000  -609.29385      115.33719     -724.63104      304.67116     -1805.621       1920.3708      0.9969611
    715000  -620.14979      126.89273     -747.04252      335.19592      4029.3803      1920.3708      0.9969611
    716000  -633.99552      112.35058     -746.3461       296.78183      136.71104      1920.3708      0.9969611
    717000  -653.13229      105.72173     -758.85403      279.27127      773.3941       1920.3708      0.9969611
    718000  -667.79365      107.15135     -774.945        283.04771     -40.303822      1920.3708      0.9969611
    719000  -644.49647      111.82062     -756.31708      295.38188      1695.743       1920.3708      0.9969611
    720000  -635.2813       116.84702     -752.12833      308.65949     -789.7807       1920.3708      0.9969611
    721000  -628.4372       117.69625     -746.13345      310.90278      1334.4135      1920.3708      0.9969611
    722000  -625.97226      117.38652     -743.35878      310.08461      937.18965      1920.3708      0.9969611
    723000  -615.69381      136.10848     -751.80229      359.53996      885.39104      1920.3708      0.9969611
    724000  -651.34721      97.796937     -749.14414      258.33737      759.77202      1920.3708      0.9969611
    725000  -658.56609      104.86803     -763.43412      277.01615     -562.18102      1920.3708      0.9969611
    726000  -642.44547      118.26218     -760.70765      312.39773     -1096.5126      1920.3708      0.9969611
    727000  -630.02058      124.6695      -754.69008      329.32311     -1763.4409      1920.3708      0.9969611
    728000  -639.08623      104.49979     -743.58602      276.04342     -661.76276      1920.3708      0.9969611
    729000  -630.20227      118.87889     -749.08115      314.02679      906.60874      1920.3708      0.9969611
    730000  -628.78744      116.87944     -745.66688      308.74513     -318.33908      1920.3708      0.9969611
    731000  -607.45578      136.48522     -743.94101      360.53515      740.66438      1920.3708      0.9969611
    732000  -646.47806      105.64247     -752.12053      279.06189      1925.2876      1920.3708      0.9969611
    733000  -617.58872      127.01489     -744.60362      335.51862     -520.8838       1920.3708      0.9969611
    734000  -605.69827      119.07413     -724.7724       314.54253     -2280.9087      1920.3708      0.9969611
    735000  -621.88456      116.38788     -738.27244      307.44664      1059.786       1920.3708      0.9969611
    736000  -617.42349      109.74841     -727.1719       289.908        1210.976       1920.3708      0.9969611
    737000  -641.95578      117.30041     -759.2562       309.85715      3181.8597      1920.3708      0.9969611
    738000  -636.90623      116.90121     -753.80744      308.80263     -2554.4711      1920.3708      0.9969611
    739000  -620.15736      121.07312     -741.23048      319.82302     -2852.0211      1920.3708      0.9969611
    740000  -645.08304      106.75654     -751.83958      282.00478      902.97294      1920.3708      0.9969611
    741000  -611.65721      120.14973     -731.80694      317.38382     -1922.09        1920.3708      0.9969611
    742000  -649.2524       110.35344     -759.60585      291.50624     -1625.7515      1920.3708      0.9969611
    743000  -639.10895      101.7341      -740.84306      268.73766      997.33229      1920.3708      0.9969611
    744000  -662.34123      100.08577     -762.427        264.38348     -758.65418      1920.3708      0.9969611
    745000  -645.23171      122.75477     -767.98648      324.26522      1311.5018      1920.3708      0.9969611
    746000  -639.12898      108.63253     -747.76152      286.96034      768.98265      1920.3708      0.9969611
    747000  -624.7627       133.43547     -758.19817      352.47901      559.75969      1920.3708      0.9969611
    748000  -653.45486      108.02106     -761.47591      285.34508     -456.21013      1920.3708      0.9969611
    749000  -619.00873      119.81989     -738.82862      316.51252      2530.4248      1920.3708      0.9969611
    750000  -625.55175      119.44492     -744.99666      315.522        41.887476      1920.3708      0.9969611
    751000  -639.32286      114.44314     -753.766        302.30946     -2355.6255      1920.3708      0.9969611
    752000  -652.93049      119.42281     -772.3533       315.46362     -465.3368       1920.3708      0.9969611
    753000  -610.92306      119.41046     -730.33352      315.43099     -66.484115      1920.3708      0.9969611
    754000  -604.60527      107.99445     -712.59972      285.2748      -2681.2201      1920.3708      0.9969611
    755000  -640.45028      103.12651     -743.5768       272.41581     -1686.3565      1920.3708      0.9969611
    756000  -640.87341      123.31117     -764.18457      325.73497     -909.77589      1920.3708      0.9969611
    757000  -625.98658      131.17188     -757.15847      346.4996      -1109.2138      1920.3708      0.9969611
    758000  -653.48855      114.51361     -768.00216      302.49562      1137.5295      1920.3708      0.9969611
    759000  -658.56706      101.12444     -759.6915       267.1272      -482.91629      1920.3708      0.9969611
    760000  -629.21417      113.78707     -743.00124      300.5764      -1061.4191      1920.3708      0.9969611
    761000  -633.2664       114.86804     -748.13444      303.43187     -1246.6787      1920.3708      0.9969611
    762000  -643.46135      105.04584     -748.5072       277.48585      629.73401      1920.3708      0.9969611
    763000  -632.7392       104.51238     -737.25158      276.07667      2477.3687      1920.3708      0.9969611
    764000  -644.34637      123.02265     -767.36902      324.97283     -776.99467      1920.3708      0.9969611
    765000  -658.01666      105.26501     -763.28166      278.06479      799.58675      1920.3708      0.9969611
    766000  -645.7779       109.05427     -754.83217      288.07439      1046.3526      1920.3708      0.9969611
    767000  -642.59301      103.82098     -746.41399      274.2503       1484.0195      1920.3708      0.9969611
    768000  -592.33202      128.16275     -720.49477      338.55075      2589.9265      1920.3708      0.9969611
    769000  -623.20717      106.10832     -729.31548      280.29245     -40.695808      1920.3708      0.9969611
    770000  -641.98718      97.148067     -739.13525      256.62333     -1842.5045      1920.3708      0.9969611
    771000  -630.55331      107.61058     -738.16389      284.26079      1356.0787      1920.3708      0.9969611
    772000  -644.14424      106.75087     -750.8951       281.98979      3009.327       1920.3708      0.9969611
    773000  -628.78479      114.02438     -742.80916      301.20327     -3995.1374      1920.3708      0.9969611
    774000  -645.78474      114.08866     -759.87341      301.37309     -1970.92        1920.3708      0.9969611
    775000  -622.03045      110.45768     -732.48813      291.7816      -319.89669      1920.3708      0.9969611
    776000  -630.55114      124.40608     -754.95722      328.62725      3438.4194      1920.3708      0.9969611
    777000  -636.90903      116.76532     -753.67434      308.44365      34.637196      1920.3708      0.9969611
    778000  -626.84107      123.34879     -750.18985      325.83435      1822.259       1920.3708      0.9969611
    779000  -649.59922      110.62518     -760.2244       292.22407      931.11435      1920.3708      0.9969611
    780000  -634.68118      120.12114     -754.80232      317.30829      1105.5028      1920.3708      0.9969611
    781000  -633.40045      116.13537     -749.53582      306.77961     -414.91697      1920.3708      0.9969611
    782000  -613.71308      123.74763     -737.4607       326.88791     -1448.0073      1920.3708      0.9969611
    783000  -657.39659      101.69518     -759.09177      268.63485      2402.7952      1920.3708      0.9969611
    784000  -634.13214      110.12649     -744.25863      290.90674     -685.81285      1920.3708      0.9969611
    785000  -638.28826      107.32655     -745.61481      283.51049     -2718.6307      1920.3708      0.9969611
    786000  -635.36194      105.82826     -741.1902       279.55265     -1299.5461      1920.3708      0.9969611
    787000  -618.75216      123.20276     -741.95492      325.44861     -1501.5177      1920.3708      0.9969611
    788000  -629.07385      119.33873     -748.41258      315.24149     -1709.4158      1920.3708      0.9969611
    789000  -635.50004      106.29465     -741.79469      280.78467     -1535.0049      1920.3708      0.9969611
    790000  -632.61929      115.01679     -747.63608      303.82481      1145.765       1920.3708      0.9969611
    791000  -634.01688      115.0623      -749.07918      303.94502      1960.9029      1920.3708      0.9969611
    792000  -634.33445      106.35989     -740.69434      280.95701     -1118.6896      1920.3708      0.9969611
    793000  -627.19379      110.76998     -737.96377      292.60656      1650.4842      1920.3708      0.9969611
    794000  -618.80906      116.55223     -735.36129      307.88077      3763.7647      1920.3708      0.9969611
    795000  -617.80003      110.34013     -728.14016      291.47107      3222.8713      1920.3708      0.9969611
    796000  -640.48914      110.89184     -751.38098      292.92845      1734.3753      1920.3708      0.9969611
    797000  -631.30963      111.85184     -743.16147      295.46437      334.86732      1920.3708      0.9969611
    798000  -631.60866      117.23833     -748.847        309.69316      30.852884      1920.3708      0.9969611
    799000  -630.48398      116.45795     -746.94193      307.63173     -1659.2679      1920.3708      0.9969611
    800000  -628.29218      120.79348     -749.08566      319.08433      419.02737      1920.3708      0.9969611
    801000  -620.80076      123.327       -744.12776      325.7768       938.77553      1920.3708      0.9969611
    802000  -642.67253      111.58615     -754.25867      294.76252     -235.52833      1920.3708      0.9969611
    803000  -648.27572      94.103569     -742.37929      248.58108      142.17105      1920.3708      0.9969611
    804000  -628.18158      124.95166     -753.13324      330.06845     -394.40909      1920.3708      0.9969611
    805000  -606.06609      124.8278      -730.89389      329.74125      2334.8022      1920.3708      0.9969611
    806000  -611.96696      116.04021     -728.00718      306.52825      1119.4899      1920.3708      0.9969611
    807000  -638.64135      117.49132     -756.13267      310.36143      154.29206      1920.3708      0.9969611
    808000  -629.14915      109.46552     -738.61467      289.16074      1407.6915      1920.3708      0.9969611
    809000  -638.76666      98.535597     -737.30225      260.28859     -264.9221       1920.3708      0.9969611
    810000  -648.6048       109.91853     -758.52333      290.35739      2452.3683      1920.3708      0.9969611
    811000  -653.11656      122.56194     -775.6785       323.75583      865.77173      1920.3708      0.9969611
    812000  -634.33037      112.89473     -747.22509      298.21922      3735.2659      1920.3708      0.9969611
    813000  -643.95038      98.4908       -742.44118      260.17026     -1831.3263      1920.3708      0.9969611
    814000  -619.33485      108.3141      -727.64896      286.11919      7296.6465      1920.3708      0.9969611
    815000  -642.90174      116.74595     -759.64769      308.39249     -271.46604      1920.3708      0.9969611
    816000  -638.01642      116.24251     -754.25893      307.06263      1536.1876      1920.3708      0.9969611
    817000  -626.07825      118.82423     -744.90249      313.88243      1543.6557      1920.3708      0.9969611
    818000  -640.4494       108.43313     -748.88253      286.4336       1515.5873      1920.3708      0.9969611
    819000  -638.97985      113.99428     -752.97413      301.12376      584.07667      1920.3708      0.9969611
    820000  -654.53809      102.0105      -756.54859      269.46778      127.35928      1920.3708      0.9969611
    821000  -644.01274      118.81152     -762.82427      313.84885     -565.32064      1920.3708      0.9969611
    822000  -645.50716      115.84615     -761.35331      306.0156       1707.7157      1920.3708      0.9969611
    823000  -601.03665      118.67558     -719.71224      313.48976     -1704.5975      1920.3708      0.9969611
    824000  -610.63026      118.05793     -728.68819      311.85818      484.99956      1920.3708      0.9969611
    825000  -601.28543      120.65981     -721.94524      318.73122      647.71487      1920.3708      0.9969611
    826000  -617.55911      121.16522     -738.72433      320.06629      922.15164      1920.3708      0.9969611
    827000  -651.8904       105.96044     -757.85085      279.90184      1694.4686      1920.3708      0.9969611
    828000  -620.12339      114.39762     -734.52101      302.18922      627.32021      1920.3708      0.9969611
    829000  -634.21162      103.85366     -738.06528      274.33661     -191.89105      1920.3708      0.9969611
    830000  -631.62713      110.83029     -742.45742      292.76586      499.87244      1920.3708      0.9969611
    831000  -631.66979      103.21449     -734.88429      272.64822      702.87141      1920.3708      0.9969611
    832000  -605.15095      120.89403     -726.04498      319.34993      1936.1278      1920.3708      0.9969611
    833000  -641.64832      111.30519     -752.95351      294.02036     -548.75232      1920.3708      0.9969611
    834000  -643.16767      114.72479     -757.89246      303.05347      467.98523      1920.3708      0.9969611
    835000  -657.15569      109.05433     -766.21002      288.07456      51.559792      1920.3708      0.9969611
    836000  -658.47761      103.58583     -762.06344      273.62912     -871.01799      1920.3708      0.9969611
    837000  -641.25889      112.86531     -754.12419      298.14151     -350.19456      1920.3708      0.9969611
    838000  -649.9392       113.38894     -763.32814      299.52473     -1571.5532      1920.3708      0.9969611
    839000  -636.05209      126.50459     -762.55668      334.17061     -1151.3523      1920.3708      0.9969611
    840000  -642.12948      113.86711     -755.99659      300.78783      2563.1084      1920.3708      0.9969611
    841000  -625.77065      114.00569     -739.77635      301.15392      1358.0476      1920.3708      0.9969611
    842000  -641.32668      119.94146     -761.26813      316.83365      293.62815      1920.3708      0.9969611
    843000  -608.13197      121.11214     -729.24412      319.92609      1225.293       1920.3708      0.9969611
    844000  -622.46298      115.3255      -737.78848      304.64027      530.13663      1920.3708      0.9969611
    845000  -637.40598      105.23938     -742.64536      277.99709     -2809.6245      1920.3708      0.9969611
    846000  -609.27531      111.27677     -720.55208      293.94527      2159.5706      1920.3708      0.9969611
    847000  -650.1962       110.21731     -760.41352      291.14665      715.05156      1920.3708      0.9969611
    848000  -641.84535      97.202282     -739.04763      256.76655     -455.30288      1920.3708      0.9969611
    849000  -640.00793      113.21182     -753.21976      299.05685      1581.3433      1920.3708      0.9969611
    850000  -632.89993      109.73155     -742.63149      289.86347     -1402.1951      1920.3708      0.9969611
    851000  -642.24599      109.9746      -752.22058      290.5055       1784.952       1920.3708      0.9969611
    852000  -636.8807       114.64409     -751.52479      302.84028      2382.9935      1920.3708      0.9969611
    853000  -631.96963      109.24035     -741.20998      288.56592     -1070.8461      1920.3708      0.9969611
    854000  -654.58407      103.59824     -758.18231      273.66191     -621.29517      1920.3708      0.9969611
    855000  -626.47913      106.93314     -733.41228      282.47129     -962.8289       1920.3708      0.9969611
    856000  -661.45177      105.44313     -766.8949       278.53531      1943.6703      1920.3708      0.9969611
    857000  -617.18145      114.20761     -731.38906      301.68729     -1983.3715      1920.3708      0.9969611
    858000  -644.4969       118.25338     -762.75027      312.37446     -1479.2661      1920.3708      0.9969611
    859000  -657.68091      111.96145     -769.64236      295.7539       2169.4258      1920.3708      0.9969611
    860000  -655.6328       101.41804     -757.05083      267.90275     -1442.072       1920.3708      0.9969611
    861000  -610.89656      118.95289     -729.84946      314.22229     -516.96104      1920.3708      0.9969611
    862000  -623.84541      117.07355     -740.91895      309.25786      4138.0063      1920.3708      0.9969611
    863000  -624.7594       104.74502     -729.50442      276.69121     -1208.9767      1920.3708      0.9969611
    864000  -619.34118      114.02301     -733.36418      301.19965     -2126.5691      1920.3708      0.9969611
    865000  -655.61907      102.4358      -758.05487      270.59126     -736.06824      1920.3708      0.9969611
    866000  -657.57093      102.18911     -759.76004      269.9396       167.9564       1920.3708      0.9969611
    867000  -633.77038      124.99694     -758.76733      330.18806      662.2331       1920.3708      0.9969611
    868000  -637.30933      102.02224     -739.33157      269.4988       84.017019      1920.3708      0.9969611
    869000  -633.97793      125.37301     -759.35095      331.18148      294.42047      1920.3708      0.9969611
    870000  -637.4827       109.72959     -747.21229      289.85829     -1021.9519      1920.3708      0.9969611
    871000  -631.22423      111.76015     -742.98437      295.22215     -2590.5639      1920.3708      0.9969611
    872000  -640.09027      109.29053     -749.3808       288.69849     -3300.6097      1920.3708      0.9969611
    873000  -656.25382      103.19622     -759.45005      272.59996      28.262853      1920.3708      0.9969611
    874000  -622.1712       114.40685     -736.57804      302.21359      2206.4353      1920.3708      0.9969611
    875000  -649.14626      101.21541     -750.36167      267.36749      263.24157      1920.3708      0.9969611
    876000  -627.64812      103.44527     -731.09339      273.25784     -443.03189      1920.3708      0.9969611
    877000  -615.95755      110.89941     -726.85696      292.94845     -181.7851       1920.3708      0.9969611
    878000  -639.05656      105.95366     -745.01022      279.88391     -345.20985      1920.3708      0.9969611
    879000  -614.4368       121.66618     -736.10298      321.38963     -70.981998      1920.3708      0.9969611
    880000  -632.78954      110.10276     -742.8923       290.84406      962.12636      1920.3708      0.9969611
    881000  -621.45606      118.10036     -739.55641      311.97026      1884.9008      1920.3708      0.9969611
    882000  -655.4529       126.44607     -781.89897      334.01602      55.969371      1920.3708      0.9969611
    883000  -619.00288      110.92611     -729.92899      293.01898     -2048.0295      1920.3708      0.9969611
    884000  -636.23166      115.36122     -751.59289      304.73465      898.53197      1920.3708      0.9969611
    885000  -618.36663      125.47745     -743.84409      331.45736     -1820.9041      1920.3708      0.9969611
    886000  -639.46405      114.50219     -753.96625      302.46545      543.35396      1920.3708      0.9969611
    887000  -611.87693      109.68966     -721.56658      289.75281     -110.96924      1920.3708      0.9969611
    888000  -619.31829      109.82801     -729.1463       290.11829      289.82351      1920.3708      0.9969611
    889000  -622.48672      128.4753      -750.96202      339.37639      4195.6208      1920.3708      0.9969611
    890000  -625.93523      121.59596     -747.53119      321.20414     -810.66691      1920.3708      0.9969611
    891000  -657.2729       101.25777     -758.53067      267.47938     -1065.4174      1920.3708      0.9969611
    892000  -617.20418      117.78406     -734.98824      311.13473      4294.1914      1920.3708      0.9969611
    893000  -611.57018      118.33536     -729.90554      312.59104     -875.38139      1920.3708      0.9969611
    894000  -625.63892      111.29657     -736.93549      293.99757     -71.871584      1920.3708      0.9969611
    895000  -632.44697      108.30741     -740.75437      286.1015       3465.2758      1920.3708      0.9969611
    896000  -648.19121      102.15832     -750.34954      269.85827     -2746.1799      1920.3708      0.9969611
    897000  -649.91467      114.22594     -764.14062      301.73573      1701.6643      1920.3708      0.9969611
    898000  -645.8476       102.53322     -748.38082      270.84859      2177.2423      1920.3708      0.9969611
    899000  -639.03268      111.93023     -750.96291      295.67143     -468.33876      1920.3708      0.9969611
    900000  -601.28977      121.71119     -723.00096      321.50853     -393.02766      1920.3708      0.9969611
    901000  -642.97949      113.25632     -756.23581      299.17439     -1597.5034      1920.3708      0.9969611
    902000  -615.1662       106.44542     -721.61162      281.18293      755.5172       1920.3708      0.9969611
    903000  -618.52753      102.8333      -721.36083      271.64126      65.419424      1920.3708      0.9969611
    904000  -638.23408      112.72839     -750.96247      297.77982      923.66157      1920.3708      0.9969611
    905000  -651.38765      103.46909     -754.85674      273.32074      2529.7782      1920.3708      0.9969611
    906000  -625.72153      108.94014     -734.66166      287.7729       2555.7377      1920.3708      0.9969611
    907000  -616.98273      107.67686     -724.65958      284.43585     -773.97203      1920.3708      0.9969611
    908000  -625.78484      99.140457     -724.9253       261.88637     -645.90804      1920.3708      0.9969611
    909000  -617.86969      116.95332     -734.82301      308.94027     -591.05463      1920.3708      0.9969611
    910000  -614.86235      121.84771     -736.71005      321.86914     -3103.4182      1920.3708      0.9969611
    911000  -637.86459      123.24803     -761.11262      325.5682      -1442.2207      1920.3708      0.9969611
    912000  -637.3481       110.46716     -747.81526      291.80664     -158.65155      1920.3708      0.9969611
    913000  -664.57767      100.14922     -764.72689      264.55107     -2376.9636      1920.3708      0.9969611
    914000  -623.74249      113.44946     -737.19195      299.68458      1827.7362      1920.3708      0.9969611
    915000  -649.48513      106.5252      -756.01033      281.39369     -760.73472      1920.3708      0.9969611
    916000  -630.58978      119.57329     -750.16307      315.86111     -1630.2673      1920.3708      0.9969611
    917000  -599.36045      124.55486     -723.91531      329.02028     -1308.3731      1920.3708      0.9969611
    918000  -627.58577      119.85418     -747.43996      316.60311      2303.6154      1920.3708      0.9969611
    919000  -623.12776      116.58136     -739.70912      307.95772      1393.9703      1920.3708      0.9969611
    920000  -662.62192      108.32579     -770.94771      286.15006      1041.7367      1920.3708      0.9969611
    921000  -631.35415      98.781187     -730.13533      260.93733     -864.35221      1920.3708      0.9969611
    922000  -627.32434      115.39086     -742.7152       304.81293      369.55442      1920.3708      0.9969611
    923000  -601.49263      125.39519     -726.88782      331.24006     -11.191522      1920.3708      0.9969611
    924000  -651.22478      112.01631     -763.24109      295.89882     -390.23743      1920.3708      0.9969611
    925000  -628.43105      119.00438     -747.43543      314.35829      2838.6578      1920.3708      0.9969611
    926000  -608.98361      129.25061     -738.23423      341.42443      2322.0842      1920.3708      0.9969611
    927000  -617.3039       116.60631     -733.91021      308.02363     -443.52548      1920.3708      0.9969611
    928000  -642.28755      102.21069     -744.49825      269.99661     -1153.3226      1920.3708      0.9969611
    929000  -606.05257      128.85155     -734.90413      340.37028      172.48576      1920.3708      0.9969611
    930000  -640.04017      109.39007     -749.43024      288.96143      2790.4877      1920.3708      0.9969611
    931000  -622.4919       119.6205      -742.1124       315.98583      1908.1602      1920.3708      0.9969611
    932000  -631.42795      135.12781     -766.55575      356.94944      887.80568      1920.3708      0.9969611
    933000  -613.60116      134.19904     -747.8002       354.49605      636.64224      1920.3708      0.9969611
    934000  -631.59069      101.78861     -733.3793       268.88166      86.146589      1920.3708      0.9969611
    935000  -631.39066      106.63803     -738.02869      281.69173      1780.2238      1920.3708      0.9969611
    936000  -622.05995      109.88375     -731.9437       290.26551     -951.3859       1920.3708      0.9969611
    937000  -627.3178       103.66198     -730.97978      273.83028      228.43383      1920.3708      0.9969611
    938000  -588.62098      130.03049     -718.65147      343.48453     -1074.1684      1920.3708      0.9969611
    939000  -619.06697      108.0985      -727.16547      285.54967      811.52595      1920.3708      0.9969611
    940000  -643.32599      106.39948     -749.72547      281.06157      831.08179      1920.3708      0.9969611
    941000  -619.46721      119.00502     -738.47223      314.36         118.48599      1920.3708      0.9969611
    942000  -638.9474       100.93029     -739.87769      266.61432      99.697876      1920.3708      0.9969611
    943000  -633.92583      106.89298     -740.81881      282.36519      662.05027      1920.3708      0.9969611
    944000  -634.39214      118.80384     -753.19598      313.82855      4573.3102      1920.3708      0.9969611
    945000  -645.60988      110.75768     -756.36756      292.57407      2609.1983      1920.3708      0.9969611
    946000  -643.84871      112.41901     -756.26772      296.96258      243.65723      1920.3708      0.9969611
    947000  -629.01479      121.87758     -750.89237      321.94804     -439.50408      1920.3708      0.9969611
    948000  -627.51061      122.94855     -750.45916      324.77709     -1079.6006      1920.3708      0.9969611
    949000  -649.35883      102.71508     -752.0739       271.32898     -26.83837       1920.3708      0.9969611
    950000  -609.24768      116.19419     -725.44187      306.93498      654.04542      1920.3708      0.9969611
    951000  -652.98792      103.12302     -756.11094      272.40659     -796.92747      1920.3708      0.9969611
    952000  -626.7316       124.91047     -751.64208      329.95964      3195.0035      1920.3708      0.9969611
    953000  -639.74691      110.70782     -750.45473      292.44236      406.61642      1920.3708      0.9969611
    954000  -652.9076       104.75722     -757.66481      276.72343     -1030.0757      1920.3708      0.9969611
    955000  -654.03157      108.76665     -762.79822      287.31463     -1075.4846      1920.3708      0.9969611
    956000  -640.47216      118.26049     -758.73266      312.39326      874.78059      1920.3708      0.9969611
    957000  -614.9413       118.46275     -733.40406      312.92755      181.52196      1920.3708      0.9969611
    958000  -650.74419      111.94944     -762.69363      295.72218     -710.96199      1920.3708      0.9969611
    959000  -638.94002      108.61907     -747.55909      286.92477     -1182.4886      1920.3708      0.9969611
    960000  -646.34446      105.59488     -751.93934      278.93618      1597.3415      1920.3708      0.9969611
    961000  -663.1191       107.03465     -770.15375      282.73942      1657.8516      1920.3708      0.9969611
    962000  -643.46435      110.89447     -754.35882      292.9354       2255.1002      1920.3708      0.9969611
    963000  -639.43877      119.35381     -758.79258      315.28134     -360.20036      1920.3708      0.9969611
    964000  -618.22259      119.73136     -737.95395      316.27867      438.95058      1920.3708      0.9969611
    965000  -635.43468      114.95721     -750.39189      303.66741      242.25078      1920.3708      0.9969611
    966000  -618.05576      125.14008     -743.19583      330.56616     -449.46565      1920.3708      0.9969611
    967000  -634.09226      107.52633     -741.61859      284.03822      457.42389      1920.3708      0.9969611
    968000  -627.32441      121.5075      -748.83191      320.97047      410.48428      1920.3708      0.9969611
    969000  -608.19079      118.69467     -726.88546      313.54018      4218.1653      1920.3708      0.9969611
    970000  -620.9707       116.23861     -737.20932      307.05233      1645.5795      1920.3708      0.9969611
    971000  -636.10079      109.7187      -745.8195       289.82954     -639.42521      1920.3708      0.9969611
    972000  -633.49225      114.35683     -747.84908      302.08148      809.21329      1920.3708      0.9969611
    973000  -624.59235      102.14284     -726.73519      269.81738     -1716.4983      1920.3708      0.9969611
    974000  -642.72359      106.08234     -748.80593      280.22383      690.69778      1920.3708      0.9969611
    975000  -628.88323      117.31017     -746.1934       309.88292     -3000.9785      1920.3708      0.9969611
    976000  -629.84916      113.71584     -743.56499      300.38824     -2128.1035      1920.3708      0.9969611
    977000  -610.28994      128.61625     -738.90618      339.7487       876.43769      1920.3708      0.9969611
    978000  -650.46939      100.24414     -750.71353      264.80182      1905.0692      1920.3708      0.9969611
    979000  -627.50104      116.32842     -743.82946      307.28956     -511.03202      1920.3708      0.9969611
    980000  -636.08569      124.56535     -760.65104      329.04798     -457.2486       1920.3708      0.9969611
    981000  -630.58077      111.7862      -742.36696      295.29096      283.32749      1920.3708      0.9969611
    982000  -613.69967      107.55349     -721.25317      284.10999      3638.2624      1920.3708      0.9969611
    983000  -597.27928      124.76906     -722.04835      329.5861      -833.04411      1920.3708      0.9969611
    984000  -621.00713      114.28838     -735.29551      301.90065      1043.0292      1920.3708      0.9969611
    985000  -649.61374      98.343927     -747.95767      259.78228     -1589.1127      1920.3708      0.9969611
    986000  -613.1404       111.04781     -724.18821      293.34047      1998.2948      1920.3708      0.9969611
    987000  -640.92328      98.175731     -739.09901      259.33798      1782.1998      1920.3708      0.9969611
    988000  -642.12514      100.09824     -742.22338      264.41641      664.73474      1920.3708      0.9969611
    989000  -667.65078      95.448411     -763.0992       252.13357      739.91841      1920.3708      0.9969611
    990000  -632.89224      118.9018      -751.79404      314.08732      999.92574      1920.3708      0.9969611
    991000  -620.10034      121.93892     -742.03926      322.11007      803.53881      1920.3708      0.9969611
    992000  -625.46701      112.88225     -738.34925      298.18625     -2281.8538      1920.3708      0.9969611
    993000  -645.29669      104.17636     -749.47304      275.18905     -130.00622      1920.3708      0.9969611
    994000  -624.7395       111.64296     -736.38246      294.91259      437.65791      1920.3708      0.9969611
    995000  -607.5197       116.51369     -724.03339      307.77896      858.3632       1920.3708      0.9969611
    996000  -640.55508      115.97812     -756.53321      306.36423     -1486.3211      1920.3708      0.9969611
    997000  -641.93021      128.66973     -770.59994      339.88998     -103.24081      1920.3708      0.9969611
    998000  -632.81032      98.513082     -731.3234       260.22911     -2561.1291      1920.3708      0.9969611
    999000  -626.90803      111.86802     -738.77605      295.5071      -423.02902      1920.3708      0.9969611
   1000000  -633.68914      113.62783     -747.31696      300.15576      2752.3335      1920.3708      0.9969611
Loop time of 906.276 on 1 procs for 1000000 steps with 192 atoms

Performance: 95.335 ns/day, 0.252 hours/ns, 1103.416 timesteps/s
99.7% CPU use with 1 MPI tasks x 1 OpenMP threads

MPI task timing breakdown:
Section |  min time  |  avg time  |  max time  |%varavg| %total
---------------------------------------------------------------
Pair    | 727.58     | 727.58     | 727.58     |   0.0 | 80.28
Bond    | 0.054318   | 0.054318   | 0.054318   |   0.0 |  0.01
Kspace  | 115.06     | 115.06     | 115.06     |   0.0 | 12.70
Neigh   | 36.641     | 36.641     | 36.641     |   0.0 |  4.04
Comm    | 13.506     | 13.506     | 13.506     |   0.0 |  1.49
Output  | 0.25885    | 0.25885    | 0.25885    |   0.0 |  0.03
Modify  | 10.907     | 10.907     | 10.907     |   0.0 |  1.20
Other   |            | 2.267      |            |       |  0.25

Nlocal:            192 ave         192 max         192 min
Histogram: 1 0 0 0 0 0 0 0 0 0
Nghost:           4677 ave        4677 max        4677 min
Histogram: 1 0 0 0 0 0 0 0 0 0
Neighs:          69183 ave       69183 max       69183 min
Histogram: 1 0 0 0 0 0 0 0 0 0

Total # of neighbors = 69183
Ave neighs/atom = 360.32812
Ave special neighs/atom = 2
Neighbor list builds = 28652
Dangerous builds = 0
# write data file
write_data data.after_eq.lmp
System init for write_data ...
PPPM initialization ...
  using 12-bit tables for long-range coulomb (src/kspace.cpp:342)
  G vector (1/distance) = 0.31260513
  grid = 12 12 12
  stencil order = 5
  estimated absolute RMS force accuracy = 0.0021455329
  estimated relative force accuracy = 6.4612085e-06
  using double precision FFTW3
  3d grid and FFT values/proc = 6859 1728
Generated 1 of 1 mixed pair_coeff terms from geometric mixing rule

# clean up
undump dEQUI

# production
# 2 ns
dump dPROD all custom 1000 prod.lammpstrj id element xu yu zu
dump_modify dPROD element H O sort id
run 2000000
PPPM initialization ...
  using 12-bit tables for long-range coulomb (src/kspace.cpp:342)
  G vector (1/distance) = 0.31260513
  grid = 12 12 12
  stencil order = 5
  estimated absolute RMS force accuracy = 0.0021455329
  estimated relative force accuracy = 6.4612085e-06
  using double precision FFTW3
  3d grid and FFT values/proc = 6859 1728
Generated 1 of 1 mixed pair_coeff terms from geometric mixing rule
Per MPI rank memory allocation (min/avg/max) = 9.76 | 9.76 | 9.76 Mbytes
   Step         TotEng         KinEng         PotEng          Temp          Press          Volume        Density
   1000000  -633.68914      113.62783     -747.31696      300.15576      2752.9455      1920.3708      0.9969611
   1001000  -644.73507      111.52643     -756.26151      294.60478     -2619.1922      1920.3708      0.9969611
   1002000  -629.40175      117.18131     -746.58307      309.54253     -2759.6987      1920.3708      0.9969611
   1003000  -658.27342      106.24676     -764.52017      280.65816      737.55729      1920.3708      0.9969611
   1004000  -638.32944      111.53129     -749.86073      294.61761     -783.54865      1920.3708      0.9969611
   1005000  -637.80215      106.76468     -744.56683      282.02629     -49.880974      1920.3708      0.9969611
   1006000  -620.59062      116.08558     -736.6762       306.64808      2319.1301      1920.3708      0.9969611
   1007000  -653.30251      98.396053     -751.69857      259.91998     -1071.9104      1920.3708      0.9969611
   1008000  -620.35034      123.62335     -743.97368      326.55961     -732.86223      1920.3708      0.9969611
   1009000  -660.68551      119.80303     -780.48854      316.46798      918.97903      1920.3708      0.9969611
   1010000  -606.66918      130.49029     -737.15947      344.69911      1811.9052      1920.3708      0.9969611
   1011000  -633.55073      112.09949     -745.65022      296.11856      3107.2662      1920.3708      0.9969611
   1012000  -633.25456      119.9032      -753.15776      316.73259     -3132.0024      1920.3708      0.9969611
   1013000  -649.81649      109.65913     -759.47563      289.67218      656.6217       1920.3708      0.9969611
   1014000  -627.33851      110.48755     -737.82606      291.8605      -1869.8298      1920.3708      0.9969611
   1015000  -619.53506      106.73407     -726.26913      281.94542     -3213.9916      1920.3708      0.9969611
   1016000  -611.49935      113.0668      -724.56616      298.67377     -406.72573      1920.3708      0.9969611
   1017000  -638.18277      101.81393     -739.9967       268.94854      83.638837      1920.3708      0.9969611
   1018000  -639.37767      113.17974     -752.55741      298.9721      -973.08929      1920.3708      0.9969611
   1019000  -647.48852      97.822287     -745.31081      258.40433      470.7752       1920.3708      0.9969611
   1020000  -622.63661      111.8344      -734.47101      295.4183       1723.8945      1920.3708      0.9969611
   1021000  -653.47094      100.20743     -753.67836      264.70485     -1816.5975      1920.3708      0.9969611
   1022000  -654.30839      104.03062     -758.33901      274.80408     -714.25737      1920.3708      0.9969611
   1023000  -626.67069      114.82288     -741.49357      303.31257     -868.32602      1920.3708      0.9969611
   1024000  -646.03548      110.49283     -756.5283       291.87444     -1194.4391      1920.3708      0.9969611
   1025000  -629.99218      111.76705     -741.75923      295.24039      4495.2897      1920.3708      0.9969611
   1026000  -642.74041      103.25569     -745.9961       272.75703      2445.8305      1920.3708      0.9969611
   1027000  -631.29319      107.42882     -738.72201      283.78066     -1443.5991      1920.3708      0.9969611
   1028000  -647.24025      109.21541     -756.45566      288.50006      170.28844      1920.3708      0.9969611
   1029000  -616.23965      115.2317      -731.47135      304.39251      1874.0242      1920.3708      0.9969611
   1030000  -634.09443      116.79246     -750.88689      308.51535      1737.0518      1920.3708      0.9969611
   1031000  -640.63361      107.02246     -747.65608      282.70724     -864.6279       1920.3708      0.9969611
   1032000  -634.29162      113.92652     -748.21814      300.94479     -61.857476      1920.3708      0.9969611
   1033000  -627.53354      129.58885     -757.12239      342.31791     -1370.8034      1920.3708      0.9969611
   1034000  -637.05495      116.33257     -753.38752      307.30051      1105.3161      1920.3708      0.9969611
   1035000  -640.26235      106.65937     -746.92172      281.7481       1652.7117      1920.3708      0.9969611
   1036000  -651.86293      94.450224     -746.31315      249.49679     -592.22874      1920.3708      0.9969611
   1037000  -643.39625      101.54852     -744.94477      268.24744     -399.98717      1920.3708      0.9969611
   1038000  -614.30366      121.02228     -735.32594      319.68872      2647.1822      1920.3708      0.9969611
   1039000  -643.40175      115.79116     -759.19291      305.87035      794.38744      1920.3708      0.9969611
   1040000  -628.02402      113.29975     -741.32377      299.28911     -352.22734      1920.3708      0.9969611
   1041000  -604.97359      125.16965     -730.14323      330.64427      1594.7722      1920.3708      0.9969611
   1042000  -639.84368      120.40634     -760.25001      318.06166     -810.54694      1920.3708      0.9969611
   1043000  -637.60433      123.44487     -761.0492       326.08816     -2523.642       1920.3708      0.9969611
   1044000  -633.99561      116.24661     -750.24222      307.07344     -826.01159      1920.3708      0.9969611
   1045000  -643.28082      118.57619     -761.857        313.22719     -278.20458      1920.3708      0.9969611
   1046000  -639.02191      113.56021     -752.58212      299.97713      1338.4008      1920.3708      0.9969611
   1047000  -654.1122       115.06584     -769.17805      303.95438      1507.3234      1920.3708      0.9969611
   1048000  -631.71198      112.92276     -744.63474      298.29328     -1458.4431      1920.3708      0.9969611
   1049000  -626.68925      118.41815     -745.1074       312.80972      2150.1283      1920.3708      0.9969611
   1050000  -645.99763      105.3325      -751.33012      278.24307     -359.88656      1920.3708      0.9969611
   1051000  -613.70182      130.3612      -744.06302      344.35812     -1950.6626      1920.3708      0.9969611
   1052000  -615.56416      111.54052     -727.10468      294.642       -294.46487      1920.3708      0.9969611
   1053000  -621.37755      112.85143     -734.22899      298.10486     -103.94949      1920.3708      0.9969611
   1054000  -639.73714      107.57255     -747.30969      284.16033     -1768.0628      1920.3708      0.9969611
   1055000  -652.91513      116.19468     -769.1098       306.93627      1841.6464      1920.3708      0.9969611
   1056000  -673.17929      100.45995     -773.63923      265.37189      2619.7354      1920.3708      0.9969611
   1057000  -625.73237      118.81433     -744.54671      313.85627      371.15095      1920.3708      0.9969611
   1058000  -657.14534      109.92885     -767.0742       290.38467     -1426.4591      1920.3708      0.9969611
   1059000  -625.98336      115.15469     -741.13805      304.18908      1987.9185      1920.3708      0.9969611
   1060000  -633.867        123.12172     -756.98871      325.23452      3084.5242      1920.3708      0.9969611
   1061000  -668.32538      99.741436     -768.06682      263.4739       1226.86        1920.3708      0.9969611
   1062000  -618.51566      126.50789     -745.02355      334.17934     -1175.7726      1920.3708      0.9969611
   1063000  -621.51171      118.90951     -740.42122      314.10769      1139.625       1920.3708      0.9969611
   1064000  -615.37936      119.66299     -735.04234      316.09805     -886.93913      1920.3708      0.9969611
   1065000  -634.73961      120.80026     -755.53987      319.10224     -1187.4993      1920.3708      0.9969611
   1066000  -622.48585      118.50288     -740.98873      313.03355      1707.0744      1920.3708      0.9969611
   1067000  -639.58924      109.53863     -749.12787      289.35386     -1465.057       1920.3708      0.9969611
   1068000  -627.63082      113.24517     -740.87599      299.14494      249.12438      1920.3708      0.9969611
   1069000  -608.07993      123.43102     -731.51096      326.05158     -525.75162      1920.3708      0.9969611
   1070000  -641.65079      107.16799     -748.81878      283.09166      241.32121      1920.3708      0.9969611
   1071000  -658.63964      102.7401      -761.37975      271.39508     -295.30096      1920.3708      0.9969611
   1072000  -625.56351      115.26696     -740.83047      304.48563     -545.856        1920.3708      0.9969611
   1073000  -626.09919      116.42775     -742.52694      307.55194      4031.5066      1920.3708      0.9969611
   1074000  -626.06417      116.28239     -742.34656      307.16797      677.84292      1920.3708      0.9969611
   1075000  -633.66712      111.88833     -745.55545      295.56076     -906.287        1920.3708      0.9969611
   1076000  -622.83057      115.18932     -738.0199       304.28055     -1927.4216      1920.3708      0.9969611
   1077000  -620.69146      111.06808     -731.75954      293.39401      258.26331      1920.3708      0.9969611
   1078000  -639.03897      115.93084     -754.96981      306.23934      869.488        1920.3708      0.9969611
   1079000  -632.74137      104.72002     -737.4614       276.62517      561.29352      1920.3708      0.9969611
   1080000  -639.18892      106.78413     -745.97305      282.07765     -94.736179      1920.3708      0.9969611
   1081000  -642.25993      112.63635     -754.89627      297.53669     -2010.9975      1920.3708      0.9969611
   1082000  -624.22956      112.81211     -737.04167      298.001        719.67867      1920.3708      0.9969611
   1083000  -660.62855      100.02605     -760.6546       264.22571     -3267.9579      1920.3708      0.9969611
   1084000  -662.62113      113.7335      -776.35463      300.4349      -1072.3202      1920.3708      0.9969611
   1085000  -634.36809      105.00518     -739.37327      277.37844     -1949.2096      1920.3708      0.9969611
   1086000  -623.79358      115.7432      -739.53678      305.74367     -153.83681      1920.3708      0.9969611
   1087000  -623.26098      133.37631     -756.6373       352.32275     -2460.1007      1920.3708      0.9969611
   1088000  -630.90916      114.05077     -744.95993      301.27299     -1360.8966      1920.3708      0.9969611
   1089000  -625.18643      121.03416     -746.22059      319.72009      356.39669      1920.3708      0.9969611
   1090000  -635.49297      114.91146     -750.40443      303.54655     -19.433956      1920.3708      0.9969611
   1091000  -627.03506      120.06942     -747.10448      317.17168     -3315.2778      1920.3708      0.9969611
   1092000  -648.32369      120.06491     -768.3886       317.15977     -2251.8643      1920.3708      0.9969611
   1093000  -609.13223      125.772       -734.90423      332.23542      2443.364       1920.3708      0.9969611
   1094000  -609.26565      116.72767     -725.99332      308.3442      -638.99572      1920.3708      0.9969611
   1095000  -627.63312      119.15391     -746.78703      314.7533       2176.3425      1920.3708      0.9969611
   1096000  -602.51873      126.59777     -729.1165       334.41677     -2421.2581      1920.3708      0.9969611
   1097000  -635.65109      108.98109     -744.63218      287.88108     -3677.8461      1920.3708      0.9969611
   1098000  -613.76859      109.78608     -723.55467      290.00751     -198.12264      1920.3708      0.9969611
   1099000  -640.01863      110.80081     -750.81945      292.688        1334.0227      1920.3708      0.9969611
   1100000  -624.95145      123.48192     -748.43337      326.18602     -570.91568      1920.3708      0.9969611
   1101000  -648.92733      111.03483     -759.96216      293.30619     -416.53347      1920.3708      0.9969611
   1102000  -644.72401      118.84943     -763.57344      313.949        267.5913       1920.3708      0.9969611
   1103000  -637.12478      110.62457     -747.74935      292.22243      1502.9873      1920.3708      0.9969611
   1104000  -615.61925      116.52309     -732.14235      307.80381      721.26902      1920.3708      0.9969611
   1105000  -628.69593      117.56858     -746.26451      310.56552     -1740.5245      1920.3708      0.9969611
   1106000  -639.94233      98.31676      -738.25909      259.71052      1646.2045      1920.3708      0.9969611
   1107000  -630.94852      111.65176     -742.60028      294.93583      594.55816      1920.3708      0.9969611
   1108000  -609.05535      127.63801     -736.69336      337.16463     -2155.6679      1920.3708      0.9969611
   1109000  -634.91302      116.59482     -751.50784      307.99327      1380.9603      1920.3708      0.9969611
   1110000  -646.37004      102.14696     -748.51701      269.82826     -3209.6189      1920.3708      0.9969611
   1111000  -674.17475      96.210341     -770.38509      254.14627      263.09924      1920.3708      0.9969611
   1112000  -637.51575      104.90472     -742.42047      277.11305      1412.9366      1920.3708      0.9969611
   1113000  -632.28804      106.50094     -738.78899      281.3296       1970.6411      1920.3708      0.9969611
   1114000  -642.26632      101.15252     -743.41884      267.20137      649.77291      1920.3708      0.9969611
   1115000  -628.91206      115.25448     -744.16654      304.45266      911.072        1920.3708      0.9969611
   1116000  -621.65104      114.91571     -736.56675      303.55779      3460.1981      1920.3708      0.9969611
   1117000  -634.18278      103.64399     -737.82677      273.78276     -3269.7947      1920.3708      0.9969611
   1118000  -621.75812      114.28691     -736.04503      301.89678     -247.96055      1920.3708      0.9969611
   1119000  -622.28273      119.56751     -741.85025      315.84585      2651.693       1920.3708      0.9969611
   1120000  -627.72938      102.95877     -730.68815      271.9727      -1583.7174      1920.3708      0.9969611
   1121000  -596.89192      116.32224     -713.21415      307.27322      1701.2528      1920.3708      0.9969611
   1122000  -646.84022      108.21376     -755.05397      285.85411      982.5004       1920.3708      0.9969611
   1123000  -665.06464      105.99541     -771.06005      279.99419     -898.41971      1920.3708      0.9969611
   1124000  -635.55835      125.78008     -761.33843      332.25678      820.19938      1920.3708      0.9969611
   1125000  -601.08208      114.38271     -715.46479      302.14983      994.01334      1920.3708      0.9969611
   1126000  -625.89875      113.66883     -739.56758      300.26407      598.03167      1920.3708      0.9969611
   1127000  -623.24773      109.67802     -732.92575      289.72206      668.76396      1920.3708      0.9969611
   1128000  -648.98326      103.20106     -752.18432      272.61273      4350.8664      1920.3708      0.9969611
   1129000  -671.27205      94.916838     -766.18889      250.72939      287.49162      1920.3708      0.9969611
   1130000  -633.45291      112.1572      -745.61011      296.271        809.58418      1920.3708      0.9969611
   1131000  -639.84799      114.13065     -753.97864      301.484       -1427.0457      1920.3708      0.9969611
   1132000  -623.08409      105.06923     -728.15331      277.54763      323.61558      1920.3708      0.9969611
   1133000  -618.30996      111.09902     -729.40898      293.47575      2615.3839      1920.3708      0.9969611
   1134000  -626.05593      103.77243     -729.82835      274.12204      151.23153      1920.3708      0.9969611
   1135000  -633.77936      110.90684     -744.6862       292.96808     -2585.9202      1920.3708      0.9969611
   1136000  -615.91387      116.2938      -732.20766      307.1981      -280.80088      1920.3708      0.9969611
   1137000  -627.24265      103.24227     -730.48492      272.72159     -2434.5965      1920.3708      0.9969611
   1138000  -604.95195      113.05667     -718.00862      298.64701     -1055.2069      1920.3708      0.9969611
   1139000  -632.02022      109.68254     -741.70276      289.73402      2018.9023      1920.3708      0.9969611
   1140000  -631.23735      112.63666     -743.87401      297.53751     -696.53765      1920.3708      0.9969611
   1141000  -648.28541      103.0152      -751.30061      272.12176     -2059.0688      1920.3708      0.9969611
   1142000  -627.29591      108.40775     -735.70366      286.36656      1316.6686      1920.3708      0.9969611
   1143000  -627.08085      102.61905     -729.6999       271.07532      1534.0329      1920.3708      0.9969611
   1144000  -604.87718      119.27652     -724.1537       315.07717     -2536.4334      1920.3708      0.9969611
   1145000  -621.16675      102.72713     -723.89388      271.36082     -909.54027      1920.3708      0.9969611
   1146000  -619.51949      105.16114     -724.68063      277.79041     -2963.5453      1920.3708      0.9969611
   1147000  -635.26413      117.54792     -752.81205      310.51095      1977.3329      1920.3708      0.9969611
   1148000  -638.23217      111.05671     -749.28888      293.36399     -914.24485      1920.3708      0.9969611
   1149000  -642.19948      118.77394     -760.97342      313.74956     -1013.1567      1920.3708      0.9969611
   1150000  -624.27999      104.31917     -728.59916      275.56629      2565.7462      1920.3708      0.9969611
   1151000  -622.69553      108.26143     -730.95696      285.98005      2194.7602      1920.3708      0.9969611
   1152000  -618.78913      133.60747     -752.3966       352.93336      4644.4858      1920.3708      0.9969611
   1153000  -629.19124      116.30672     -745.49796      307.23225     -1010.1814      1920.3708      0.9969611
   1154000  -625.6099       119.60827     -745.21817      315.95352      265.26361      1920.3708      0.9969611
   1155000  -643.77413      116.69075     -760.46487      308.24667     -1351.7122      1920.3708      0.9969611
   1156000  -642.56632      106.92091     -749.48723      282.43897      1389.3968      1920.3708      0.9969611
   1157000  -629.99661      120.28125     -750.27786      317.73123     -693.66802      1920.3708      0.9969611
   1158000  -650.77601      103.89106     -754.66707      274.43542     -825.76549      1920.3708      0.9969611
   1159000  -612.56553      117.16107     -729.7266       309.48906     -2442.6807      1920.3708      0.9969611
   1160000  -624.82318      106.90919     -731.73237      282.40801      119.80634      1920.3708      0.9969611
   1161000  -637.33326      120.3389      -757.67216      317.88352      1037.1847      1920.3708      0.9969611
   1162000  -633.2425       102.68825     -735.93076      271.25812      1583.4083      1920.3708      0.9969611
   1163000  -638.52379      112.81367     -751.33747      298.00512      2735.9473      1920.3708      0.9969611
   1164000  -640.60092      105.62911     -746.23003      279.0266       76.782354      1920.3708      0.9969611
   1165000  -621.41755      126.24571     -747.66326      333.48677      1981.0816      1920.3708      0.9969611
   1166000  -607.02103      118.41708     -725.43811      312.8069       3490.9111      1920.3708      0.9969611
   1167000  -624.73802      119.75403     -744.49205      316.33855     -449.1206       1920.3708      0.9969611
   1168000  -638.92219      118.29595     -757.21814      312.48693      758.15722      1920.3708      0.9969611
   1169000  -610.89213      120.18074     -731.07288      317.46574     -429.15754      1920.3708      0.9969611
   1170000  -654.44913      108.83072     -763.27984      287.48386     -769.82248      1920.3708      0.9969611
   1171000  -625.41928      122.4617      -747.88098      323.49104     -985.673        1920.3708      0.9969611
   1172000  -628.94514      104.29344     -733.23858      275.49832     -1053.887       1920.3708      0.9969611
   1173000  -641.89576      107.22531     -749.12107      283.24305      2104.3671      1920.3708      0.9969611
   1174000  -618.36119      108.419       -726.78019      286.39629     -2492.3787      1920.3708      0.9969611
   1175000  -640.26997      125.52107     -765.79104      331.57258     -721.25371      1920.3708      0.9969611
   1176000  -619.07488      112.43372     -731.5086       297.00143      1473.9059      1920.3708      0.9969611
   1177000  -606.97367      116.73311     -723.70678      308.35857      3040.5265      1920.3708      0.9969611
   1178000  -626.69222      103.89694     -730.58916      274.45094     -382.83594      1920.3708      0.9969611
   1179000  -618.53595      122.05212     -740.58808      322.40912      981.50163      1920.3708      0.9969611
   1180000  -635.05903      110.27356     -745.3326       291.29524     -2324.4696      1920.3708      0.9969611
   1181000  -618.89869      114.21628     -733.11497      301.7102      -3362.3145      1920.3708      0.9969611
   1182000  -650.9939       95.44916      -746.44307      252.13555     -2430.8244      1920.3708      0.9969611
   1183000  -619.99863      109.56829     -729.56692      289.43222     -3.9561682      1920.3708      0.9969611
   1184000  -652.99788      117.56038     -770.55826      310.54386      897.9906       1920.3708      0.9969611
   1185000  -630.16502      120.84865     -751.01368      319.23007      715.54418      1920.3708      0.9969611
   1186000  -652.92677      101.96718     -754.89395      269.35336      1951.4628      1920.3708      0.9969611
   1187000  -649.33551      117.07294     -766.40845      309.25625     -1248.0831      1920.3708      0.9969611
   1188000  -638.42374      124.50687     -762.9306       328.89349      472.20843      1920.3708      0.9969611
   1189000  -640.18235      110.88928     -751.07163      292.9217      -5035.0624      1920.3708      0.9969611
   1190000  -637.47681      115.33044     -752.80726      304.65334      2407.5181      1920.3708      0.9969611
   1191000  -670.58246      98.457569     -769.04003      260.08247      307.72956      1920.3708      0.9969611
   1192000  -631.59174      118.57909     -750.17084      313.23487      795.56558      1920.3708      0.9969611
   1193000  -639.07147      111.14262     -750.21409      293.5909       372.69226      1920.3708      0.9969611
   1194000  -623.0449       119.72813     -742.77304      316.27014     -213.48374      1920.3708      0.9969611
   1195000  -655.0309       109.50051     -764.53141      289.25317      749.94158      1920.3708      0.9969611
   1196000  -628.08575      120.3509      -748.43665      317.91522     -1245.6318      1920.3708      0.9969611
   1197000  -637.45476      113.28154     -750.7363       299.24101      2609.0708      1920.3708      0.9969611
   1198000  -614.51229      106.36279     -720.87507      280.96465      1495.101       1920.3708      0.9969611
   1199000  -617.01066      104.64751     -721.65817      276.43362     -1390.5192      1920.3708      0.9969611
   1200000  -641.7309       102.93595     -744.66684      271.91242      2234.0945      1920.3708      0.9969611
   1201000  -653.74379      120.75792     -774.50172      318.9904      -2422.4045      1920.3708      0.9969611
   1202000  -639.13239      124.99552     -764.12791      330.1843       1363.9313      1920.3708      0.9969611
   1203000  -648.97416      104.43235     -753.40651      275.86527      2670.6358      1920.3708      0.9969611
   1204000  -635.25828      118.92157     -754.17984      314.13954      4192.1353      1920.3708      0.9969611
   1205000  -650.45706      119.61028     -770.06734      315.95882      566.69743      1920.3708      0.9969611
   1206000  -648.97837      104.08495     -753.06332      274.94758      2080.339       1920.3708      0.9969611
   1207000  -617.10595      114.97005     -732.076        303.70134     -1027.1597      1920.3708      0.9969611
   1208000  -629.76337      114.31517     -744.07854      301.97141     -1179.6224      1920.3708      0.9969611
   1209000  -658.27178      106.87293     -765.14471      282.31223     -1087.2262      1920.3708      0.9969611
   1210000  -625.22599      107.71857     -732.94456      284.54604     -1315.8         1920.3708      0.9969611
   1211000  -652.19104      104.51479     -756.70583      276.08304      1103.8021      1920.3708      0.9969611
   1212000  -623.30764      114.46881     -737.77645      302.37727     -898.31221      1920.3708      0.9969611
   1213000  -644.89369      109.41978     -754.31346      289.0399      -1420.4035      1920.3708      0.9969611
   1214000  -638.19375      112.30074     -750.49448      296.65016     -1492.9416      1920.3708      0.9969611
   1215000  -631.07366      104.06677     -735.14043      274.89956      1768.3305      1920.3708      0.9969611
   1216000  -626.09167      114.76323     -740.85489      303.15499      652.32658      1920.3708      0.9969611
   1217000  -664.13445      111.27855     -775.413        293.94998      1333.0915      1920.3708      0.9969611
   1218000  -672.2508       97.394562     -769.64536      257.27447      2730.3409      1920.3708      0.9969611
   1219000  -644.33517      106.8571      -751.19228      282.27043     -1020.8756      1920.3708      0.9969611
   1220000  -605.02505      125.53834     -730.56339      331.6182      -1001.1787      1920.3708      0.9969611
   1221000  -625.2042       112.51027     -737.71448      297.20367     -2252.3766      1920.3708      0.9969611
   1222000  -630.65396      110.66607     -741.32003      292.33208     -934.32129      1920.3708      0.9969611
   1223000  -644.22744      118.96096     -763.1884       314.2436      -116.37667      1920.3708      0.9969611
   1224000  -643.10945      108.79953     -751.90899      287.40148     -106.81558      1920.3708      0.9969611
   1225000  -625.60523      123.96113     -749.56636      327.4519       354.30214      1920.3708      0.9969611
   1226000  -621.11022      105.25455     -726.36477      278.03718      2938.1998      1920.3708      0.9969611
   1227000  -622.44554      110.72014     -733.16568      292.4749      -267.38388      1920.3708      0.9969611
   1228000  -630.44459      119.16843     -749.61302      314.79164     -1694.533       1920.3708      0.9969611
   1229000  -638.14801      120.89618     -759.04419      319.35561     -2423.9296      1920.3708      0.9969611
   1230000  -636.96077      102.67548     -739.63625      271.22437     -1784.3         1920.3708      0.9969611
   1231000  -626.31686      119.75845     -746.07531      316.35022     -1683.5694      1920.3708      0.9969611
   1232000  -635.23653      108.42048     -743.65702      286.4002       1475.6586      1920.3708      0.9969611
   1233000  -624.04834      109.36761     -733.41594      288.90209     -2042.6709      1920.3708      0.9969611
   1234000  -652.22387      109.72466     -761.94853      289.84528      1595.1939      1920.3708      0.9969611
   1235000  -639.88855      116.88494     -756.77348      308.75964      1863.3433      1920.3708      0.9969611
   1236000  -623.43348      121.2836      -744.71707      320.37901      963.47585      1920.3708      0.9969611
   1237000  -644.9754       103.76858     -748.74398      274.11188      1501.6194      1920.3708      0.9969611
   1238000  -634.74031      125.13926     -759.87956      330.56399     -2187.7733      1920.3708      0.9969611
   1239000  -647.45066      109.75484     -757.2055       289.92501      431.93136      1920.3708      0.9969611
   1240000  -640.40249      110.40684     -750.80932      291.64729     -175.3495       1920.3708      0.9969611
   1241000  -615.81447      126.58012     -742.39459      334.37014      203.98193      1920.3708      0.9969611
   1242000  -621.43669      117.30757     -738.74426      309.87606     -1140.9081      1920.3708      0.9969611
   1243000  -625.89379      110.39683     -736.29062      291.62086      746.93287      1920.3708      0.9969611
   1244000  -640.75985      104.17301     -744.93286      275.1802      -2200.4971      1920.3708      0.9969611
   1245000  -617.17717      123.57348     -740.75064      326.42788      1071.8859      1920.3708      0.9969611
   1246000  -633.4889       121.08494     -754.57384      319.85423     -1528.8085      1920.3708      0.9969611
   1247000  -641.14901      104.71057     -745.85958      276.60021      892.62146      1920.3708      0.9969611
   1248000  -639.8021       101.36955     -741.17165      267.77467      649.08491      1920.3708      0.9969611
   1249000  -654.85824      109.55158     -764.40982      289.38806      1325.5661      1920.3708      0.9969611
   1250000  -640.86884      114.99202     -755.86086      303.75936      1908.1721      1920.3708      0.9969611
   1251000  -660.42717      112.47902     -772.9062       297.12111     -1666.9184      1920.3708      0.9969611
   1252000  -638.52823      112.30284     -750.83107      296.65572     -623.0862       1920.3708      0.9969611
   1253000  -649.75843      96.828153     -746.58658      255.77826      822.00478      1920.3708      0.9969611
   1254000  -620.71015      126.95489     -747.66503      335.3601      -848.28903      1920.3708      0.9969611
   1255000  -627.74896      115.45511     -743.20407      304.98265      3614.6316      1920.3708      0.9969611
   1256000  -615.66281      112.71293     -728.37574      297.739        1316.8518      1920.3708      0.9969611
   1257000  -649.30259      115.66292     -764.96551      305.5316      -1105.0362      1920.3708      0.9969611
   1258000  -625.49128      104.8807      -730.37199      277.04963     -1201.3166      1920.3708      0.9969611
   1259000  -656.96367      98.64859      -755.61226      260.58707     -1917.04        1920.3708      0.9969611
   1260000  -614.54197      111.79894     -726.34092      295.32463      1550.2987      1920.3708      0.9969611
   1261000  -640.08323      107.03762     -747.12086      282.74728     -1322.1718      1920.3708      0.9969611
   1262000  -623.33905      123.55615     -746.8952       326.38211      1315.5973      1920.3708      0.9969611
   1263000  -613.93062      115.89278     -729.8234       306.1388      -1015.0936      1920.3708      0.9969611
   1264000  -619.23387      127.11217     -746.34605      335.77559     -1904.2334      1920.3708      0.9969611
   1265000  -628.93584      121.08389     -750.01973      319.85145      1309.6433      1920.3708      0.9969611
   1266000  -622.26653      102.55399     -724.82052      270.90345     -825.17853      1920.3708      0.9969611
   1267000  -621.16338      114.54677     -735.71014      302.58321     -2170.9236      1920.3708      0.9969611
   1268000  -647.2041       115.66217     -762.86627      305.52961      226.8192       1920.3708      0.9969611
   1269000  -651.64939      99.955403     -751.6048       264.0391       144.7801       1920.3708      0.9969611
   1270000  -617.08708      114.58334     -731.67042      302.6798       1788.8347      1920.3708      0.9969611
   1271000  -638.5795       112.32078     -750.90028      296.70311      297.34944      1920.3708      0.9969611
   1272000  -649.3613       108.45185     -757.81315      286.48307      353.33683      1920.3708      0.9969611
   1273000  -606.58906      115.40471     -721.99378      304.84953      953.62811      1920.3708      0.9969611
   1274000  -590.3972       126.73871     -717.13591      334.78906      1819.7248      1920.3708      0.9969611
   1275000  -629.80585      113.45803     -743.26388      299.70722     -2574.7491      1920.3708      0.9969611
   1276000  -627.91         113.07888     -740.98888      298.70568     -705.94615      1920.3708      0.9969611
   1277000  -638.71514      112.64581     -751.36095      297.56169      521.92116      1920.3708      0.9969611
   1278000  -646.96844      106.27017     -753.23861      280.71999      829.09073      1920.3708      0.9969611
   1279000  -646.74517      109.19905     -755.94422      288.45685     -3573.4211      1920.3708      0.9969611
   1280000  -615.72772      125.60812     -741.33584      331.80253     -424.07923      1920.3708      0.9969611
   1281000  -641.12989      119.05176     -760.18166      314.48346      382.23286      1920.3708      0.9969611
   1282000  -613.56387      123.29152     -736.85538      325.68306      2353.8782      1920.3708      0.9969611
   1283000  -625.5744       116.85456     -742.42896      308.6794      -157.75943      1920.3708      0.9969611
   1284000  -621.2444       110.91992     -732.16433      293.00264      609.48793      1920.3708      0.9969611
   1285000  -630.86964      114.17553     -745.04517      301.60256      3014.8359      1920.3708      0.9969611
   1286000  -644.60168      113.85122     -758.45289      300.74586      986.31715      1920.3708      0.9969611
   1287000  -622.38759      111.57411     -733.96171      294.73073     -457.4387       1920.3708      0.9969611
   1288000  -640.37708      104.95703     -745.33411      277.25125     -3503.7342      1920.3708      0.9969611
   1289000  -606.00463      116.97396     -722.97858      308.99479      743.29218      1920.3708      0.9969611
   1290000  -633.35322      116.34114     -749.69436      307.32316     -1517.5569      1920.3708      0.9969611
   1291000  -620.66553      115.60464     -736.27017      305.37764      865.764        1920.3708      0.9969611
   1292000  -622.47165      106.92152     -729.39317      282.44057     -2094.4071      1920.3708      0.9969611
   1293000  -645.50099      100.45145     -745.95244      265.34945     -211.05366      1920.3708      0.9969611
   1294000  -625.31827      113.73673     -739.05501      300.44344     -1083.7103      1920.3708      0.9969611
   1295000  -626.51454      105.36595     -731.88049      278.33144      356.88672      1920.3708      0.9969611
   1296000  -606.84926      114.568       -721.41726      302.6393       4149.3446      1920.3708      0.9969611
   1297000  -626.94206      116.40138     -743.34343      307.48228      2013.2472      1920.3708      0.9969611
   1298000  -636.27242      106.74009     -743.01251      281.96132     -56.506325      1920.3708      0.9969611
   1299000  -654.76244      114.631       -769.39344      302.80571     -422.67173      1920.3708      0.9969611
   1300000  -624.71942      121.31123     -746.03066      320.45201      74.40185       1920.3708      0.9969611
   1301000  -611.59136      105.28679     -716.87815      278.12234      267.04507      1920.3708      0.9969611
   1302000  -648.13448      106.21019     -754.34468      280.56157      119.97932      1920.3708      0.9969611
   1303000  -627.54304      118.59639     -746.13944      313.28057     -80.768201      1920.3708      0.9969611
   1304000  -623.20766      106.54427     -729.75194      281.44407     -783.05192      1920.3708      0.9969611
   1305000  -655.31773      100.07679     -755.39452      264.35977      1925.795       1920.3708      0.9969611
   1306000  -643.2147       108.12284     -751.33754      285.61396      527.56071      1920.3708      0.9969611
   1307000  -637.04073      106.46538     -743.50611      281.23565      690.34874      1920.3708      0.9969611
   1308000  -630.62793      123.45328     -754.08121      326.11037     -202.03903      1920.3708      0.9969611
   1309000  -640.81617      101.96836     -742.78453      269.35648     -377.05301      1920.3708      0.9969611
   1310000  -647.45953      101.7102      -749.16973      268.67452     -1225.5146      1920.3708      0.9969611
   1311000  -621.75238      116.07607     -737.82845      306.62297     -1872.5347      1920.3708      0.9969611
   1312000  -629.41206      103.91147     -733.32353      274.48933     -3011.9531      1920.3708      0.9969611
   1313000  -632.00286      111.82912     -743.83198      295.40436      2902.2835      1920.3708      0.9969611
   1314000  -611.78037      125.4071      -737.18747      331.27153      409.61382      1920.3708      0.9969611
   1315000  -630.53473      109.27134     -739.80607      288.64779      1041.5256      1920.3708      0.9969611
   1316000  -617.51755      114.05369     -731.57124      301.28071     -608.14771      1920.3708      0.9969611
   1317000  -631.52656      105.9606      -737.48717      279.90225     -2339.5249      1920.3708      0.9969611
   1318000  -657.20477      105.05832     -762.26309      277.51881     -1845.3381      1920.3708      0.9969611
   1319000  -627.70185      115.9814      -743.68325      306.37289     -881.51327      1920.3708      0.9969611
   1320000  -633.20951      116.07473     -749.28423      306.61941      990.06468      1920.3708      0.9969611
   1321000  -650.91824      106.64455     -757.56279      281.70896     -1055.0249      1920.3708      0.9969611
   1322000  -662.15516      101.59        -763.74515      268.35699      1446.2387      1920.3708      0.9969611
   1323000  -651.12213      113.70298     -764.82511      300.35427     -2529.7508      1920.3708      0.9969611
   1324000  -638.36033      106.12789     -744.48823      280.34417     -1321.5322      1920.3708      0.9969611
   1325000  -650.21591      111.98889     -762.2048       295.82639     -2313.3979      1920.3708      0.9969611
   1326000  -610.96716      119.92351     -730.89066      316.78623      848.84957      1920.3708      0.9969611
   1327000  -631.55293      105.29028     -736.84321      278.13156     -2218.3806      1920.3708      0.9969611
   1328000  -631.12377      107.32727     -738.45103      283.51239      577.27672      1920.3708      0.9969611
   1329000  -662.17408      111.11186     -773.28594      293.50965      1595.2604      1920.3708      0.9969611
   1330000  -619.31135      116.2541      -735.56546      307.09325      3947.3096      1920.3708      0.9969611
   1331000  -653.26655      106.02555     -759.2921       280.07382      1612.5715      1920.3708      0.9969611
   1332000  -638.73379      115.39451     -754.12831      304.82258      1459.5088      1920.3708      0.9969611
   1333000  -654.71823      108.5747      -763.29293      286.80758      1075.178       1920.3708      0.9969611
   1334000  -642.73         109.25333     -751.98332      288.60021     -2766.9837      1920.3708      0.9969611
   1335000  -646.3143       117.47087     -763.78516      310.30741      118.31171      1920.3708      0.9969611
   1336000  -617.51963      124.14673     -741.66636      327.94218      275.41561      1920.3708      0.9969611
   1337000  -627.70797      110.17782     -737.88578      291.04232     -797.35077      1920.3708      0.9969611
   1338000  -629.73805      122.79148     -752.52953      324.36218     -642.15678      1920.3708      0.9969611
   1339000  -624.17976      109.41049     -733.59024      289.01536     -1559.2539      1920.3708      0.9969611
   1340000  -611.876        106.75851     -718.63451      282.00998      1270.1881      1920.3708      0.9969611
   1341000  -616.03832      105.813       -721.85132      279.51235     -936.30172      1920.3708      0.9969611
   1342000  -637.04033      100.51582     -737.55615      265.51949     -44.378455      1920.3708      0.9969611
   1343000  -648.57423      113.19905     -761.77328      299.02312     -263.81607      1920.3708      0.9969611
   1344000  -653.84732      93.8825       -747.72982      247.99711     -524.92987      1920.3708      0.9969611
   1345000  -625.5527       112.38615     -737.93884      296.87577     -2665.7447      1920.3708      0.9969611
   1346000  -647.4896       99.229832     -746.71943      262.12246      453.89885      1920.3708      0.9969611
   1347000  -607.0824       106.76534     -713.84774      282.02803      1023.1051      1920.3708      0.9969611
   1348000  -596.05982      115.0969      -711.15672      304.03641      962.12994      1920.3708      0.9969611
   1349000  -616.78033      109.98476     -726.7651       290.53235     -3085.7135      1920.3708      0.9969611
   1350000  -639.50608      111.82436     -751.33043      295.39176     -462.11954      1920.3708      0.9969611
   1351000  -628.29232      115.33375     -743.62607      304.66206      382.31234      1920.3708      0.9969611
   1352000  -632.65718      109.59717     -742.25435      289.50849      350.67958      1920.3708      0.9969611
   1353000  -624.07356      107.0421      -731.11566      282.7591       1376.3308      1920.3708      0.9969611
   1354000  -640.41928      112.41297     -752.83225      296.94663      527.70043      1920.3708      0.9969611
   1355000  -621.51023      114.19954     -735.70977      301.66598      948.00378      1920.3708      0.9969611
   1356000  -631.97004      112.51968     -744.48972      297.22851     -3634.2796      1920.3708      0.9969611
   1357000  -644.40022      91.743612     -736.14383      242.34709      108.03656      1920.3708      0.9969611
   1358000  -625.54956      111.09979     -736.64935      293.47778     -2548.2845      1920.3708      0.9969611
   1359000  -646.26669      99.407341     -745.67403      262.59136      802.92682      1920.3708      0.9969611
   1360000  -654.57841      118.19694     -772.77535      312.22538      521.96207      1920.3708      0.9969611
   1361000  -647.79428      111.59842     -759.3927       294.79494      2742.4621      1920.3708      0.9969611
   1362000  -653.90675      99.921029     -753.82778      263.9483       18.349525      1920.3708      0.9969611
   1363000  -646.22267      110.22984     -756.45251      291.17973     -408.13288      1920.3708      0.9969611
   1364000  -656.59394      102.60162     -759.19556      271.02928     -91.74754       1920.3708      0.9969611
   1365000  -631.15196      120.90689     -752.05885      319.3839       3476.8513      1920.3708      0.9969611
   1366000  -653.39432      113.73407     -767.12839      300.43641      448.83213      1920.3708      0.9969611
   1367000  -670.32993      104.26395     -774.59388      275.42044      2607.6376      1920.3708      0.9969611
   1368000  -646.7639       116.62905     -763.39295      308.08369      541.70436      1920.3708      0.9969611
   1369000  -635.47012      99.604329     -735.07445      263.11172      547.35783      1920.3708      0.9969611
   1370000  -643.70793      114.45831     -758.16624      302.34953      750.4508       1920.3708      0.9969611
   1371000  -643.77638      109.51536     -753.29173      289.29238      2170.4601      1920.3708      0.9969611
   1372000  -605.05929      121.4305      -726.48979      320.76707      953.8435       1920.3708      0.9969611
   1373000  -639.24122      123.04984     -762.29105      325.04464      421.7171       1920.3708      0.9969611
   1374000  -630.51362      114.87381     -745.38742      303.4471       2469.0345      1920.3708      0.9969611
   1375000  -628.84865      108.48184     -737.33049      286.56227      97.486127      1920.3708      0.9969611
   1376000  -638.63256      119.14232     -757.77488      314.72266     -604.87631      1920.3708      0.9969611
   1377000  -633.0381       113.96147     -746.99957      301.0371      -614.67881      1920.3708      0.9969611
   1378000  -646.45033      105.30305     -751.75339      278.16529      3470.0412      1920.3708      0.9969611
   1379000  -630.46932      122.85633     -753.32565      324.5335       679.07555      1920.3708      0.9969611
   1380000  -646.59475      112.04503     -758.63978      295.97469     -1791.9627      1920.3708      0.9969611
   1381000  -624.60666      117.13528     -741.74194      309.42093     -2138.4236      1920.3708      0.9969611
   1382000  -617.62086      119.47903     -737.09988      315.6121      -778.86609      1920.3708      0.9969611
   1383000  -630.44355      116.41256     -746.85611      307.51181      2252.0808      1920.3708      0.9969611
   1384000  -615.60963      127.09629     -742.70592      335.73362     -199.62596      1920.3708      0.9969611
   1385000  -651.91164      106.59619     -758.50783      281.5812      -316.04128      1920.3708      0.9969611
   1386000  -644.69501      109.11        -753.80501      288.2216       495.5212       1920.3708      0.9969611
   1387000  -659.00356      95.789745     -754.79331      253.03523      1255.1142      1920.3708      0.9969611
   1388000  -622.96053      114.781       -737.74154      303.20195      355.54222      1920.3708      0.9969611
   1389000  -611.83669      120.26896     -732.10565      317.69878     -2258.7318      1920.3708      0.9969611
   1390000  -624.98004      123.57786     -748.5579       326.43946      1401.1825      1920.3708      0.9969611
   1391000  -616.9258       118.08111     -735.00691      311.91942      1632.1911      1920.3708      0.9969611
   1392000  -625.32523      121.69628     -747.02151      321.46912     -1896.3496      1920.3708      0.9969611
   1393000  -620.35277      136.96706     -757.31983      361.80794      3298.2299      1920.3708      0.9969611
   1394000  -636.428        123.33987     -759.76787      325.81079     -3102.5949      1920.3708      0.9969611
   1395000  -627.71183      107.90089     -735.61271      285.02765     -136.10066      1920.3708      0.9969611
   1396000  -646.92463      106.8979      -753.82253      282.37819     -2169.8735      1920.3708      0.9969611
   1397000  -645.65185      106.91636     -752.56821      282.42696      2631.1603      1920.3708      0.9969611
   1398000  -645.74362      97.701895     -743.44551      258.08631      1831.7315      1920.3708      0.9969611
   1399000  -620.02044      123.75331     -743.77376      326.90293      1007.4318      1920.3708      0.9969611
   1400000  -647.3295       108.69687     -756.02636      287.13028     -2011.1854      1920.3708      0.9969611
   1401000  -633.57513      113.86164     -747.43677      300.77338      687.87983      1920.3708      0.9969611
   1402000  -599.66605      118.06389     -717.72994      311.87394      1700.0373      1920.3708      0.9969611
   1403000  -640.87858      104.14985     -745.02843      275.11902      1035.8538      1920.3708      0.9969611
   1404000  -631.80755      105.98311     -737.79066      279.9617       489.6598       1920.3708      0.9969611
   1405000  -644.9574       115.91643     -760.87383      306.20126     -1025.6058      1920.3708      0.9969611
   1406000  -650.53531      121.80556     -772.34087      321.7578      -886.70254      1920.3708      0.9969611
   1407000  -668.85221      110.13252     -778.98473      290.92267      650.62764      1920.3708      0.9969611
   1408000  -670.35509      105.33565     -775.69074      278.25139      2158.8899      1920.3708      0.9969611
   1409000  -653.569        112.1181      -765.6871       296.16772      1021.1187      1920.3708      0.9969611
   1410000  -616.95044      122.17899     -739.12943      322.74425     -2613.4992      1920.3708      0.9969611
   1411000  -635.87294      106.11046     -741.98339      280.2981       670.58711      1920.3708      0.9969611
   1412000  -628.09955      109.24808     -737.34763      288.58635      1575.9546      1920.3708      0.9969611
   1413000  -657.85558      96.179146     -754.03473      254.06386     -2170.0292      1920.3708      0.9969611
   1414000  -631.60676      103.76513     -735.37188      274.10276      1075.5672      1920.3708      0.9969611
   1415000  -653.34882      105.05892     -758.40774      277.5204       815.52029      1920.3708      0.9969611
   1416000  -646.24243      110.31206     -756.55449      291.39693      1499.1837      1920.3708      0.9969611
   1417000  -627.39571      117.92631     -745.32202      311.51049     -1843.8065      1920.3708      0.9969611
   1418000  -617.96495      119.74627     -737.71122      316.31805      4023.6858      1920.3708      0.9969611
   1419000  -611.8659       110.12158     -721.98748      290.89376     -265.38694      1920.3708      0.9969611
   1420000  -607.97096      109.69184     -717.6628       289.75858     -1700.7542      1920.3708      0.9969611
   1421000  -636.23079      108.68153     -744.91233      287.08978     -151.52148      1920.3708      0.9969611
   1422000  -634.56547      109.77446     -744.33994      289.97683      1016.7321      1920.3708      0.9969611
   1423000  -618.35595      113.35324     -731.70919      299.43042     -3767.8559      1920.3708      0.9969611
   1424000  -634.18449      109.55698     -743.74146      289.40233     -1518.7556      1920.3708      0.9969611
   1425000  -615.75026      124.82441     -740.57467      329.73231      1330.4648      1920.3708      0.9969611
   1426000  -643.45845      109.12569     -752.58415      288.26306     -272.71409      1920.3708      0.9969611
   1427000  -629.13541      115.45313     -744.58855      304.97743     -1675.3129      1920.3708      0.9969611
   1428000  -621.62968      117.30295     -738.93263      309.86384      523.68347      1920.3708      0.9969611
   1429000  -664.0624       105.52698     -769.58938      278.75681     -1244.4588      1920.3708      0.9969611
   1430000  -638.05647      121.28389     -759.34036      320.37977     -929.12659      1920.3708      0.9969611
   1431000  -646.30238      102.39666     -748.69904      270.48785      776.63135      1920.3708      0.9969611
   1432000  -677.07576      100.13778     -777.21354      264.52087     -783.83836      1920.3708      0.9969611
   1433000  -642.29814      108.57836     -750.87651      286.81725      1728.514       1920.3708      0.9969611
   1434000  -645.86402      96.486749     -742.35077      254.87642      1686.8897      1920.3708      0.9969611
   1435000  -631.17641      116.88289     -748.0593       308.75424     -241.43371      1920.3708      0.9969611
   1436000  -636.46489      110.45275     -746.91764      291.76857      1419.3451      1920.3708      0.9969611
   1437000  -629.06457      113.26857     -742.33314      299.20677      1319.776       1920.3708      0.9969611
   1438000  -650.3718       102.99558     -753.36737      272.06993     -4384.2136      1920.3708      0.9969611
   1439000  -627.52794      121.2806      -748.80854      320.37107      469.45469      1920.3708      0.9969611
   1440000  -657.60147      106.70558     -764.30704      281.87016      604.36037      1920.3708      0.9969611
   1441000  -618.29941      119.18698     -737.4864       314.84065      522.42431      1920.3708      0.9969611
   1442000  -619.78424      119.91271     -739.69695      316.75772     -1178.1722      1920.3708      0.9969611
   1443000  -613.17632      122.19502     -735.37134      322.78658      2577.6478      1920.3708      0.9969611
   1444000  -641.05957      104.60169     -745.66127      276.3126      -161.98912      1920.3708      0.9969611
   1445000  -650.17939      116.3697      -766.54909      307.3986      -1218.5116      1920.3708      0.9969611
   1446000  -643.02037      113.73509     -756.75545      300.43909     -122.76713      1920.3708      0.9969611
   1447000  -652.92693      112.21463     -765.14156      296.42269     -1197.3115      1920.3708      0.9969611
   1448000  -605.65736      114.64956     -720.30692      302.85475     -1666.2468      1920.3708      0.9969611
   1449000  -610.85033      121.27333     -732.12366      320.35189      1209.3653      1920.3708      0.9969611
   1450000  -612.97722      119.88452     -732.86174      316.68325     -406.54758      1920.3708      0.9969611
   1451000  -625.11616      110.29861     -735.41477      291.36141     -2668.1903      1920.3708      0.9969611
   1452000  -645.01105      110.94679     -755.95783      293.07361     -50.182966      1920.3708      0.9969611
   1453000  -647.65385      106.78143     -754.43528      282.07052      3234.3462      1920.3708      0.9969611
   1454000  -617.52668      128.45481     -745.98149      339.32225     -1686.6433      1920.3708      0.9969611
   1455000  -647.72019      113.17637     -760.89657      298.96321      1059.0499      1920.3708      0.9969611
   1456000  -647.87868      107.96865     -755.84733      285.20666      1812.601       1920.3708      0.9969611
   1457000  -636.52499      106.04068     -742.56567      280.11379     -2539.1414      1920.3708      0.9969611
   1458000  -619.92636      113.05469     -732.98105      298.64177      1597.501       1920.3708      0.9969611
   1459000  -658.50735      100.90414     -759.41149      266.54526     -1384.0962      1920.3708      0.9969611
   1460000  -629.11515      105.36073     -734.47589      278.31766      1989.125       1920.3708      0.9969611
   1461000  -656.8868       100.61664     -757.50344      265.7858      -1835.5899      1920.3708      0.9969611
   1462000  -642.30478      104.57191     -746.87669      276.23394     -975.06418      1920.3708      0.9969611
   1463000  -615.66211      130.86687     -746.52897      345.69387      4218.129       1920.3708      0.9969611
   1464000  -633.20698      117.24663     -750.45362      309.71509     -162.10129      1920.3708      0.9969611
   1465000  -657.19175      99.335446     -756.52719      262.40144     -403.72399      1920.3708      0.9969611
   1466000  -632.54913      118.35125     -750.90038      312.63302     -647.11816      1920.3708      0.9969611
   1467000  -610.83178      116.75146     -727.58324      308.40706      1823.2008      1920.3708      0.9969611
   1468000  -645.69162      104.19729     -749.88891      275.24434      431.35141      1920.3708      0.9969611
   1469000  -642.984        116.3467      -759.3307       307.33786      3268.1943      1920.3708      0.9969611
   1470000  -639.87649      113.47998     -753.35647      299.76522      1179.6669      1920.3708      0.9969611
   1471000  -643.84528      104.85076     -748.69604      276.97053     -776.90745      1920.3708      0.9969611
   1472000  -640.62954      127.43165     -768.06118      336.6195      -408.6957       1920.3708      0.9969611
   1473000  -652.01945      101.35853     -753.37798      267.74557     -2481.8669      1920.3708      0.9969611
   1474000  -633.18748      113.48288     -746.67036      299.77286      771.02182      1920.3708      0.9969611
   1475000  -627.46423      124.15722     -751.62145      327.96987     -719.21321      1920.3708      0.9969611
   1476000  -621.96864      120.38363     -742.35227      318.00169      1217.3213      1920.3708      0.9969611
   1477000  -634.88465      107.94846     -742.83311      285.15332     -1724.5676      1920.3708      0.9969611
   1478000  -618.10334      109.89573     -727.99907      290.29717      2359.3316      1920.3708      0.9969611
   1479000  -624.67528      117.3488      -742.02408      309.98496     -736.47376      1920.3708      0.9969611
   1480000  -606.54967      124.4743      -731.02398      328.80748      2198.7014      1920.3708      0.9969611
   1481000  -625.0936       114.5546      -739.64821      302.6039      -1069.486       1920.3708      0.9969611
   1482000  -645.22375      111.8554      -757.07914      295.47376      1637.6096      1920.3708      0.9969611
   1483000  -624.7775       106.94351     -731.72101      282.49868     -953.45664      1920.3708      0.9969611
   1484000  -658.20952      109.464       -767.67351      289.15672      2598.8945      1920.3708      0.9969611
   1485000  -637.38983      107.04982     -744.43965      282.77949      2285.4693      1920.3708      0.9969611
   1486000  -631.23879      119.85112     -751.08991      316.59503     -1605.4363      1920.3708      0.9969611
   1487000  -624.52156      125.43616     -749.95772      331.34828      27.905363      1920.3708      0.9969611
   1488000  -631.63117      122.32136     -753.95253      323.12032     -1060.0751      1920.3708      0.9969611
   1489000  -641.40168      113.85865     -755.26033      300.76548      1500.0339      1920.3708      0.9969611
   1490000  -619.39572      115.70143     -735.09715      305.63332      1021.1217      1920.3708      0.9969611
   1491000  -601.98006      130.71911     -732.69917      345.30356     -365.82948      1920.3708      0.9969611
   1492000  -631.12018      112.2607      -743.38088      296.54439     -3693.8248      1920.3708      0.9969611
   1493000  -607.92281      109.52605     -717.44886      289.32063      98.300708      1920.3708      0.9969611
   1494000  -617.91433      130.19158     -748.1059       343.91004      1392.1192      1920.3708      0.9969611
   1495000  -652.7987       100.15008     -752.94879      264.55337     -27.643023      1920.3708      0.9969611
   1496000  -625.00307      120.90473     -745.9078       319.3782      -15.351067      1920.3708      0.9969611
   1497000  -620.66701      120.8529      -741.5199       319.24128     -1278.5873      1920.3708      0.9969611
   1498000  -632.98574      118.64265     -751.62839      313.40276     -543.45071      1920.3708      0.9969611
   1499000  -629.2037       113.0999      -742.3036       298.7612      -1140.0646      1920.3708      0.9969611
   1500000  -644.72357      117.7069      -762.43047      310.93091     -1339.6782      1920.3708      0.9969611
   1501000  -616.99634      123.7173      -740.71364      326.8078       2426.9076      1920.3708      0.9969611
   1502000  -612.0456       109.72149     -721.7671       289.83691     -165.23872      1920.3708      0.9969611
   1503000  -634.48482      104.89385     -739.37867      277.08435      622.06424      1920.3708      0.9969611
   1504000  -622.54205      109.51264     -732.05469      289.2852      -951.08563      1920.3708      0.9969611
   1505000  -605.61232      122.44979     -728.06211      323.45959      687.57612      1920.3708      0.9969611
   1506000  -617.86439      115.82748     -733.69187      305.96628      1433.2612      1920.3708      0.9969611
   1507000  -644.61093      107.36741     -751.97834      283.61844     -154.21139      1920.3708      0.9969611
   1508000  -646.66526      106.585       -753.25026      281.55164      43.764527      1920.3708      0.9969611
   1509000  -640.70289      101.56876     -742.27165      268.3009      -638.67296      1920.3708      0.9969611
   1510000  -635.22651      123.70339     -758.9299       326.77106      3654.6274      1920.3708      0.9969611
   1511000  -625.20853      123.37199     -748.58051      325.89564      1298.8717      1920.3708      0.9969611
   1512000  -615.6227       123.21952     -738.84222      325.49288      3.4042604      1920.3708      0.9969611
   1513000  -639.44465      107.19454     -746.63919      283.16179      701.14009      1920.3708      0.9969611
   1514000  -609.83711      119.30311     -729.14022      315.14741      5884.1979      1920.3708      0.9969611
   1515000  -643.01984      115.37606     -758.3959       304.77384     -1085.5599      1920.3708      0.9969611
   1516000  -633.96266      104.1882      -738.15086      275.22033      1783.7919      1920.3708      0.9969611
   1517000  -628.19984      119.31221     -747.51205      315.17145     -1339.7713      1920.3708      0.9969611
   1518000  -626.32987      106.56824     -732.8981       281.50737     -2384.3581      1920.3708      0.9969611
   1519000  -644.04279      115.52672     -759.56951      305.17183     -2330.0321      1920.3708      0.9969611
   1520000  -641.46917      121.53761     -763.00678      321.04998      1551.3677      1920.3708      0.9969611
   1521000  -624.05011      105.92997     -729.98008      279.82133      1595.7709      1920.3708      0.9969611
   1522000  -632.46323      115.04587     -747.5091       303.90161      1959.6232      1920.3708      0.9969611
   1523000  -664.42554      114.65405     -779.07959      302.86659      425.42815      1920.3708      0.9969611
   1524000  -640.56176      104.10747     -744.66923      275.00708     -1984.9796      1920.3708      0.9969611
   1525000  -639.18892      117.7323      -756.92122      310.99801     -1925.1666      1920.3708      0.9969611
   1526000  -650.0975       107.62401     -757.72151      284.29625      1097.0064      1920.3708      0.9969611
   1527000  -639.83022      104.9322      -744.76241      277.18565     -1086.8328      1920.3708      0.9969611
   1528000  -655.026        105.97579     -761.00179      279.94236     -2144.4255      1920.3708      0.9969611
   1529000  -639.87796      113.5081      -753.38607      299.8395      -2471.3207      1920.3708      0.9969611
   1530000  -606.60508      121.33129     -727.93637      320.505       -605.26802      1920.3708      0.9969611
   1531000  -615.06687      121.75605     -736.82292      321.62702      348.43269      1920.3708      0.9969611
   1532000  -623.08013      111.01469     -734.09483      293.25298     -126.97881      1920.3708      0.9969611
   1533000  -617.15105      117.19204     -734.34308      309.57086      2606.8058      1920.3708      0.9969611
   1534000  -643.66132      104.83112     -748.49244      276.91865      871.18815      1920.3708      0.9969611
   1535000  -616.10922      118.76235     -734.87158      313.71897     -1735.204       1920.3708      0.9969611
   1536000  -620.53701      107.98009     -728.51709      285.23686     -976.50228      1920.3708      0.9969611
   1537000  -641.24904      105.89723     -747.14626      279.73484      1001.0614      1920.3708      0.9969611
   1538000  -617.30533      116.51002     -733.81535      307.76927     -792.85859      1920.3708      0.9969611
   1539000  -619.48965      116.55822     -736.04786      307.89658      81.821377      1920.3708      0.9969611
   1540000  -612.84781      121.14448     -733.99229      320.01151      2086.7998      1920.3708      0.9969611
   1541000  -638.89679      104.36683     -743.26362      275.69218     -1682.674       1920.3708      0.9969611
   1542000  -645.09751      109.18148     -754.27899      288.41043     -785.38134      1920.3708      0.9969611
   1543000  -622.37213      120.00088     -742.37301      316.99062     -1175.3851      1920.3708      0.9969611
   1544000  -655.86668      96.237722     -752.1044       254.21859     -2897.0341      1920.3708      0.9969611
   1545000  -658.24623      109.4173      -767.66352      289.03335      1701.2315      1920.3708      0.9969611
   1546000  -650.93505      122.62229     -773.55734      323.91525     -709.34654      1920.3708      0.9969611
   1547000  -656.13812      106.7223      -762.86043      281.91434      1721.9853      1920.3708      0.9969611
   1548000  -638.6531       120.10344     -758.75654      317.26154      842.81642      1920.3708      0.9969611
   1549000  -660.11415      103.6827      -763.79685      273.88502     -2091.6289      1920.3708      0.9969611
   1550000  -643.71682      111.93544     -755.65226      295.68521     -1221.4304      1920.3708      0.9969611
   1551000  -642.17457      121.68514     -763.85971      321.43971     -461.627        1920.3708      0.9969611
   1552000  -646.6411       115.97858     -762.61968      306.36544      258.99128      1920.3708      0.9969611
   1553000  -630.98504      103.04996     -734.035        272.21358     -1345.0919      1920.3708      0.9969611
   1554000  -611.10455      120.05583     -731.16038      317.13577      2294.5141      1920.3708      0.9969611
   1555000  -643.7345       108.09453     -751.82902      285.53916     -2042.7696      1920.3708      0.9969611
   1556000  -648.60146      120.61261     -769.21407      318.60654     -405.36459      1920.3708      0.9969611
   1557000  -614.45894      110.48681     -724.94575      291.85853      2098.1528      1920.3708      0.9969611
   1558000  -652.64888      103.96821     -756.61708      274.63921      543.10948      1920.3708      0.9969611
   1559000  -632.64853      98.692273     -731.3408       260.70246      761.07233      1920.3708      0.9969611
   1560000  -603.09395      145.31189     -748.40584      383.85139      199.19465      1920.3708      0.9969611
   1561000  -627.6685       115.62647     -743.29497      305.4353      -1767.3296      1920.3708      0.9969611
   1562000  -654.06686      108.31541     -762.38227      286.12265     -3461.1         1920.3708      0.9969611
   1563000  -631.27355      120.04682     -751.32037      317.11196      1582.0119      1920.3708      0.9969611
   1564000  -644.25746      109.4845      -753.74196      289.21088      1097.6805      1920.3708      0.9969611
   1565000  -621.19802      108.80735     -730.00537      287.42213     -971.97012      1920.3708      0.9969611
   1566000  -621.90698      121.55148     -743.45846      321.08664     -2182.0471      1920.3708      0.9969611
   1567000  -651.15463      109.72493     -760.87956      289.84598     -1968.4271      1920.3708      0.9969611
   1568000  -618.35179      113.39358     -731.74537      299.53699      474.14145      1920.3708      0.9969611
   1569000  -587.37374      135.1825      -722.55624      357.09392      424.23623      1920.3708      0.9969611
   1570000  -616.33014      129.64849     -745.97863      342.47545     -2134.8926      1920.3708      0.9969611
   1571000  -620.46068      118.87433     -739.33501      314.01476     -3334.8383      1920.3708      0.9969611
   1572000  -623.53271      114.64936     -738.18208      302.85421      1582.5351      1920.3708      0.9969611
   1573000  -619.8286       123.32021     -743.14881      325.75887     -1784.6489      1920.3708      0.9969611
   1574000  -638.91242      105.56649     -744.4789       278.86117     -2553.9323      1920.3708      0.9969611
   1575000  -658.11663      103.39657     -761.5132       273.1292      -1928.113       1920.3708      0.9969611
   1576000  -656.39962      103.38731     -759.78692      273.10471     -1122.9584      1920.3708      0.9969611
   1577000  -630.69795      115.87348     -746.57143      306.08781     -1821.2053      1920.3708      0.9969611
   1578000  -615.62236      126.40794     -742.0303       333.91531     -528.29372      1920.3708      0.9969611
   1579000  -628.15624      118.26754     -746.42378      312.41189     -2110.851       1920.3708      0.9969611
   1580000  -632.04663      107.79139     -739.83802      284.73841     -814.94869      1920.3708      0.9969611
   1581000  -635.37062      111.1343      -746.50492      293.56894     -1084.616       1920.3708      0.9969611
   1582000  -615.72406      115.91245     -731.6365       306.19074      1558.2279      1920.3708      0.9969611
   1583000  -627.4749       117.36078     -744.83568      310.01661      73.79996       1920.3708      0.9969611
   1584000  -605.7733       126.86662     -732.63992      335.12694      2339.2293      1920.3708      0.9969611
   1585000  -611.76437      113.89933     -725.6637       300.87295     -318.76533      1920.3708      0.9969611
   1586000  -649.86505      99.155234     -749.02028      261.9254       673.01272      1920.3708      0.9969611
   1587000  -633.56658      113.09839     -746.66497      298.75722     -871.44392      1920.3708      0.9969611
   1588000  -625.54847      109.10304     -734.65151      288.20321     -618.55715      1920.3708      0.9969611
   1589000  -661.86391      115.99623     -777.86014      306.41206     -518.53326      1920.3708      0.9969611
   1590000  -647.04778      109.26033     -756.3081       288.6187       4044.5808      1920.3708      0.9969611
   1591000  -628.41026      113.16051     -741.57078      298.92132      1330.6743      1920.3708      0.9969611
   1592000  -628.21523      106.68599     -734.90122      281.81842      867.7108       1920.3708      0.9969611
   1593000  -646.14578      108.90978     -755.05556      287.6927      -1464.9196      1920.3708      0.9969611
   1594000  -627.53879      109.98037     -737.51915      290.52074     -3031.1975      1920.3708      0.9969611
   1595000  -633.57267      108.60399     -742.17666      286.88495      788.99034      1920.3708      0.9969611
   1596000  -615.21912      120.96428     -736.1834       319.5355      -270.57646      1920.3708      0.9969611
   1597000  -649.91172      106.39901     -756.31073      281.06033     -68.706908      1920.3708      0.9969611
   1598000  -625.28623      116.06431     -741.35054      306.59189     -390.0763       1920.3708      0.9969611
   1599000  -642.90405      109.81663     -752.72068      290.08821      987.33535      1920.3708      0.9969611
   1600000  -636.9017       112.67571     -749.57741      297.64068      1601.4078      1920.3708      0.9969611
   1601000  -644.13353      105.73628     -749.86981      279.30968      1326.5089      1920.3708      0.9969611
   1602000  -604.66721      119.34407     -724.01128      315.2556       947.93691      1920.3708      0.9969611
   1603000  -638.03896      117.35313     -755.39209      309.99639      2055.6391      1920.3708      0.9969611
   1604000  -618.80963      124.00496     -742.81459      327.56768     -179.09116      1920.3708      0.9969611
   1605000  -640.53391      101.01265     -741.54657      266.8319       2750.1746      1920.3708      0.9969611
   1606000  -632.1306       111.30346     -743.43406      294.01577     -3683.6369      1920.3708      0.9969611
   1607000  -609.20642      127.67961     -736.88603      337.27451      1341.5079      1920.3708      0.9969611
   1608000  -633.78712      115.87305     -749.66017      306.08668     -210.22098      1920.3708      0.9969611
   1609000  -652.08698      117.15265     -769.23963      309.46682      1355.0111      1920.3708      0.9969611
   1610000  -636.72717      110.15964     -746.88681      290.9943      -896.19627      1920.3708      0.9969611
   1611000  -632.83971      110.70033     -743.54004      292.42257     -58.482405      1920.3708      0.9969611
   1612000  -645.30672      114.716       -760.02272      303.03023      231.81044      1920.3708      0.9969611
   1613000  -646.53213      112.23133     -758.76346      296.4668      -829.58393      1920.3708      0.9969611
   1614000  -638.08977      112.52639     -750.61616      297.24624      63.167129      1920.3708      0.9969611
   1615000  -633.55489      110.89322     -744.44811      292.93211      116.87254      1920.3708      0.9969611
   1616000  -607.69684      124.29057     -731.98741      328.32213      1032.3455      1920.3708      0.9969611
   1617000  -625.25418      119.81222     -745.0664       316.49226      2325.3819      1920.3708      0.9969611
   1618000  -643.88022      117.11635     -760.99657      309.37093      794.95591      1920.3708      0.9969611
   1619000  -651.70583      98.794711     -750.50054      260.97306     -345.52135      1920.3708      0.9969611
   1620000  -637.05201      90.364723     -727.41674      238.70466      1700.0615      1920.3708      0.9969611
   1621000  -611.99566      121.80056     -733.79621      321.74459     -402.02894      1920.3708      0.9969611
   1622000  -625.58432      114.60811     -740.19243      302.74523     -372.5668       1920.3708      0.9969611
   1623000  -632.76775      105.6222      -738.38995      279.00833     -1709.204       1920.3708      0.9969611
   1624000  -652.62663      102.66308     -755.28972      271.19163     -552.85401      1920.3708      0.9969611
   1625000  -631.75085      111.22835     -742.9792       293.81738      184.15016      1920.3708      0.9969611
   1626000  -622.74973      123.92732     -746.67704      327.36257      2374.9327      1920.3708      0.9969611
   1627000  -642.53563      108.60396     -751.13958      286.88486      1360.1732      1920.3708      0.9969611
   1628000  -643.93652      114.27032     -758.20683      301.85294     -1294.3645      1920.3708      0.9969611
   1629000  -635.83302      111.06099     -746.89401      293.37528      164.91734      1920.3708      0.9969611
   1630000  -639.21247      108.02975     -747.24222      285.36805     -807.4977       1920.3708      0.9969611
   1631000  -626.56583      117.16158     -743.72741      309.49041      470.7284       1920.3708      0.9969611
   1632000  -628.39354      113.63571     -742.02924      300.17657     -729.11581      1920.3708      0.9969611
   1633000  -619.71843      114.43209     -734.15053      302.28029     -210.08232      1920.3708      0.9969611
   1634000  -624.71344      120.13399     -744.84743      317.34223     -2780.8252      1920.3708      0.9969611
   1635000  -630.76083      121.61065     -752.37148      321.24293      1073.6469      1920.3708      0.9969611
   1636000  -645.84792      117.75128     -763.5992       311.04815     -1424.409       1920.3708      0.9969611
   1637000  -637.95409      120.32772     -758.28181      317.85398     -1045.9967      1920.3708      0.9969611
   1638000  -618.96744      125.4101      -744.37754      331.27943      75.869757      1920.3708      0.9969611
   1639000  -627.16996      114.59547     -741.76543      302.71186      4621.7191      1920.3708      0.9969611
   1640000  -657.65271      107.85059     -765.5033       284.8948      -1078.9132      1920.3708      0.9969611
   1641000  -646.83666      111.55446     -758.39112      294.67881     -1207.5762      1920.3708      0.9969611
   1642000  -632.10904      113.90332     -746.01236      300.88348     -415.93419      1920.3708      0.9969611
   1643000  -617.66958      112.53348     -730.20305      297.26495     -1722.6745      1920.3708      0.9969611
   1644000  -633.3732       114.50169     -747.87489      302.46413      1951.333       1920.3708      0.9969611
   1645000  -621.91703      119.78632     -741.70335      316.42384      1485.6108      1920.3708      0.9969611
   1646000  -637.45101      123.97737     -761.42837      327.49478     -1336.0804      1920.3708      0.9969611
   1647000  -651.89541      95.577596     -747.47301      252.47483     -2127.4834      1920.3708      0.9969611
   1648000  -626.62733      111.75325     -738.38058      295.20392      1460.2391      1920.3708      0.9969611
   1649000  -644.31684      105.42403     -749.74087      278.48487      707.63314      1920.3708      0.9969611
   1650000  -640.80539      105.74874     -746.55413      279.34261      2914.1054      1920.3708      0.9969611
   1651000  -653.10407      109.91522     -763.01929      290.34864     -1966.7446      1920.3708      0.9969611
   1652000  -665.44821      104.19341     -769.64162      275.23408      989.70651      1920.3708      0.9969611
   1653000  -617.97286      114.61099     -732.58384      302.75284      2475.2519      1920.3708      0.9969611
   1654000  -621.11492      109.08772     -730.20264      288.16275      1783.3972      1920.3708      0.9969611
   1655000  -616.22102      120.54897     -736.77         318.43844      1350.577       1920.3708      0.9969611
   1656000  -647.28515      102.63073     -749.91588      271.10617     -670.89037      1920.3708      0.9969611
   1657000  -615.45139      109.65504     -725.10643      289.66138     -1156.0609      1920.3708      0.9969611
   1658000  -614.34129      122.36199     -736.70328      323.22765     -744.21099      1920.3708      0.9969611
   1659000  -648.45724      94.669786     -743.12702      250.07678     -544.34778      1920.3708      0.9969611
   1660000  -636.0459       122.86716     -758.91307      324.5621      -415.2702       1920.3708      0.9969611
   1661000  -634.43991      116.54511     -750.98502      307.86197      848.61016      1920.3708      0.9969611
   1662000  -622.52406      110.58069     -733.10475      292.10652      1214.638       1920.3708      0.9969611
   1663000  -620.08771      121.44451     -741.53222      320.80405      84.377024      1920.3708      0.9969611
   1664000  -647.46607      111.00902     -758.47509      293.23799     -1729.3153      1920.3708      0.9969611
   1665000  -648.67383      114.71666     -763.39049      303.03197     -125.63095      1920.3708      0.9969611
   1666000  -620.6576       112.09156     -732.74916      296.0976       221.42463      1920.3708      0.9969611
   1667000  -618.48851      125.08486     -743.57336      330.42029     -1280.1908      1920.3708      0.9969611
   1668000  -652.11663      99.398005     -751.51464      262.5667       1135.7784      1920.3708      0.9969611
   1669000  -642.72139      102.59773     -745.31912      271.01899      1517.3523      1920.3708      0.9969611
   1670000  -619.06495      124.76424     -743.82919      329.57337      812.63675      1920.3708      0.9969611
   1671000  -615.77851      115.74145     -731.51996      305.73905      1572.0207      1920.3708      0.9969611
   1672000  -614.10327      116.64753     -730.7508       308.13252     -2756.1962      1920.3708      0.9969611
   1673000  -621.41801      108.76196     -730.17997      287.30224     -781.98309      1920.3708      0.9969611
   1674000  -604.62576      124.11085     -728.73661      327.84739      13.962968      1920.3708      0.9969611
   1675000  -641.74643      104.59862     -746.34505      276.30447     -1239.2967      1920.3708      0.9969611
   1676000  -616.18386      111.69738     -727.88124      295.05635     -134.2233       1920.3708      0.9969611
   1677000  -587.66756      121.97605     -709.64361      322.20817      2186.4851      1920.3708      0.9969611
   1678000  -629.89064      111.54927     -741.43991      294.6651      -556.97606      1920.3708      0.9969611
   1679000  -641.56891      113.69318     -755.2621       300.3284       3936.9114      1920.3708      0.9969611
   1680000  -639.14221      108.58757     -747.72977      286.84156     -971.18552      1920.3708      0.9969611
   1681000  -634.28986      100.06129     -734.35115      264.31881     -1924.8183      1920.3708      0.9969611
   1682000  -613.20704      120.71043     -733.91746      318.86493     -383.05186      1920.3708      0.9969611
   1683000  -630.0893       120.75677     -750.84607      318.98735      1344.0763      1920.3708      0.9969611
   1684000  -621.45961      118.59039     -740.05         313.26472      2705.6903      1920.3708      0.9969611
   1685000  -624.96998      105.82743     -730.79741      279.55047      1225.1467      1920.3708      0.9969611
   1686000  -657.25932      98.503952     -755.76327      260.205       -2546.4472      1920.3708      0.9969611
   1687000  -628.81759      118.22406     -747.04165      312.29701      542.97502      1920.3708      0.9969611
   1688000  -644.22283      109.58188     -753.80471      289.46812     -2285.0605      1920.3708      0.9969611
   1689000  -642.02126      105.47861     -747.49986      278.62903      1040.4657      1920.3708      0.9969611
   1690000  -621.22816      119.77129     -740.99945      316.38415      808.71216      1920.3708      0.9969611
   1691000  -639.74555      113.31332     -753.05886      299.32495      1227.2153      1920.3708      0.9969611
   1692000  -629.73687      118.16937     -747.90624      312.15255      2773.1668      1920.3708      0.9969611
   1693000  -649.98672      109.89146     -759.87818      290.28588      1535.8841      1920.3708      0.9969611
   1694000  -615.80403      118.72872     -734.53274      313.63011     -955.25557      1920.3708      0.9969611
   1695000  -645.04217      106.66198     -751.70414      281.75499      625.33906      1920.3708      0.9969611
   1696000  -621.2218       119.47062     -740.69243      315.58991     -1018.2489      1920.3708      0.9969611
   1697000  -640.33518      103.6702      -744.00538      273.85199     -2916.0579      1920.3708      0.9969611
   1698000  -648.60789      106.14112     -754.74902      280.37911      168.56494      1920.3708      0.9969611
   1699000  -639.31908      109.14404     -748.46311      288.31151      2619.0122      1920.3708      0.9969611
   1700000  -655.75103      109.35783     -765.10886      288.87627     -1191.8395      1920.3708      0.9969611
   1701000  -640.81938      108.35506     -749.17444      286.22737      1901.8939      1920.3708      0.9969611
   1702000  -632.41744      111.0616      -743.47905      293.3769      -1312.1064      1920.3708      0.9969611
   1703000  -635.56792      106.95735     -742.52527      282.53523      2155.7742      1920.3708      0.9969611
   1704000  -622.07604      109.24452     -731.32055      288.57694      668.78603      1920.3708      0.9969611
   1705000  -648.12332      113.58719     -761.71051      300.04842     -2516.3631      1920.3708      0.9969611
   1706000  -639.35989      104.87812     -744.23801      277.04279     -1625.8809      1920.3708      0.9969611
   1707000  -641.88476      119.85183     -761.73658      316.59688     -1191.817       1920.3708      0.9969611
   1708000  -612.62815      130.53415     -743.16231      344.81499      3794.9013      1920.3708      0.9969611
   1709000  -620.24491      110.41612     -730.66103      291.67181      1345.9359      1920.3708      0.9969611
   1710000  -624.56278      112.45651     -737.01929      297.06165     -518.45873      1920.3708      0.9969611
   1711000  -640.09735      110.23249     -750.32984      291.18673     -1558.7335      1920.3708      0.9969611
   1712000  -630.84795      122.12834     -752.97629      322.61045     -2697.0711      1920.3708      0.9969611
   1713000  -609.14981      133.76238     -742.91219      353.34257      420.29156      1920.3708      0.9969611
   1714000  -623.69226      113.68691     -737.37917      300.31182      114.41218      1920.3708      0.9969611
   1715000  -618.24547      121.56806     -739.81353      321.13043     -198.85188      1920.3708      0.9969611
   1716000  -630.69957      104.39112     -735.09069      275.75635     -1924.6356      1920.3708      0.9969611
   1717000  -639.65417      100.5178      -740.17197      265.52472     -2181.2174      1920.3708      0.9969611
   1718000  -617.66911      109.35352     -727.02263      288.86487     -634.54614      1920.3708      0.9969611
   1719000  -634.89541      108.11017     -743.00559      285.5805      -1084.3229      1920.3708      0.9969611
   1720000  -639.18568      110.00576     -749.19145      290.58782     -590.42679      1920.3708      0.9969611
   1721000  -625.78272      109.96596     -735.74868      290.48268     -768.27535      1920.3708      0.9969611
   1722000  -633.07543      100.15324     -733.22867      264.56171     -288.92472      1920.3708      0.9969611
   1723000  -612.93956      119.20626     -732.14582      314.89158      2216.4322      1920.3708      0.9969611
   1724000  -630.83684      106.17169     -737.00853      280.45986     -313.31419      1920.3708      0.9969611
   1725000  -634.96264      117.37732     -752.33996      310.06029     -243.92795      1920.3708      0.9969611
   1726000  -626.16774      107.03538     -733.20312      282.74136     -317.86651      1920.3708      0.9969611
   1727000  -610.64356      115.87218     -726.51575      306.08438     -278.60969      1920.3708      0.9969611
   1728000  -623.71729      125.95288     -749.67018      332.71325      59.589758      1920.3708      0.9969611
   1729000  -642.7513       121.15065     -763.90195      320.02781      1264.5033      1920.3708      0.9969611
   1730000  -618.07309      109.88531     -727.9584       290.26963     -32.24912       1920.3708      0.9969611
   1731000  -617.04415      119.6167      -736.66085      315.97577      492.07136      1920.3708      0.9969611
   1732000  -646.59713      112.70148     -759.29861      297.70876      215.4161       1920.3708      0.9969611
   1733000  -633.93448      120.09911     -754.03359      317.2501       579.49428      1920.3708      0.9969611
   1734000  -665.67808      100.43379     -766.11187      265.30281      1416.3325      1920.3708      0.9969611
   1735000  -629.73418      119.27265     -749.00683      315.06694      1310.8053      1920.3708      0.9969611
   1736000  -634.73526      109.12373     -743.85898      288.25787     -138.95881      1920.3708      0.9969611
   1737000  -624.53661      107.76647     -732.30307      284.67257     -3516.1924      1920.3708      0.9969611
   1738000  -627.31848      121.16611     -748.48459      320.06866     -1081.42        1920.3708      0.9969611
   1739000  -620.11376      113.22044     -733.3342       299.07961     -1316.8276      1920.3708      0.9969611
   1740000  -640.69673      116.16838     -756.86511      306.8668      -641.50244      1920.3708      0.9969611
   1741000  -623.38606      113.20226     -736.58832      299.03159     -384.6894       1920.3708      0.9969611
   1742000  -631.15353      106.53772     -737.69125      281.42675     -645.10219      1920.3708      0.9969611
   1743000  -626.07989      112.12478     -738.20467      296.18534     -390.45586      1920.3708      0.9969611
   1744000  -638.47868      112.92527     -751.40395      298.29989      2227.6682      1920.3708      0.9969611
   1745000  -624.95208      114.66947     -739.62155      302.90733     -1047.0294      1920.3708      0.9969611
   1746000  -625.15902      105.82831     -730.98733      279.55279     -1062.3453      1920.3708      0.9969611
   1747000  -645.33245      109.60783     -754.94027      289.53665     -2223.7676      1920.3708      0.9969611
   1748000  -627.18194      125.79153     -752.97347      332.28701      1733.9275      1920.3708      0.9969611
   1749000  -659.15007      108.30065     -767.45071      286.08364      1151.1705      1920.3708      0.9969611
   1750000  -668.01447      96.903135     -764.91761      255.97633     -1033.5905      1920.3708      0.9969611
   1751000  -633.65187      109.26149     -742.91336      288.62178     -1756.1236      1920.3708      0.9969611
   1752000  -651.64868      113.56957     -765.21825      300.00186      2262.1807      1920.3708      0.9969611
   1753000  -621.13275      106.38749     -727.52024      281.0299       1320.8536      1920.3708      0.9969611
   1754000  -632.38345      104.88275     -737.2662       277.05503     -1221.0709      1920.3708      0.9969611
   1755000  -645.13212      105.06405     -750.19617      277.53395     -508.84092      1920.3708      0.9969611
   1756000  -626.56865      115.05167     -741.62032      303.91694      47.161899      1920.3708      0.9969611
   1757000  -649.74431      106.80569     -756.55         282.13462     -508.33183      1920.3708      0.9969611
   1758000  -638.79154      122.79435     -761.58589      324.36975     -1389.8906      1920.3708      0.9969611
   1759000  -638.65641      102.74033     -741.39674      271.39567     -1295.2567      1920.3708      0.9969611
   1760000  -622.92713      132.90719     -755.83432      351.08352      2655.5768      1920.3708      0.9969611
   1761000  -647.64112      100.15919     -747.80031      264.57742     -941.17995      1920.3708      0.9969611
   1762000  -628.80948      117.3699      -746.17938      310.04069     -2097.971       1920.3708      0.9969611
   1763000  -612.03538      107.12714     -719.16252      282.98373      878.80894      1920.3708      0.9969611
   1764000  -612.16135      116.20423     -728.36558      306.96151      122.22139      1920.3708      0.9969611
   1765000  -636.95669      106.84933     -743.80603      282.2499      -1466.2867      1920.3708      0.9969611
   1766000  -614.9147       118.37875     -733.29345      312.70565      94.529596      1920.3708      0.9969611
   1767000  -599.84872      120.38549     -720.23421      318.0066       3088.1694      1920.3708      0.9969611
   1768000  -648.60476      102.13601     -750.74077      269.79934     -1047.1732      1920.3708      0.9969611
   1769000  -632.32072      115.95051     -748.27123      306.29129     -240.68791      1920.3708      0.9969611
   1770000  -652.83559      121.2498      -774.0854       320.28974     -1377.0481      1920.3708      0.9969611
   1771000  -653.47494      111.31407     -764.78901      294.04381     -453.07523      1920.3708      0.9969611
   1772000  -644.58557      109.50399     -754.08955      289.26235      955.50112      1920.3708      0.9969611
   1773000  -620.19364      108.64971     -728.84335      287.00572      97.476226      1920.3708      0.9969611
   1774000  -642.54002      107.37766     -749.91769      283.64552      764.15636      1920.3708      0.9969611
   1775000  -639.27424      114.65071     -753.92495      302.85778     -2147.912       1920.3708      0.9969611
   1776000  -667.20454      108.40531     -775.60985      286.36011     -1262.6798      1920.3708      0.9969611
   1777000  -653.30145      111.05333     -764.35478      293.35504     -631.88813      1920.3708      0.9969611
   1778000  -634.06506      109.75817     -743.82323      289.93379     -1721.1269      1920.3708      0.9969611
   1779000  -631.67448      112.36956     -744.04404      296.83195     -1081.0331      1920.3708      0.9969611
   1780000  -630.49667      119.0302      -749.52687      314.42651     -1204.8523      1920.3708      0.9969611
   1781000  -608.58784      114.29151     -722.87935      301.90892      799.41095      1920.3708      0.9969611
   1782000  -619.7633       114.74489     -734.50819      303.10656     -2114.2008      1920.3708      0.9969611
   1783000  -628.81195      111.99277     -740.80473      295.83665      1151.2663      1920.3708      0.9969611
   1784000  -608.85575      107.57455     -716.4303       284.1656       1768.7668      1920.3708      0.9969611
   1785000  -618.03546      127.71113     -745.7466       337.35778      391.07054      1920.3708      0.9969611
   1786000  -619.75012      126.83394     -746.58406      335.04062      1877.7749      1920.3708      0.9969611
   1787000  -660.60248      110.54806     -771.15054      292.02034     -550.52242      1920.3708      0.9969611
   1788000  -622.6569       123.20505     -745.86196      325.45467      1400.7658      1920.3708      0.9969611
   1789000  -643.44506      102.61133     -746.0564       271.05493      1314.3699      1920.3708      0.9969611
   1790000  -620.10873      120.63681     -740.74555      318.67048     -1556.8489      1920.3708      0.9969611
   1791000  -641.57009      113.26971     -754.8398       299.20976     -150.84598      1920.3708      0.9969611
   1792000  -636.74189      118.87225     -755.61414      314.00927     -1765.9041      1920.3708      0.9969611
   1793000  -631.79128      117.15712     -748.9484       309.47862      1365.0845      1920.3708      0.9969611
   1794000  -643.89206      116.66405     -760.55611      308.17614     -861.7275       1920.3708      0.9969611
   1795000  -663.91423      106.79911     -770.71334      282.11722      897.80198      1920.3708      0.9969611
   1796000  -617.76906      113.44269     -731.21176      299.66671      234.85538      1920.3708      0.9969611
   1797000  -651.76041      119.95418     -771.71459      316.86725     -532.01514      1920.3708      0.9969611
   1798000  -648.69432      115.79727     -764.49159      305.8865       687.45423      1920.3708      0.9969611
   1799000  -627.56411      117.66864     -745.23276      310.82986      1202.3263      1920.3708      0.9969611
   1800000  -627.06783      107.34562     -734.41345      283.56087      3359.7022      1920.3708      0.9969611
   1801000  -628.4901       112.29981     -740.78991      296.64771      190.0713       1920.3708      0.9969611
   1802000  -625.93893      120.42404     -746.36297      318.10842      1369.4982      1920.3708      0.9969611
   1803000  -637.99573      115.05927     -753.055        303.93702     -4701.31        1920.3708      0.9969611
   1804000  -604.84285      124.55799     -729.40084      329.02853     -4067.3806      1920.3708      0.9969611
   1805000  -636.63607      109.09673     -745.73281      288.18656     -520.60922      1920.3708      0.9969611
   1806000  -645.08147      95.005355     -740.08682      250.96321      1338.1925      1920.3708      0.9969611
   1807000  -633.96782      108.93655     -742.90437      287.76342      41.044999      1920.3708      0.9969611
   1808000  -634.37946      110.33348     -744.71293      291.45351     -723.04242      1920.3708      0.9969611
   1809000  -636.56709      120.13918     -756.70627      317.35595     -1611.5691      1920.3708      0.9969611
   1810000  -655.28171      101.40047     -756.68218      267.85635      774.8736       1920.3708      0.9969611
   1811000  -647.43272      119.59965     -767.03237      315.93074      1431.4201      1920.3708      0.9969611
   1812000  -613.86461      124.4317      -738.29631      328.69494      874.63174      1920.3708      0.9969611
   1813000  -641.47869      106.10884     -747.58753      280.29384      435.27565      1920.3708      0.9969611
   1814000  -646.73104      106.01266     -752.7437       280.03976     -807.43283      1920.3708      0.9969611
   1815000  -629.61766      114.83875     -744.45641      303.3545       2474.743       1920.3708      0.9969611
   1816000  -635.91184      110.64171     -746.55355      292.26771     -940.24926      1920.3708      0.9969611
   1817000  -626.79715      120.29174     -747.08889      317.75895     -1377.17        1920.3708      0.9969611
   1818000  -642.82997      114.81401     -757.64398      303.28915      2172.5779      1920.3708      0.9969611
   1819000  -641.99275      99.877929     -741.87068      263.83445     -536.82461      1920.3708      0.9969611
   1820000  -636.73111      121.40983     -758.14094      320.71246      3773.5292      1920.3708      0.9969611
   1821000  -619.84765      115.75533     -735.60298      305.7757       1127.2533      1920.3708      0.9969611
   1822000  -616.64719      117.67282     -734.32001      310.84087      1951.6078      1920.3708      0.9969611
   1823000  -619.18014      122.17442     -741.35456      322.73218      1457.3567      1920.3708      0.9969611
   1824000  -610.62783      139.08902     -749.71685      367.41326      1182.2095      1920.3708      0.9969611
   1825000  -624.22653      121.20521     -745.43174      320.17194      2221.9237      1920.3708      0.9969611
   1826000  -621.01546      110.26871     -731.28417      291.28242      565.50374      1920.3708      0.9969611
   1827000  -625.5367       115.08115     -740.61785      303.9948      -164.45432      1920.3708      0.9969611
   1828000  -646.36983      97.614253     -743.98408      257.8548      -2373.7311      1920.3708      0.9969611
   1829000  -654.02785      100.10379     -754.13164      264.43108      1285.1228      1920.3708      0.9969611
   1830000  -637.37874      106.65254     -744.03127      281.73004      143.85915      1920.3708      0.9969611
   1831000  -606.2228       125.048       -731.2708       330.32295      811.2528       1920.3708      0.9969611
   1832000  -623.93095      110.95691     -734.88787      293.10036     -1502.4398      1920.3708      0.9969611
   1833000  -610.24429      114.58994     -724.83423      302.69724     -681.65826      1920.3708      0.9969611
   1834000  -589.80885      119.05695     -708.8658       314.49716      1851.0362      1920.3708      0.9969611
   1835000  -629.6278       103.28344     -732.91124      272.83035      3411.5893      1920.3708      0.9969611
   1836000  -613.22528      119.2316      -732.45688      314.95852      262.63883      1920.3708      0.9969611
   1837000  -618.42362      127.25164     -745.67526      336.14401     -1973.3561      1920.3708      0.9969611
   1838000  -651.23207      105.20435     -756.43643      277.90457     -1516.1327      1920.3708      0.9969611
   1839000  -630.11209      113.17955     -743.29165      298.97161     -777.64391      1920.3708      0.9969611
   1840000  -641.88762      126.96337     -768.85099      335.38252     -862.51209      1920.3708      0.9969611
   1841000  -624.09717      106.95672     -731.05388      282.53356      2801.2747      1920.3708      0.9969611
   1842000  -631.0365       124.20679     -755.24329      328.10083      2374.7974      1920.3708      0.9969611
   1843000  -617.04001      115.32293     -732.36294      304.63348      1081.2067      1920.3708      0.9969611
   1844000  -631.456        109.7414      -741.19741      289.8895      -2742.3306      1920.3708      0.9969611
   1845000  -646.85912      106.64606     -753.50518      281.71295      1568.31        1920.3708      0.9969611
   1846000  -631.69278      109.40593     -741.09871      289.00334      1529.7551      1920.3708      0.9969611
   1847000  -662.0889       109.42209     -771.51099      289.046       -63.38491       1920.3708      0.9969611
   1848000  -631.35336      115.33004     -746.6834       304.65227     -902.95202      1920.3708      0.9969611
   1849000  -672.6033       110.65051     -783.25382      292.29098     -410.2314       1920.3708      0.9969611
   1850000  -638.86837      105.54294     -744.41131      278.79897     -588.31962      1920.3708      0.9969611
   1851000  -625.37317      112.70883     -738.082        297.72816     -577.54116      1920.3708      0.9969611
   1852000  -636.28189      109.6805      -745.96238      289.72861     -3151.6883      1920.3708      0.9969611
   1853000  -631.9013       118.21114     -750.11244      312.2629       759.82963      1920.3708      0.9969611
   1854000  -627.7511       115.4621      -743.2132       305.00111      656.95882      1920.3708      0.9969611
   1855000  -640.5472       109.23722     -749.78443      288.55767      2302.9389      1920.3708      0.9969611
   1856000  -639.30207      112.46351     -751.76558      297.08014      1728.5589      1920.3708      0.9969611
   1857000  -639.93492      106.22973     -746.16465      280.61317      3106.3633      1920.3708      0.9969611
   1858000  -636.70191      131.83646     -768.53836      348.25512      1515.6054      1920.3708      0.9969611
   1859000  -648.90291      94.634352     -743.53726      249.98318      2356.7897      1920.3708      0.9969611
   1860000  -648.94316      114.77081     -763.71397      303.17503      204.89227      1920.3708      0.9969611
   1861000  -615.80843      114.28308     -730.09152      301.88666      516.64057      1920.3708      0.9969611
   1862000  -625.22593      119.97366     -745.19959      316.91871     -2177.7129      1920.3708      0.9969611
   1863000  -640.55512      113.75638     -754.3115       300.49534     -1570.4834      1920.3708      0.9969611
   1864000  -643.80351      116.08229     -759.8858       306.63939     -2455.2259      1920.3708      0.9969611
   1865000  -639.40955      102.28883     -741.69839      270.20302      42.99155       1920.3708      0.9969611
   1866000  -634.71558      118.74951     -753.46509      313.68504     -2511.2759      1920.3708      0.9969611
   1867000  -606.3572       112.79821     -719.15541      297.96428      2750.2782      1920.3708      0.9969611
   1868000  -657.04572      110.30015     -767.34587      291.36548     -2449.6935      1920.3708      0.9969611
   1869000  -620.28353      119.76004     -740.04357      316.35443     -253.11967      1920.3708      0.9969611
   1870000  -631.74844      113.4506      -745.19905      299.68761     -371.30597      1920.3708      0.9969611
   1871000  -622.321        113.91533     -736.23633      300.91522      1524.4947      1920.3708      0.9969611
   1872000  -633.41762      108.41269     -741.83032      286.37962      1063.2527      1920.3708      0.9969611
   1873000  -629.44259      115.51082     -744.9534       305.12981     -1650.1099      1920.3708      0.9969611
   1874000  -617.75919      115.57375     -733.33294      305.29604      759.0635       1920.3708      0.9969611
   1875000  -635.52226      104.68711     -740.20936      276.53823     -1675.3498      1920.3708      0.9969611
   1876000  -621.81864      114.57606     -736.3947       302.66058      1023.5952      1920.3708      0.9969611
   1877000  -639.79371      107.65494     -747.44866      284.37798      2145.101       1920.3708      0.9969611
   1878000  -639.70786      111.90741     -751.61527      295.61116      1040.941       1920.3708      0.9969611
   1879000  -626.97474      116.78755     -743.76229      308.50239      71.920396      1920.3708      0.9969611
   1880000  -634.7095       93.944551     -728.65405      248.16102      1218.0528      1920.3708      0.9969611
   1881000  -631.59525      113.64947     -745.24473      300.21293     -1235.2445      1920.3708      0.9969611
   1882000  -682.925        104.85676     -787.78176      276.98638      908.80422      1920.3708      0.9969611
   1883000  -627.13137      110.86516     -737.99653      292.85799     -2627.482       1920.3708      0.9969611
   1884000  -624.2808       115.73857     -740.01937      305.73144      873.04315      1920.3708      0.9969611
   1885000  -631.26862      117.28908     -748.5577       309.82722     -557.12696      1920.3708      0.9969611
   1886000  -634.92274      110.47872     -745.40146      291.83716      267.37861      1920.3708      0.9969611
   1887000  -640.59134      108.20143     -748.79277      285.82155      410.28988      1920.3708      0.9969611
   1888000  -626.89293      111.80448     -738.69741      295.33926     -1361.6122      1920.3708      0.9969611
   1889000  -653.99108      96.975213     -750.96629      256.16673      315.58953      1920.3708      0.9969611
   1890000  -612.0274       120.98251     -733.00991      319.58365      1093.1106      1920.3708      0.9969611
   1891000  -657.02791      104.1076      -761.13551      275.00742     -612.28127      1920.3708      0.9969611
   1892000  -619.54881      124.77267     -744.32148      329.59562     -642.61264      1920.3708      0.9969611
   1893000  -624.72205      110.82395     -735.546        292.74912      900.26694      1920.3708      0.9969611
   1894000  -616.09142      133.71399     -749.80542      353.21475     -1209.0923      1920.3708      0.9969611
   1895000  -648.08365      109.53833     -757.62198      289.35306     -666.76616      1920.3708      0.9969611
   1896000  -644.38288      105.7471      -750.12998      279.33827     -0.77653116     1920.3708      0.9969611
   1897000  -663.46704      97.629808     -761.09685      257.89588     -2373.951       1920.3708      0.9969611
   1898000  -621.54099      113.68446     -735.22545      300.30536     -2046.4344      1920.3708      0.9969611
   1899000  -643.53301      118.00421     -761.53722      311.71628      389.2174       1920.3708      0.9969611
   1900000  -606.15034      110.43975     -716.59009      291.73423      1006.8209      1920.3708      0.9969611
   1901000  -639.66489      108.05675     -747.72164      285.43938     -619.33836      1920.3708      0.9969611
   1902000  -625.29961      120.89197     -746.19158      319.34449      1086.6999      1920.3708      0.9969611
   1903000  -618.60322      126.9501      -745.55332      335.34747     -2079.5777      1920.3708      0.9969611
   1904000  -622.55934      114.63493     -737.19428      302.8161       1110.7796      1920.3708      0.9969611
   1905000  -640.56814      117.70633     -758.27447      310.92941     -1185.1669      1920.3708      0.9969611
   1906000  -640.39948      111.4667      -751.86619      294.447        875.94914      1920.3708      0.9969611
   1907000  -614.18821      115.71226     -729.90047      305.66193      2102.8173      1920.3708      0.9969611
   1908000  -609.96643      117.2096      -727.17603      309.61727     -642.80083      1920.3708      0.9969611
   1909000  -636.65908      115.07869     -751.73777      303.98831      2859.8582      1920.3708      0.9969611
   1910000  -603.3963       126.82063     -730.21694      335.00546     -749.10908      1920.3708      0.9969611
   1911000  -639.5585       109.10381     -748.66231      288.20526     -1720.8149      1920.3708      0.9969611
   1912000  -637.28086      109.95592     -747.23678      290.45615     -959.12829      1920.3708      0.9969611
   1913000  -658.91658      103.18462     -762.1012       272.5693       715.10368      1920.3708      0.9969611
   1914000  -641.27614      109.44366     -750.7198       289.10299      1445.4137      1920.3708      0.9969611
   1915000  -639.73453      106.75311     -746.48764      281.99572      2943.325       1920.3708      0.9969611
   1916000  -632.971        120.09547     -753.06648      317.2405      -451.13468      1920.3708      0.9969611
   1917000  -649.45798      103.11912     -752.5771       272.39629      481.57835      1920.3708      0.9969611
   1918000  -615.32075      107.385       -722.70575      283.6649       192.4957       1920.3708      0.9969611
   1919000  -620.76282      115.84627     -736.60908      306.01592      330.40602      1920.3708      0.9969611
   1920000  -617.76601      122.49033     -740.25634      323.56668     -682.30847      1920.3708      0.9969611
   1921000  -657.46097      110.31046     -767.77143      291.3927      -671.48156      1920.3708      0.9969611
   1922000  -623.67625      111.926       -735.60225      295.66027     -123.85303      1920.3708      0.9969611
   1923000  -632.15841      105.61421     -737.77262      278.98724     -1971.5956      1920.3708      0.9969611
   1924000  -614.74729      118.19429     -732.94158      312.21837     -1212.6113      1920.3708      0.9969611
   1925000  -611.78346      128.95454     -740.738        340.64233     -1310.5662      1920.3708      0.9969611
   1926000  -641.06096      106.46845     -747.52941      281.24377     -80.255799      1920.3708      0.9969611
   1927000  -592.11019      124.52286     -716.63305      328.93573     -1314.367       1920.3708      0.9969611
   1928000  -624.95452      110.0191      -734.97362      290.62306      2077.64        1920.3708      0.9969611
   1929000  -645.21961      111.94765     -757.16725      295.71745      264.82693      1920.3708      0.9969611
   1930000  -628.28499      112.37335     -740.65834      296.84197     -2167.1641      1920.3708      0.9969611
   1931000  -615.99967      113.75674     -729.75641      300.49628     -461.56238      1920.3708      0.9969611
   1932000  -603.41247      129.41685     -732.82931      341.86354     -1071.4037      1920.3708      0.9969611
   1933000  -632.52374      111.35877     -743.88251      294.16187     -2265.9576      1920.3708      0.9969611
   1934000  -622.44617      116.95581     -739.40198      308.94684      1561.8617      1920.3708      0.9969611
   1935000  -640.49934      118.56765     -759.06699      313.20464      445.01195      1920.3708      0.9969611
   1936000  -618.55859      114.2715      -732.83009      301.85607     -2557.7854      1920.3708      0.9969611
   1937000  -607.58502      123.06172     -730.64674      325.07604      3100.3581      1920.3708      0.9969611
   1938000  -626.58076      113.06768     -739.64844      298.6761       158.2596       1920.3708      0.9969611
   1939000  -603.78527      121.61056     -725.39583      321.24271      286.11417      1920.3708      0.9969611
   1940000  -618.61717      123.23764     -741.85481      325.54073     -518.70304      1920.3708      0.9969611
   1941000  -614.30624      110.39808     -724.70432      291.62415      931.86717      1920.3708      0.9969611
   1942000  -631.62078      121.70339     -753.32417      321.48792      384.35959      1920.3708      0.9969611
   1943000  -657.09992      110.10773     -767.20765      290.85718     -220.84986      1920.3708      0.9969611
   1944000  -630.30216      105.34253     -735.64468      278.26957     -577.55039      1920.3708      0.9969611
   1945000  -626.7518       109.84808     -736.59988      290.17129     -3494.7577      1920.3708      0.9969611
   1946000  -614.27689      115.74045     -730.01734      305.7364      -1979.8273      1920.3708      0.9969611
   1947000  -613.39082      123.40149     -736.79231      325.97357      2199.3032      1920.3708      0.9969611
   1948000  -628.342        114.40777     -742.74977      302.21604      413.60801      1920.3708      0.9969611
   1949000  -640.54467      117.05486     -757.59953      309.2085      -1700.1044      1920.3708      0.9969611
   1950000  -636.92041      104.97983     -741.90024      277.31148      215.7154       1920.3708      0.9969611
   1951000  -656.39371      104.19448     -760.58819      275.23691     -2004.1749      1920.3708      0.9969611
   1952000  -611.68106      112.89495     -724.57601      298.21981      2016.1781      1920.3708      0.9969611
   1953000  -639.21395      103.29603     -742.50998      272.86359     -1427.7778      1920.3708      0.9969611
   1954000  -652.33858      111.1746      -763.51318      293.67539      7.0852168      1920.3708      0.9969611
   1955000  -607.84461      128.39025     -736.23486      339.15171     -59.578321      1920.3708      0.9969611
   1956000  -638.57507      107.15237     -745.72744      283.05039      1524.0843      1920.3708      0.9969611
   1957000  -628.53351      116.33616     -744.86967      307.31001     -433.91964      1920.3708      0.9969611
   1958000  -625.22824      119.79126     -745.0195       316.43689      1793.1156      1920.3708      0.9969611
   1959000  -640.41254      96.042532     -736.45507      253.70299     -1272.3318      1920.3708      0.9969611
   1960000  -614.8478       131.86443     -746.71223      348.329        3233.7834      1920.3708      0.9969611
   1961000  -644.69413      97.207151     -741.90128      256.77941      301.92067      1920.3708      0.9969611
   1962000  -625.37597      113.39765     -738.77361      299.54772     -1446.1866      1920.3708      0.9969611
   1963000  -621.16458      107.62435     -728.78892      284.29715      1496.764       1920.3708      0.9969611
   1964000  -628.30684      125.13981     -753.44666      330.56546      2431.298       1920.3708      0.9969611
   1965000  -637.72636      110.39265     -748.11901      291.60981     -1674.1119      1920.3708      0.9969611
   1966000  -634.28009      122.71526     -756.99535      324.16084     -722.57223      1920.3708      0.9969611
   1967000  -650.46377      113.50234     -763.96611      299.82428     -186.46882      1920.3708      0.9969611
   1968000  -658.35159      111.6742      -770.02579      294.99511     -868.32749      1920.3708      0.9969611
   1969000  -648.49927      96.833973     -745.33324      255.79363      1804.418       1920.3708      0.9969611
   1970000  -624.82732      100.02024     -724.84756      264.21038      3349.8095      1920.3708      0.9969611
   1971000  -617.27873      105.93253     -723.21126      279.82809      1395.6426      1920.3708      0.9969611
   1972000  -641.85731      98.40997      -740.26728      259.95674      11.367439      1920.3708      0.9969611
   1973000  -645.34944      99.019311     -744.36875      261.56635     -2001.1428      1920.3708      0.9969611
   1974000  -618.09283      116.94645     -735.03928      308.92214      1468.7584      1920.3708      0.9969611
   1975000  -612.99608      126.14954     -739.14562      333.23274     -1898.5261      1920.3708      0.9969611
   1976000  -633.94978      104.15214     -738.10192      275.12509     -158.64719      1920.3708      0.9969611
   1977000  -622.64532      126.8322      -749.47753      335.03603     -901.77912      1920.3708      0.9969611
   1978000  -627.8376       113.85102     -741.68862      300.74533     -777.77926      1920.3708      0.9969611
   1979000  -603.87271      120.97722     -724.84993      319.5697      -869.12836      1920.3708      0.9969611
   1980000  -629.46999      116.47831     -745.9483       307.6855      -114.95451      1920.3708      0.9969611
   1981000  -672.26787      89.739282     -762.00715      237.05251      2701.8926      1920.3708      0.9969611
   1982000  -634.56035      115.03897     -749.59932      303.88339      689.8118       1920.3708      0.9969611
   1983000  -619.83598      139.51036     -759.34633      368.52625      1294.962       1920.3708      0.9969611
   1984000  -644.4883       113.68468     -758.17298      300.30594     -2570.7226      1920.3708      0.9969611
   1985000  -636.45262      115.58693     -752.03955      305.33087      220.57249      1920.3708      0.9969611
   1986000  -633.35506      107.86543     -741.22049      284.93398     -1560.441       1920.3708      0.9969611
   1987000  -624.45502      110.71159     -735.16661      292.45231      388.99556      1920.3708      0.9969611
   1988000  -611.82205      127.41506     -739.23711      336.57569     -2530.7156      1920.3708      0.9969611
   1989000  -622.95137      116.41199     -739.36335      307.51031      521.71625      1920.3708      0.9969611
   1990000  -637.6021       109.20936     -746.81146      288.48406     -510.79248      1920.3708      0.9969611
   1991000  -635.10004      114.44275     -749.54278      302.30843     -676.60532      1920.3708      0.9969611
   1992000  -653.54226      106.93883     -760.48109      282.48631      947.50993      1920.3708      0.9969611
   1993000  -619.54121      118.45907     -738.00028      312.91781     -492.71647      1920.3708      0.9969611
   1994000  -602.79854      119.00443     -721.80296      314.35842      2450.5991      1920.3708      0.9969611
   1995000  -620.04332      110.88531     -730.92864      292.91122      426.99163      1920.3708      0.9969611
   1996000  -655.60257      105.57731     -761.17988      278.88977      2447.1364      1920.3708      0.9969611
   1997000  -651.98577      114.2599      -766.24568      301.82543      2164.6876      1920.3708      0.9969611
   1998000  -621.26693      121.41727     -742.6842       320.73211     -2734.0773      1920.3708      0.9969611
   1999000  -634.5214       113.98505     -748.50645      301.09939     -1614.7974      1920.3708      0.9969611
   2000000  -647.23132      110.09106     -757.32239      290.81315     -2356.6807      1920.3708      0.9969611
   2001000  -639.33535      114.04414     -753.37949      301.25547     -844.05632      1920.3708      0.9969611
   2002000  -633.81603      103.93163     -737.74766      274.54258      803.41241      1920.3708      0.9969611
   2003000  -608.17668      122.0618      -730.23848      322.43468      941.67846      1920.3708      0.9969611
   2004000  -645.93394      108.24355     -754.17749      285.93281     -352.73364      1920.3708      0.9969611
   2005000  -627.82195      130.73055     -758.5525       345.33378      1178.0654      1920.3708      0.9969611
   2006000  -657.40144      100.09146     -757.49291      264.39852     -351.42533      1920.3708      0.9969611
   2007000  -625.26012      117.4576      -742.71772      310.27237     -622.51047      1920.3708      0.9969611
   2008000  -631.04966      116.08259     -747.13225      306.64019      730.94875      1920.3708      0.9969611
   2009000  -624.52002      122.27333     -746.79335      322.99346      263.82453      1920.3708      0.9969611
   2010000  -616.97629      121           -737.97629      319.62986     -622.75791      1920.3708      0.9969611
   2011000  -625.90909      115.59032     -741.49941      305.33981     -2360.8833      1920.3708      0.9969611
   2012000  -625.16609      122.72924     -747.89532      324.19776     -823.16307      1920.3708      0.9969611
   2013000  -649.45014      115.87624     -765.32637      306.09509     -1825.3573      1920.3708      0.9969611
   2014000  -634.7149       122.59335     -757.30826      323.83882     -2696.3104      1920.3708      0.9969611
   2015000  -649.56081      106.85688     -756.41769      282.26984     -671.78207      1920.3708      0.9969611
   2016000  -642.60046      110.65785     -753.2583       292.31035     -192.58934      1920.3708      0.9969611
   2017000  -634.06284      112.05049     -746.11333      295.9891      -285.89451      1920.3708      0.9969611
   2018000  -642.69288      119.03489     -761.72777      314.43889     -23.711647      1920.3708      0.9969611
   2019000  -621.46391      107.04352     -728.50742      282.76285      1935.7577      1920.3708      0.9969611
   2020000  -622.10867      113.11402     -735.22269      298.79851     -2236.5059      1920.3708      0.9969611
   2021000  -644.7653       105.63505     -750.40034      279.04227      1113.1446      1920.3708      0.9969611
   2022000  -626.44541      104.80255     -731.24795      276.84317      15.027759      1920.3708      0.9969611
   2023000  -649.91317      110.97981     -760.89297      293.16083     -1076.5861      1920.3708      0.9969611
   2024000  -626.39735      136.46539     -762.86274      360.48276      494.9426       1920.3708      0.9969611
   2025000  -622.4023       112.51439     -734.91669      297.21455      1758.0871      1920.3708      0.9969611
   2026000  -629.83952      115.77334     -745.61286      305.82328      723.59171      1920.3708      0.9969611
   2027000  -620.13703      111.74816     -731.8852       295.1905       1463.6031      1920.3708      0.9969611
   2028000  -638.28023      107.01451     -745.29475      282.68624      2690.8944      1920.3708      0.9969611
   2029000  -627.44588      111.79594     -739.24182      295.3167      -972.38473      1920.3708      0.9969611
   2030000  -630.47283      108.85861     -739.33144      287.55754      2679.3664      1920.3708      0.9969611
   2031000  -651.47119      102.14717     -753.61836      269.82882      1171.6628      1920.3708      0.9969611
   2032000  -617.29963      119.13055     -736.43018      314.69158     -1014.0868      1920.3708      0.9969611
   2033000  -659.12817      101.14786     -760.27604      267.18907      1325.8223      1920.3708      0.9969611
   2034000  -617.37267      123.50644     -740.87911      326.2508       1097.4354      1920.3708      0.9969611
   2035000  -650.23604      100.41345     -750.64949      265.24907     -347.72633      1920.3708      0.9969611
   2036000  -622.61971      106.58318     -729.20289      281.54683      404.22577      1920.3708      0.9969611
   2037000  -632.26679      107.47448     -739.74126      283.90125     -1438.6492      1920.3708      0.9969611
   2038000  -603.8508       137.57441     -741.42521      363.41231     -119.71037      1920.3708      0.9969611
   2039000  -611.13268      120.12245     -731.25513      317.31175     -563.29856      1920.3708      0.9969611
   2040000  -616.68404      118.22061     -734.90465      312.28792     -2421.2855      1920.3708      0.9969611
   2041000  -629.54411      111.90035     -741.44446      295.5925       708.34302      1920.3708      0.9969611
   2042000  -639.86506      118.70213     -758.5672       313.55989      369.88651      1920.3708      0.9969611
   2043000  -638.33531      115.23382     -753.56913      304.39811      259.59528      1920.3708      0.9969611
   2044000  -650.32764      108.18663     -758.51427      285.78245     -1683.142       1920.3708      0.9969611
   2045000  -653.78778      108.89489     -762.68268      287.65338      637.38307      1920.3708      0.9969611
   2046000  -649.05256      105.44894     -754.5015       278.55065     -407.43744      1920.3708      0.9969611
   2047000  -631.20599      108.41371     -739.6197       286.3823       85.445325      1920.3708      0.9969611
   2048000  -620.86822      115.18176     -736.04998      304.26058      401.67936      1920.3708      0.9969611
   2049000  -627.76242      123.27709     -751.03952      325.64496     -2134.7923      1920.3708      0.9969611
   2050000  -636.8738       110.27397     -747.14777      291.2963      -1572.7316      1920.3708      0.9969611
   2051000  -648.06424      112.68307     -760.74731      297.66012     -693.33023      1920.3708      0.9969611
   2052000  -663.88858      98.951278     -762.83985      261.38664      1332.3186      1920.3708      0.9969611
   2053000  -646.53875      122.48925     -769.02799      323.56381     -1228.7841      1920.3708      0.9969611
   2054000  -635.56083      112.49356     -748.05439      297.15951     -1623.3394      1920.3708      0.9969611
   2055000  -641.20615      112.13399     -753.34014      296.20969      603.8468       1920.3708      0.9969611
   2056000  -656.61914      101.12556     -757.74471      267.13016      3180.1788      1920.3708      0.9969611
   2057000  -643.89577      114.44104     -758.33681      302.30392      990.84739      1920.3708      0.9969611
   2058000  -646.32392      111.25418     -757.57809      293.8856      -438.95982      1920.3708      0.9969611
   2059000  -654.71892      117.01665     -771.73557      309.10758     -587.60806      1920.3708      0.9969611
   2060000  -620.05978      115.76902     -735.8288       305.81186      283.0275       1920.3708      0.9969611
   2061000  -656.38984      102.21762     -758.60746      270.01491     -1135.1593      1920.3708      0.9969611
   2062000  -631.56794      118.15432     -749.72227      312.11281     -41.382367      1920.3708      0.9969611
   2063000  -624.67847      114.79942     -739.4779       303.25061      1105.9266      1920.3708      0.9969611
   2064000  -654.10278      99.590299     -753.69308      263.07466     -305.35802      1920.3708      0.9969611
   2065000  -624.4684       118.83535     -743.30375      313.9118      -2020.3025      1920.3708      0.9969611
   2066000  -613.67696      115.24983     -728.92679      304.44039      1100.1049      1920.3708      0.9969611
   2067000  -597.59866      119.96996     -717.56862      316.90893      1067.1948      1920.3708      0.9969611
   2068000  -628.2608       106.46288     -734.72368      281.22906      842.89319      1920.3708      0.9969611
   2069000  -645.04133      111.79117     -756.83251      295.3041      -648.48542      1920.3708      0.9969611
   2070000  -633.97438      110.24521     -744.21959      291.22034     -1654.0281      1920.3708      0.9969611
   2071000  -656.82971      108.09409     -764.9238       285.53801     -646.99571      1920.3708      0.9969611
   2072000  -662.98461      102.50283     -765.48743      270.7683       4910.697       1920.3708      0.9969611
   2073000  -643.08254      115.34971     -758.43225      304.70424      1400.5347      1920.3708      0.9969611
   2074000  -656.54869      107.53079     -764.07948      284.05001     -1540.9207      1920.3708      0.9969611
   2075000  -617.48933      113.61961     -731.10894      300.13404     -1426.8091      1920.3708      0.9969611
   2076000  -635.94642      114.40598     -750.3524       302.21131      9.4346815      1920.3708      0.9969611
   2077000  -635.8994       107.74563     -743.64503      284.61751     -1386.5168      1920.3708      0.9969611
   2078000  -622.32413      107.63327     -729.95741      284.32073      3863.622       1920.3708      0.9969611
   2079000  -656.67156      104.07323     -760.74478      274.91662      1821.3345      1920.3708      0.9969611
   2080000  -650.09035      91.78917      -741.87952      242.46744     -2445.0607      1920.3708      0.9969611
   2081000  -621.00486      107.47679     -728.48165      283.90736     -1974.0096      1920.3708      0.9969611
   2082000  -635.80958      99.37989      -735.18947      262.51885      576.92918      1920.3708      0.9969611
   2083000  -618.72498      122.76598     -741.49096      324.29483      2108.2836      1920.3708      0.9969611
   2084000  -624.66672      121.43855     -746.10528      320.78833      2670.7374      1920.3708      0.9969611
   2085000  -615.38015      124.73171     -740.11186      329.48742     -919.50506      1920.3708      0.9969611
   2086000  -638.97307      109.41154     -748.38461      289.01815      1413.8942      1920.3708      0.9969611
   2087000  -640.51005      126.58362     -767.09367      334.37939     -1786.633       1920.3708      0.9969611
   2088000  -635.65123      117.31056     -752.96179      309.88395      487.9153       1920.3708      0.9969611
   2089000  -615.8466       116.51251     -732.35911      307.77585     -899.09535      1920.3708      0.9969611
   2090000  -624.38805      106.94658     -731.33462      282.50677     -2425.387       1920.3708      0.9969611
   2091000  -627.30327      106.23906     -733.54233      280.63781      2614.1953      1920.3708      0.9969611
   2092000  -638.23621      107.17965     -745.41586      283.12246     -279.52908      1920.3708      0.9969611
   2093000  -638.62939      104.88332     -743.51271      277.05654     -1305.4491      1920.3708      0.9969611
   2094000  -619.09088      110.37321     -729.46409      291.55847     -1894.7371      1920.3708      0.9969611
   2095000  -614.29557      123.93617     -738.23173      327.38595      1424.3724      1920.3708      0.9969611
   2096000  -622.29731      105.71562     -728.01293      279.25511      2159.3438      1920.3708      0.9969611
   2097000  -631.42482      117.13631     -748.56113      309.42367     -94.462334      1920.3708      0.9969611
   2098000  -606.87153      124.59049     -731.46202      329.1144       425.05925      1920.3708      0.9969611
   2099000  -643.39244      105.52637     -748.91881      278.75521      364.1285       1920.3708      0.9969611
   2100000  -631.40129      111.75256     -743.15385      295.20211      120.36483      1920.3708      0.9969611
   2101000  -621.86111      118.06383     -739.92494      311.87377      642.49691      1920.3708      0.9969611
   2102000  -642.72906      108.83897     -751.56803      287.50566      1224.2416      1920.3708      0.9969611
   2103000  -661.36349      95.654495     -757.01798      252.67796     -432.45157      1920.3708      0.9969611
   2104000  -630.97697      108.83703     -739.81401      287.50054      227.15018      1920.3708      0.9969611
   2105000  -654.612        102.12933     -756.74132      269.78168      239.38406      1920.3708      0.9969611
   2106000  -629.87767      118.07052     -747.94819      311.89143     -3391.4507      1920.3708      0.9969611
   2107000  -639.31859      112.42488     -751.74347      296.97808     -2395.4993      1920.3708      0.9969611
   2108000  -614.43207      111.80474     -726.23681      295.33995     -2956.9762      1920.3708      0.9969611
   2109000  -629.17401      113.98304     -743.15705      301.09408      669.11449      1920.3708      0.9969611
   2110000  -660.64184      104.79855     -765.44039      276.83262     -1641.0718      1920.3708      0.9969611
   2111000  -619.1281       118.41188     -737.53998      312.79317      2035.1118      1920.3708      0.9969611
   2112000  -637.21939      103.30888     -740.52827      272.89754     -2697.2872      1920.3708      0.9969611
   2113000  -645.89454      104.26962     -750.16416      275.43541      419.63148      1920.3708      0.9969611
   2114000  -624.19098      128.50907     -752.70006      339.4656       1295.0647      1920.3708      0.9969611
   2115000  -655.42801      108.37698     -763.805        286.28529      718.78273      1920.3708      0.9969611
   2116000  -658.81251      108.20062     -767.01313      285.81941     -439.15306      1920.3708      0.9969611
   2117000  -627.28968      116.2072      -743.49688      306.96935      261.01094      1920.3708      0.9969611
   2118000  -636.64579      120.00426     -756.65004      316.99953      2418.7014      1920.3708      0.9969611
   2119000  -625.20163      118.04502     -743.24666      311.82409     -712.86574      1920.3708      0.9969611
   2120000  -646.76454      104.23416     -750.9987       275.34174     -2213.2929      1920.3708      0.9969611
   2121000  -634.27727      114.24522     -748.52249      301.78665     -1715.4063      1920.3708      0.9969611
   2122000  -643.32509      102.0985      -745.42359      269.70025     -187.69379      1920.3708      0.9969611
   2123000  -645.5751       105.77536     -751.35047      279.41293      1454.1893      1920.3708      0.9969611
   2124000  -623.33197      122.74105     -746.07302      324.22897     -1831.3174      1920.3708      0.9969611
   2125000  -636.67916      114.32845     -751.00762      302.0065      -1608.405       1920.3708      0.9969611
   2126000  -628.02463      118.12242     -746.14705      312.02853      1199.5702      1920.3708      0.9969611
   2127000  -629.46729      117.06759     -746.53488      309.24214     -136.42841      1920.3708      0.9969611
   2128000  -627.26398      117.67941     -744.94339      310.85828     -122.3925       1920.3708      0.9969611
   2129000  -649.67736      104.0105      -753.68786      274.75093      651.22592      1920.3708      0.9969611
   2130000  -659.0707       110.63245     -769.70315      292.24327      2205.9206      1920.3708      0.9969611
   2131000  -652.15513      112.49946     -764.65459      297.17511     -2029.6314      1920.3708      0.9969611
   2132000  -625.6766       115.44384     -741.12044      304.95288      930.54943      1920.3708      0.9969611
   2133000  -624.21794      119.53146     -743.7494       315.75061      233.55218      1920.3708      0.9969611
   2134000  -639.96874      114.94828     -754.91703      303.64384      441.49819      1920.3708      0.9969611
   2135000  -609.20385      124.87372     -734.07757      329.86257     -108.32815      1920.3708      0.9969611
   2136000  -647.98418      113.55798     -761.54215      299.97124     -2130.7669      1920.3708      0.9969611
   2137000  -636.01538      115.34405     -751.35944      304.68929     -80.396139      1920.3708      0.9969611
   2138000  -631.47642      108.20059     -739.677        285.81933      466.00251      1920.3708      0.9969611
   2139000  -638.32883      117.40254     -755.73138      310.12693     -2055.5122      1920.3708      0.9969611
   2140000  -653.19982      116.06344     -769.26326      306.58961     -902.12509      1920.3708      0.9969611
   2141000  -664.0692       105.96673     -770.03593      279.91844      1397.9684      1920.3708      0.9969611
   2142000  -640.53854      117.03337     -757.57191      309.15173     -538.83782      1920.3708      0.9969611
   2143000  -652.0052       106.41648     -758.42168      281.10647      2387.112       1920.3708      0.9969611
   2144000  -646.97889      97.218568     -744.19746      256.80957     -162.70385      1920.3708      0.9969611
   2145000  -632.05877      113.85279     -745.91156      300.75         618.08859      1920.3708      0.9969611
   2146000  -626.49679      115.54002     -742.03681      305.20695      869.93615      1920.3708      0.9969611
   2147000  -646.80425      112.42086     -759.22511      296.96747      239.65842      1920.3708      0.9969611
   2148000  -635.81445      110.48807     -746.30252      291.86188      190.77413      1920.3708      0.9969611
   2149000  -589.2906       123.79751     -713.08811      327.01967      308.65041      1920.3708      0.9969611
   2150000  -630.8039       100.68312     -731.48702      265.96141      3217.5315      1920.3708      0.9969611
   2151000  -625.40203      113.25308     -738.65511      299.16583      1143.2548      1920.3708      0.9969611
   2152000  -640.59736      108.19658     -748.79393      285.80873     -1626.9141      1920.3708      0.9969611
   2153000  -645.19321      112.48215     -757.67536      297.12937     -1103.4737      1920.3708      0.9969611
   2154000  -643.2914       105.3702      -748.6616       278.34266     -447.59922      1920.3708      0.9969611
   2155000  -636.53214      112.09543     -748.62757      296.10783     -154.19029      1920.3708      0.9969611
   2156000  -644.14777      114.42186     -758.56963      302.25325      1133.604       1920.3708      0.9969611
   2157000  -647.69218      117.62671     -765.31888      310.71908      1497.3619      1920.3708      0.9969611
   2158000  -645.79154      114.51937     -760.31091      302.51083     -1412.3376      1920.3708      0.9969611
   2159000  -646.66929      111.31399     -757.98328      294.04359      2116.7699      1920.3708      0.9969611
   2160000  -639.2416       108.21687     -747.45847      285.86233      3148.7221      1920.3708      0.9969611
   2161000  -613.7837       117.96165     -731.74535      311.60386     -677.84147      1920.3708      0.9969611
   2162000  -630.64712      124.29832     -754.94544      328.3426      -1333.2493      1920.3708      0.9969611
   2163000  -618.96989      124.08274     -743.05263      327.77312      478.13299      1920.3708      0.9969611
   2164000  -644.89711      104.76534     -749.66245      276.74488      1000.5776      1920.3708      0.9969611
   2165000  -616.7993       125.20672     -742.00601      330.74219      3642.9776      1920.3708      0.9969611
   2166000  -624.89236      114.0848      -738.97716      301.36289      980.43579      1920.3708      0.9969611
   2167000  -619.66104      120.97112     -740.63216      319.55358     -262.54072      1920.3708      0.9969611
   2168000  -611.11229      115.34568     -726.45797      304.69358     -2038.2003      1920.3708      0.9969611
   2169000  -637.04534      114.94874     -751.99408      303.64504     -169.99023      1920.3708      0.9969611
   2170000  -626.30743      116.69354     -743.00097      308.25404     -3674.1809      1920.3708      0.9969611
   2171000  -624.21984      115.06121     -739.28105      303.94214     -781.06953      1920.3708      0.9969611
   2172000  -639.35388      116.40804     -755.76192      307.49988     -2430.8936      1920.3708      0.9969611
   2173000  -636.03642      103.52872     -739.56514      273.47827      4433.0144      1920.3708      0.9969611
   2174000  -657.2081       92.521401     -749.7295       244.40167     -76.251981      1920.3708      0.9969611
   2175000  -626.40912      113.68011     -740.08923      300.29387      2408.242       1920.3708      0.9969611
   2176000  -616.55114      108.08756     -724.6387       285.52076      882.08227      1920.3708      0.9969611
   2177000  -623.02873      125.20157     -748.23031      330.7286       1295.7762      1920.3708      0.9969611
   2178000  -645.4952       108.08906     -753.58425      285.52471      1132.6073      1920.3708      0.9969611
   2179000  -623.83781      129.44603     -753.28384      341.94064     -477.24713      1920.3708      0.9969611
   2180000  -622.97065      115.27675     -738.24739      304.5115       600.44094      1920.3708      0.9969611
   2181000  -637.03526      113.75716     -750.79242      300.49741     -79.23914       1920.3708      0.9969611
   2182000  -630.89957      114.94847     -745.84804      303.64433     -2252.6082      1920.3708      0.9969611
   2183000  -638.2919       115.71407     -754.00597      305.66672     -843.78224      1920.3708      0.9969611
   2184000  -619.05156      115.01006     -734.06162      303.80703     -490.1459       1920.3708      0.9969611
   2185000  -648.68404      116.64037     -765.32441      308.1136       1807.165       1920.3708      0.9969611
   2186000  -633.98081      115.08672     -749.06753      304.00952     -267.58366      1920.3708      0.9969611
   2187000  -635.57101      123.01253     -758.58354      324.94611      1747.8248      1920.3708      0.9969611
   2188000  -620.14838      123.90452     -744.0529       327.30236     -2440.0426      1920.3708      0.9969611
   2189000  -628.60107      114.56474     -743.16581      302.63067     -1785.383       1920.3708      0.9969611
   2190000  -629.15055      117.63328     -746.78383      310.73643     -942.44182      1920.3708      0.9969611
   2191000  -636.78193      100.88619     -737.66811      266.49783     -765.90564      1920.3708      0.9969611
   2192000  -631.48114      127.30378     -758.78492      336.28173      5201.3699      1920.3708      0.9969611
   2193000  -611.22464      119.60714     -730.83178      315.95051      3452.8227      1920.3708      0.9969611
   2194000  -620.10033      110.35866     -730.45898      291.52002     -1553.4727      1920.3708      0.9969611
   2195000  -633.82387      107.53335     -741.35722      284.05678     -257.81819      1920.3708      0.9969611
   2196000  -654.13117      108.25163     -762.38281      285.95417      209.34994      1920.3708      0.9969611
   2197000  -608.29528      108.34493     -716.64021      286.20063     -939.63221      1920.3708      0.9969611
   2198000  -635.62124      124.68456     -760.30581      329.36289      609.98634      1920.3708      0.9969611
   2199000  -647.35247      102.33297     -749.68544      270.31961     -1125.7535      1920.3708      0.9969611
   2200000  -643.45063      101.75217     -745.20279      268.78538      829.58604      1920.3708      0.9969611
   2201000  -639.51533      123.51587     -763.0312       326.2757       997.65052      1920.3708      0.9969611
   2202000  -613.66096      108.14101     -721.80196      285.66194     -19.358174      1920.3708      0.9969611
   2203000  -643.51855      112.15847     -755.67702      296.27435     -76.136869      1920.3708      0.9969611
   2204000  -619.08381      123.06634     -742.15015      325.08826      3701.9239      1920.3708      0.9969611
   2205000  -643.50098      102.9329      -746.43388      271.90437      1149.8002      1920.3708      0.9969611
   2206000  -629.27297      103.19863     -732.4716       272.60631     -992.04803      1920.3708      0.9969611
   2207000  -638.17679      112.15692     -750.33371      296.27025      1358.4253      1920.3708      0.9969611
   2208000  -659.30126      94.295244     -753.5965       249.0874      -605.53127      1920.3708      0.9969611
   2209000  -649.78529      116.84912     -766.63441      308.66502     -196.88543      1920.3708      0.9969611
   2210000  -641.87448      113.99452     -755.86899      301.1244       111.94547      1920.3708      0.9969611
   2211000  -670.94337      103.78793     -774.7313       274.16299     -817.23113      1920.3708      0.9969611
   2212000  -630.52218      123.60385     -754.12603      326.50811     -1251.6706      1920.3708      0.9969611
   2213000  -638.43793      108.41843     -746.85637      286.39478     -708.72008      1920.3708      0.9969611
   2214000  -617.37661      121.48791     -738.86452      320.91872      777.56743      1920.3708      0.9969611
   2215000  -640.71553      102.36705     -743.08258      270.40963     -423.1647       1920.3708      0.9969611
   2216000  -630.3813       113.98552     -744.36681      301.10062     -2181.3334      1920.3708      0.9969611
   2217000  -624.69316      117.20498     -741.89814      309.60504      483.15445      1920.3708      0.9969611
   2218000  -627.42437      111.3503      -738.77468      294.13952      733.27047      1920.3708      0.9969611
   2219000  -625.26084      121.76845     -747.02929      321.65978      819.14287      1920.3708      0.9969611
   2220000  -635.23018      124.50864     -759.73883      328.89819      1292.8042      1920.3708      0.9969611
   2221000  -636.55608      116.13058     -752.68666      306.76695      256.25675      1920.3708      0.9969611
   2222000  -624.03359      118.34832     -742.38192      312.62528      267.26865      1920.3708      0.9969611
   2223000  -649.5583       101.75313     -751.31143      268.78793      809.28624      1920.3708      0.9969611
   2224000  -641.26963      115.0064      -756.27603      303.79736     -2716.3485      1920.3708      0.9969611
   2225000  -628.59695      109.84181     -738.43877      290.15474     -1648.8832      1920.3708      0.9969611
   2226000  -622.53862      115.88085     -738.41947      306.10728     -1311.7037      1920.3708      0.9969611
   2227000  -649.0576       107.34936     -756.40696      283.57074     -1010.8914      1920.3708      0.9969611
   2228000  -631.88349      104.14898     -736.03247      275.11674      42.679833      1920.3708      0.9969611
   2229000  -634.16843      106.63783     -740.80626      281.69118     -1607.4604      1920.3708      0.9969611
   2230000  -636.79747      103.26258     -740.06005      272.77524      344.92158      1920.3708      0.9969611
   2231000  -662.74708      100.87268     -763.61975      266.46214     -612.69         1920.3708      0.9969611
   2232000  -615.8703       117.57331     -733.44361      310.57802     -465.67561      1920.3708      0.9969611
   2233000  -640.92765      109.82849     -750.75614      290.11955      379.28337      1920.3708      0.9969611
   2234000  -617.0368       121.56429     -738.60109      321.12047      1437.4021      1920.3708      0.9969611
   2235000  -611.92025      115.99674     -727.91699      306.41341     -2156.8905      1920.3708      0.9969611
   2236000  -661.00989      100.62243     -761.63232      265.8011      -2061.6683      1920.3708      0.9969611
   2237000  -640.29256      115.43111     -755.72366      304.91925     -1934.7092      1920.3708      0.9969611
   2238000  -640.61916      112.68886     -753.30802      297.6754      -2802.8224      1920.3708      0.9969611
   2239000  -644.55762      111.71295     -756.27057      295.09748     -813.92545      1920.3708      0.9969611
   2240000  -637.59113      119.34491     -756.93604      315.25782      1151.265       1920.3708      0.9969611
   2241000  -651.80711      106.83855     -758.64566      282.22141      1484.3637      1920.3708      0.9969611
   2242000  -625.3341       109.39566     -734.72976      288.97618      3313.2836      1920.3708      0.9969611
   2243000  -657.04511      101.38016     -758.42527      267.8027       1621.1192      1920.3708      0.9969611
   2244000  -607.50082      118.43954     -725.94036      312.86624      1529.6461      1920.3708      0.9969611
   2245000  -621.3112       108.03565     -729.34685      285.38363      134.71016      1920.3708      0.9969611
   2246000  -649.56178      109.42364     -758.98543      289.05012     -67.658554      1920.3708      0.9969611
   2247000  -618.4721       118.85937     -737.33146      313.97523     -62.729255      1920.3708      0.9969611
   2248000  -620.2911       111.52477     -731.81587      294.60039     -163.14288      1920.3708      0.9969611
   2249000  -642.04866      116.92153     -758.97019      308.8563       542.24031      1920.3708      0.9969611
   2250000  -633.37323      100.3794      -733.75263      265.15912      1470.7883      1920.3708      0.9969611
   2251000  -634.12222      112.90914     -747.03136      298.2573       1705.2803      1920.3708      0.9969611
   2252000  -632.24328      100.49204     -732.73532      265.45667      4369.5423      1920.3708      0.9969611
   2253000  -617.89083      121.19885     -739.08968      320.15513      773.65293      1920.3708      0.9969611
   2254000  -643.84914      106.74876     -750.5979       281.98423      650.85864      1920.3708      0.9969611
   2255000  -624.04627      121.3553      -745.40157      320.56842     -2023.9597      1920.3708      0.9969611
   2256000  -660.75868      107.63616     -768.39484      284.32836     -513.18573      1920.3708      0.9969611
   2257000  -630.75564      108.42557     -739.18121      286.41364      2419.8727      1920.3708      0.9969611
   2258000  -632.60079      112.09389     -744.69468      296.10375     -1201.6413      1920.3708      0.9969611
   2259000  -630.50873      113.18835     -743.69708      298.99484     -419.4705       1920.3708      0.9969611
   2260000  -648.78622      99.468345     -748.25457      262.75251     -1329.9241      1920.3708      0.9969611
   2261000  -622.98171      126.34589     -749.3276       333.75141     -50.570756      1920.3708      0.9969611
   2262000  -649.98494      107.52421     -757.50916      284.03264      1404.494       1920.3708      0.9969611
   2263000  -619.50751      120.39546     -739.90297      318.03292     -875.26282      1920.3708      0.9969611
   2264000  -644.54539      105.56366     -750.10905      278.8537      -114.18114      1920.3708      0.9969611
   2265000  -595.95692      133.88793     -729.84485      353.67422      141.5468       1920.3708      0.9969611
   2266000  -644.79963      122.82314     -767.62278      324.44582      1864.1088      1920.3708      0.9969611
   2267000  -632.55947      106.82124     -739.38071      282.17569      2051.5267      1920.3708      0.9969611
   2268000  -670.3806       96.436542     -766.81714      254.74379     -713.3555       1920.3708      0.9969611
   2269000  -653.55011      122.7609      -776.31101      324.28141     -269.8392       1920.3708      0.9969611
   2270000  -641.16953      117.52781     -758.69734      310.45783     -606.67478      1920.3708      0.9969611
   2271000  -639.38508      115.13292     -754.518        304.13156     -904.22575      1920.3708      0.9969611
   2272000  -605.0825       125.22638     -730.30889      330.79414      3120.865       1920.3708      0.9969611
   2273000  -635.35436      118.0005      -753.35487      311.70648     -2722.0022      1920.3708      0.9969611
   2274000  -641.98645      107.40183     -749.38828      283.70935     -344.45356      1920.3708      0.9969611
   2275000  -647.09286      111.76984     -758.8627       295.24776     -1058.7514      1920.3708      0.9969611
   2276000  -620.85489      121.10678     -741.96167      319.91193     -2980.5247      1920.3708      0.9969611
   2277000  -610.90498      125.21081     -736.11579      330.75302     -108.84616      1920.3708      0.9969611
   2278000  -629.95892      127.61631     -757.57523      337.10731      2405.1046      1920.3708      0.9969611
   2279000  -633.20304      102.61069     -735.81373      271.05323     -1285.2005      1920.3708      0.9969611
   2280000  -623.56481      126.63892     -750.20373      334.52546      1435.9474      1920.3708      0.9969611
   2281000  -629.14739      116.66952     -745.81691      308.1906       472.15199      1920.3708      0.9969611
   2282000  -635.11304      110.33969     -745.45273      291.46992      1586.6567      1920.3708      0.9969611
   2283000  -636.70143      111.86499     -748.56642      295.49911     -955.94332      1920.3708      0.9969611
   2284000  -640.66214      116.58585     -757.248        307.96959      690.646        1920.3708      0.9969611
   2285000  -644.86176      117.61733     -762.4791       310.69431      670.90655      1920.3708      0.9969611
   2286000  -655.66935      110.9709      -766.64025      293.1373      -863.25976      1920.3708      0.9969611
   2287000  -629.04181      109.47034     -738.51216      289.17347     -1755.7617      1920.3708      0.9969611
   2288000  -634.53779      116.69299     -751.23078      308.25258     -2886.8727      1920.3708      0.9969611
   2289000  -643.68637      110.55517     -754.24154      292.03912      639.52016      1920.3708      0.9969611
   2290000  -634.05605      106.26633     -740.32238      280.70985      359.32394      1920.3708      0.9969611
   2291000  -621.85156      119.05316     -740.90472      314.48715      957.86074      1920.3708      0.9969611
   2292000  -641.63873      116.27346     -757.9122       307.14439     -1397.391       1920.3708      0.9969611
   2293000  -595.8336       132.24097     -728.07457      349.32367      3078.0964      1920.3708      0.9969611
   2294000  -631.3788       122.83292     -754.21171      324.47163     -535.16444      1920.3708      0.9969611
   2295000  -653.51482      106.89791     -760.41273      282.37821      2830.8978      1920.3708      0.9969611
   2296000  -629.95382      110.79566     -740.74948      292.67439     -1199.8929      1920.3708      0.9969611
   2297000  -634.25554      109.31599     -743.57153      288.76573      1322.8896      1920.3708      0.9969611
   2298000  -643.42382      102.29786     -745.72168      270.22687     -430.85407      1920.3708      0.9969611
   2299000  -630.01106      124.63972     -754.65078      329.24442      1209.7922      1920.3708      0.9969611
   2300000  -642.38857      114.27924     -756.66781      301.87651      1629.6938      1920.3708      0.9969611
   2301000  -635.7066       120.84756     -756.55416      319.22718     -636.6072       1920.3708      0.9969611
   2302000  -629.16486      116.35688     -745.52174      307.36473     -525.44467      1920.3708      0.9969611
   2303000  -634.06348      97.342135     -731.40561      257.13598     -3089.5001      1920.3708      0.9969611
   2304000  -639.63524      112.22768     -751.86292      296.45718      1597.0521      1920.3708      0.9969611
   2305000  -635.68802      113.49169     -749.17971      299.79614      622.10747      1920.3708      0.9969611
   2306000  -638.12858      127.69451     -765.82309      337.31388      1962.6603      1920.3708      0.9969611
   2307000  -623.69914      115.33883     -739.03797      304.67549      1020.4613      1920.3708      0.9969611
   2308000  -644.26854      101.95446     -746.223        269.31975      1493.1557      1920.3708      0.9969611
   2309000  -622.69168      106.22247     -728.91415      280.594        1473.0981      1920.3708      0.9969611
   2310000  -624.78428      112.24454     -737.02882      296.50171      1603.4977      1920.3708      0.9969611
   2311000  -658.07351      114.50291     -772.57643      302.46736      1776.3183      1920.3708      0.9969611
   2312000  -630.86692      116.91332     -747.78024      308.83462     -1801.2358      1920.3708      0.9969611
   2313000  -666.15098      94.33584      -760.48682      249.19464      1220.0341      1920.3708      0.9969611
   2314000  -642.18707      106.56922     -748.75628      281.50995     -625.40026      1920.3708      0.9969611
   2315000  -642.09843      108.04575     -750.14417      285.4103       2.8049473      1920.3708      0.9969611
   2316000  -626.31537      121.77682     -748.09219      321.68189      3162.0253      1920.3708      0.9969611
   2317000  -620.04125      106.14687     -726.18812      280.39429      928.33413      1920.3708      0.9969611
   2318000  -634.46371      109.01178     -743.47549      287.96214      1180.7091      1920.3708      0.9969611
   2319000  -641.94054      104.07738     -746.01792      274.92759      840.27642      1920.3708      0.9969611
   2320000  -622.66775      109.13935     -731.8071       288.29913      43.737334      1920.3708      0.9969611
   2321000  -617.01419      124.6011      -741.6153       329.14243      1763.8796      1920.3708      0.9969611
   2322000  -651.72398      109.84805     -761.57202      290.17121     -947.41683      1920.3708      0.9969611
   2323000  -627.85745      120.07981     -747.93726      317.19911     -260.01985      1920.3708      0.9969611
   2324000  -612.8888       125.55528     -738.44408      331.66296     -784.88777      1920.3708      0.9969611
   2325000  -629.20158      117.05505     -746.25663      309.20901      701.02575      1920.3708      0.9969611
   2326000  -648.39373      107.92626     -756.31999      285.09467      2894.739       1920.3708      0.9969611
   2327000  -632.94708      115.2727      -748.21979      304.50082     -358.3337       1920.3708      0.9969611
   2328000  -633.35468      109.6345      -742.98919      289.60711     -1852.5802      1920.3708      0.9969611
   2329000  -653.97485      107.37659     -761.35144      283.64268      334.46801      1920.3708      0.9969611
   2330000  -635.4993       109.77524     -745.27454      289.97887     -278.28491      1920.3708      0.9969611
   2331000  -618.4613       115.21157     -733.67287      304.33933     -1369.8243      1920.3708      0.9969611
   2332000  -618.40302      108.89948     -727.3025       287.6655      -670.55348      1920.3708      0.9969611
   2333000  -617.00809      109.21077     -726.21886      288.48779     -1064.1192      1920.3708      0.9969611
   2334000  -656.5845       115.45321     -772.03771      304.97763      3793.2315      1920.3708      0.9969611
   2335000  -635.00366      108.37902     -743.38268      286.29066     -1020.5498      1920.3708      0.9969611
   2336000  -642.56731      104.64855     -747.21587      276.43639     -1269.4021      1920.3708      0.9969611
   2337000  -630.67704      123.12376     -753.8008       325.23992      811.04266      1920.3708      0.9969611
   2338000  -644.83894      99.475651     -744.31459      262.77181     -1864.0673      1920.3708      0.9969611
   2339000  -641.94701      122.22683     -764.17385      322.87063     -2926.2184      1920.3708      0.9969611
   2340000  -645.17233      111.53451     -756.70684      294.62613     -1633.1084      1920.3708      0.9969611
   2341000  -630.92377      103.10155     -734.02533      272.34988      1030.5547      1920.3708      0.9969611
   2342000  -629.94368      124.2131      -754.15678      328.1175      -521.8689       1920.3708      0.9969611
   2343000  -644.06184      108.8926      -752.95445      287.64734      1607.9471      1920.3708      0.9969611
   2344000  -638.05689      114.10832     -752.1652       301.425       -1987.5458      1920.3708      0.9969611
   2345000  -612.36317      134.30632     -746.6695       354.77944      2041.4288      1920.3708      0.9969611
   2346000  -637.42455      109.72337     -747.14792      289.84187      1811.414       1920.3708      0.9969611
   2347000  -634.58933      106.00841     -740.59774      280.02854     -1279.0178      1920.3708      0.9969611
   2348000  -612.3438       112.1504      -724.49419      296.25303     -452.24541      1920.3708      0.9969611
   2349000  -638.77522      110.35691     -749.13213      291.51541      906.22798      1920.3708      0.9969611
   2350000  -646.95275      113.67523     -760.62798      300.28097     -1255.7003      1920.3708      0.9969611
   2351000  -622.30258      137.73994     -760.04252      363.84958      1706.9503      1920.3708      0.9969611
   2352000  -647.3888       105.34734     -752.73614      278.28228     -983.23403      1920.3708      0.9969611
   2353000  -603.35768      133.38305     -736.74073      352.34054     -1664.5086      1920.3708      0.9969611
   2354000  -644.75262      120.37982     -765.13245      317.99162     -2358.742       1920.3708      0.9969611
   2355000  -664.26068      103.89891     -768.15959      274.45614      953.25439      1920.3708      0.9969611
   2356000  -637.13566      112.02044     -749.15609      295.90972     -548.223        1920.3708      0.9969611
   2357000  -643.90049      116.06636     -759.96686      306.59732      1986.3214      1920.3708      0.9969611
   2358000  -644.85239      118.81183     -763.66422      313.84967      1099.7359      1920.3708      0.9969611
   2359000  -616.44243      123.59182     -740.03425      326.47634      762.76428      1920.3708      0.9969611
   2360000  -618.77151      111.21999     -729.9915       293.79529     -323.07516      1920.3708      0.9969611
   2361000  -619.8038       117.89639     -737.70019      311.43146      2831.3974      1920.3708      0.9969611
   2362000  -647.78521      109.58173     -757.36695      289.46772     -571.28795      1920.3708      0.9969611
   2363000  -658.69594      113.7817      -772.47763      300.56221      2265.5843      1920.3708      0.9969611
   2364000  -645.11375      108.85527     -753.96902      287.54873     -2385.4232      1920.3708      0.9969611
   2365000  -617.67047      115.29776     -732.96823      304.56699      2676.3954      1920.3708      0.9969611
   2366000  -632.05273      113.55936     -745.61209      299.97489      3962.6357      1920.3708      0.9969611
   2367000  -596.39277      132.10459     -728.49736      348.9634       2462.6308      1920.3708      0.9969611
   2368000  -613.25872      120.31836     -733.57707      317.82925      1066.6729      1920.3708      0.9969611
   2369000  -627.73188      113.1724      -740.90428      298.95271      1320.5035      1920.3708      0.9969611
   2370000  -627.4777       120.15742     -747.63512      317.40413      975.20429      1920.3708      0.9969611
   2371000  -667.07749      97.971063     -765.04855      258.79733     -3792.1723      1920.3708      0.9969611
   2372000  -634.22607      107.72007     -741.94614      284.55001     -1092.2152      1920.3708      0.9969611
   2373000  -652.547        105.03966     -757.58667      277.46953      299.1618       1920.3708      0.9969611
   2374000  -638.18574      103.63743     -741.82317      273.76543      55.001337      1920.3708      0.9969611
   2375000  -619.23367      128.694       -747.92766      339.95408      255.30293      1920.3708      0.9969611
   2376000  -598.56242      132.67088     -731.2333       350.45931      3107.0788      1920.3708      0.9969611
   2377000  -614.21119      128.63868     -742.84987      339.80796      1328.7818      1920.3708      0.9969611
   2378000  -627.07656      113.40433     -740.48089      299.56537      479.88266      1920.3708      0.9969611
   2379000  -656.94514      108.04587     -764.99102      285.41064      1273.9601      1920.3708      0.9969611
   2380000  -633.13194      112.44711     -745.57904      297.0368       963.46587      1920.3708      0.9969611
   2381000  -640.71957      114.68674     -755.40631      302.95295     -2239.3486      1920.3708      0.9969611
   2382000  -642.23334      103.02872     -745.26207      272.15749     -736.63988      1920.3708      0.9969611
   2383000  -635.91921      112.03355     -747.95276      295.94437      427.01947      1920.3708      0.9969611
   2384000  -647.37239      125.00321     -772.3756       330.20463     -65.130512      1920.3708      0.9969611
   2385000  -633.71281      113.93326     -747.64607      300.96259     -1787.278       1920.3708      0.9969611
   2386000  -643.66921      111.47327     -755.14248      294.46435     -1200.1267      1920.3708      0.9969611
   2387000  -606.34511      111.00666     -717.35177      293.23176      750.81385      1920.3708      0.9969611
   2388000  -614.66325      126.10904     -740.77229      333.12574     -425.28303      1920.3708      0.9969611
   2389000  -639.65561      120.18705     -759.84266      317.48239     -153.25602      1920.3708      0.9969611
   2390000  -626.5775       99.297737     -725.87524      262.30183     -511.6129       1920.3708      0.9969611
   2391000  -610.16973      114.19681     -724.36654      301.65876      1456.8051      1920.3708      0.9969611
   2392000  -626.58224      101.27233     -727.85457      267.51786      166.56082      1920.3708      0.9969611
   2393000  -643.21         116.30607     -759.51607      307.23053      637.71042      1920.3708      0.9969611
   2394000  -614.21396      113.3594      -727.57336      299.44668      4290.8938      1920.3708      0.9969611
   2395000  -622.52501      107.07896     -729.60397      282.85647     -2086.8267      1920.3708      0.9969611
   2396000  -618.11603      122.69174     -740.80777      324.09872      1412.0799      1920.3708      0.9969611
   2397000  -650.5019       104.76732     -755.26922      276.75012      658.33189      1920.3708      0.9969611
   2398000  -645.8067       112.53433     -758.34103      297.26721     -721.78061      1920.3708      0.9969611
   2399000  -614.22935      117.09298     -731.32233      309.30921      445.38664      1920.3708      0.9969611
   2400000  -618.31682      110.26984     -728.58665      291.28539     -1236.1975      1920.3708      0.9969611
   2401000  -608.3914       112.41258     -720.80398      296.9456      -1185.9833      1920.3708      0.9969611
   2402000  -631.07532      114.19375     -745.26907      301.65069     -453.23128      1920.3708      0.9969611
   2403000  -621.01322      104.41816     -725.43138      275.82779      2983.8184      1920.3708      0.9969611
   2404000  -635.77678      110.18724     -745.96402      291.06722      957.12228      1920.3708      0.9969611
   2405000  -621.44796      133.76699     -755.21495      353.35475     -1050.1943      1920.3708      0.9969611
   2406000  -638.22806      112.01156     -750.23962      295.88628     -1093.6204      1920.3708      0.9969611
   2407000  -628.86529      106.86722     -735.73252      282.29716      2482.7895      1920.3708      0.9969611
   2408000  -639.63428      113.72315     -753.35743      300.40755      334.56477      1920.3708      0.9969611
   2409000  -656.14105      104.93433     -761.07537      277.19127      37.132563      1920.3708      0.9969611
   2410000  -644.87208      104.42592     -749.298        275.84828     -1186.5347      1920.3708      0.9969611
   2411000  -638.74023      119.44841     -758.18864      315.53124     -1466.1781      1920.3708      0.9969611
   2412000  -652.41365      108.3526      -760.76625      286.22087     -137.739        1920.3708      0.9969611
   2413000  -635.31388      103.53035     -738.84423      273.48257      786.17883      1920.3708      0.9969611
   2414000  -631.78899      117.79225     -749.58125      311.15638     -405.58976      1920.3708      0.9969611
   2415000  -629.36634      110.37146     -739.73781      291.55385      653.93549      1920.3708      0.9969611
   2416000  -640.23342      116.16745     -756.40087      306.86436     -552.49322      1920.3708      0.9969611
   2417000  -655.59463      101.94736     -757.54199      269.301       -2651.4019      1920.3708      0.9969611
   2418000  -639.77235      114.18401     -753.95636      301.62495      1402.3213      1920.3708      0.9969611
   2419000  -632.30942      105.61708     -737.92649      278.9948       243.27839      1920.3708      0.9969611
   2420000  -644.65542      120.51615     -765.17157      318.35173     -1023.8838      1920.3708      0.9969611
   2421000  -645.17009      103.93255     -749.10265      274.54502     -1335.3114      1920.3708      0.9969611
   2422000  -627.56115      92.860131     -720.42128      245.29645      1721.5091      1920.3708      0.9969611
   2423000  -610.95904      128.18654     -739.14558      338.61362      366.15037      1920.3708      0.9969611
   2424000  -599.56927      128.78007     -728.34933      340.18144      877.22567      1920.3708      0.9969611
   2425000  -618.37605      113.38067     -731.75672      299.50287     -1867.4748      1920.3708      0.9969611
   2426000  -621.55204      111.27177     -732.82381      293.93207     -643.11211      1920.3708      0.9969611
   2427000  -619.89342      115.20614     -735.09957      304.32498      48.396878      1920.3708      0.9969611
   2428000  -621.63978      107.7326      -729.37238      284.58311      683.02501      1920.3708      0.9969611
   2429000  -620.17804      110.3129      -730.49095      291.39916      1514.8321      1920.3708      0.9969611
   2430000  -624.03749      112.55239     -736.58987      297.31491      2720.9306      1920.3708      0.9969611
   2431000  -653.36631      109.40312     -762.76943      288.9959      -1047.9621      1920.3708      0.9969611
   2432000  -643.46297      100.82919     -744.29216      266.34728     -1338.3031      1920.3708      0.9969611
   2433000  -650.40142      102.42286     -752.82427      270.55705     -1590.1984      1920.3708      0.9969611
   2434000  -620.74983      122.89806     -743.64789      324.64371      1729.254       1920.3708      0.9969611
   2435000  -616.15748      128.22986     -744.38734      338.72803      953.5298       1920.3708      0.9969611
   2436000  -659.75806      100.47056     -760.22862      265.39993     -617.62204      1920.3708      0.9969611
   2437000  -647.95717      103.71211     -751.66927      273.9627       46.647999      1920.3708      0.9969611
   2438000  -636.38739      106.03326     -742.42065      280.09419     -344.77196      1920.3708      0.9969611
   2439000  -640.55472      115.95737     -756.51209      306.30941      1673.705       1920.3708      0.9969611
   2440000  -634.07768      114.3732      -748.45088      302.12471      746.96154      1920.3708      0.9969611
   2441000  -623.39871      107.15331     -730.55202      283.05286      200.33888      1920.3708      0.9969611
   2442000  -641.44509      120.0203      -761.46539      317.04191     -1805.0316      1920.3708      0.9969611
   2443000  -658.16743      109.69298     -767.86041      289.7616      -380.32743      1920.3708      0.9969611
   2444000  -658.49992      112.89794     -771.39786      298.22772     -2313.6279      1920.3708      0.9969611
   2445000  -643.75362      105.26312     -749.01674      278.05981      846.55644      1920.3708      0.9969611
   2446000  -657.49954      101.55684     -759.05638      268.26941      1557.9781      1920.3708      0.9969611
   2447000  -640.20893      119.26302     -759.47195      315.04151      1226.0182      1920.3708      0.9969611
   2448000  -641.54139      121.99443     -763.53581      322.25671     -2354.3021      1920.3708      0.9969611
   2449000  -646.531        100.51411     -747.04511      265.51498      768.86309      1920.3708      0.9969611
   2450000  -628.61279      109.72081     -738.33359      289.83509     -2.9378184      1920.3708      0.9969611
   2451000  -637.2859       112.79303     -750.07894      297.9506      -2342.6639      1920.3708      0.9969611
   2452000  -626.21599      115.29094     -741.50693      304.54898     -1181.0321      1920.3708      0.9969611
   2453000  -631.4685       112.41342     -743.88193      296.94783      1673.9362      1920.3708      0.9969611
   2454000  -634.64997      122.98292     -757.63289      324.86788      668.83997      1920.3708      0.9969611
   2455000  -630.83465      115.49595     -746.3306       305.09052      728.36207      1920.3708      0.9969611
   2456000  -621.01548      107.08947     -728.10496      282.88424      4481.9272      1920.3708      0.9969611
   2457000  -631.6067       112.02338     -743.63008      295.91749      1253.3877      1920.3708      0.9969611
   2458000  -658.6552       113.08478     -771.73997      298.72125      1123.1609      1920.3708      0.9969611
   2459000  -643.47726      111.47899     -754.95625      294.47945     -972.06311      1920.3708      0.9969611
   2460000  -655.41789      98.280198     -753.69809      259.61394      1624.241       1920.3708      0.9969611
   2461000  -630.71734      116.71717     -747.43451      308.31646     -1596.023       1920.3708      0.9969611
   2462000  -633.84061      107.24895     -741.08956      283.30552     -638.32746      1920.3708      0.9969611
   2463000  -634.13977      110.97949     -745.11925      293.15998     -219.00582      1920.3708      0.9969611
   2464000  -635.52174      117.84968     -753.37142      311.30807     -3723.9604      1920.3708      0.9969611
   2465000  -647.64349      106.96416     -754.60765      282.55323      1761.7296      1920.3708      0.9969611
   2466000  -634.73481      99.907237     -734.64205      263.91187     -230.84797      1920.3708      0.9969611
   2467000  -658.28923      111.71139     -770.00062      295.09335     -2270.0987      1920.3708      0.9969611
   2468000  -612.56333      110.57889     -723.14222      292.10177     -2.4227147      1920.3708      0.9969611
   2469000  -636.12374      113.24852     -749.37226      299.15378      1718.115       1920.3708      0.9969611
   2470000  -614.5325       113.8097      -728.34219      300.63618      2297.359       1920.3708      0.9969611
   2471000  -616.97858      123.29299     -740.27156      325.68695     -1668.3923      1920.3708      0.9969611
   2472000  -637.16891      120.58938     -757.75828      318.54517     -199.66436      1920.3708      0.9969611
   2473000  -599.58694      133.48189     -733.06883      352.60163      1982.848       1920.3708      0.9969611
   2474000  -648.76127      111.3282      -760.08948      294.08114     -2404.1781      1920.3708      0.9969611
   2475000  -634.08684      114.70499     -748.79183      303.00116     -1741.4021      1920.3708      0.9969611
   2476000  -621.53236      127.98666     -749.51902      338.0856      -1118.9093      1920.3708      0.9969611
   2477000  -646.02861      105.56016     -751.58877      278.84446     -1250.0513      1920.3708      0.9969611
   2478000  -618.11023      120.99524     -739.10548      319.61729      762.54966      1920.3708      0.9969611
   2479000  -630.55766      113.9377      -744.49536      300.97432     -239.82261      1920.3708      0.9969611
   2480000  -621.62711      119.67928     -741.30639      316.14109     -407.77535      1920.3708      0.9969611
   2481000  -625.88924      126.115       -752.00424      333.14149      2688.9164      1920.3708      0.9969611
   2482000  -644.08641      96.378628     -740.46504      254.59081      2370.2475      1920.3708      0.9969611
   2483000  -626.71873      101.91361     -728.63234      269.21184      302.4587       1920.3708      0.9969611
   2484000  -646.11201      100.50304     -746.61505      265.48573     -970.53005      1920.3708      0.9969611
   2485000  -607.75166      125.67682     -733.42848      331.98401      300.09945      1920.3708      0.9969611
   2486000  -596.04699      110.75778     -706.80478      292.57433      368.58019      1920.3708      0.9969611
   2487000  -599.75763      135.49992     -735.25754      357.9324       1615.5314      1920.3708      0.9969611
   2488000  -620.40759      122.83068     -743.23827      324.46572     -1117.0655      1920.3708      0.9969611
   2489000  -650.04907      116.43237     -766.48143      307.56414     -2470.6769      1920.3708      0.9969611
   2490000  -631.50777      108.50383     -740.0116       286.62037      286.12222      1920.3708      0.9969611
   2491000  -602.63616      131.37645     -734.01262      347.03998      23.385095      1920.3708      0.9969611
   2492000  -630.06097      107.99632     -738.05729      285.27974      2592.558       1920.3708      0.9969611
   2493000  -661.08405      101.44388     -762.52793      267.97102     -320.72013      1920.3708      0.9969611
   2494000  -611.53338      133.39646     -744.92984      352.37596      841.33006      1920.3708      0.9969611
   2495000  -604.71575      123.25912     -727.97487      325.59747     -928.87694      1920.3708      0.9969611
   2496000  -642.02388      103.49488     -745.51876      273.38887      1453.8393      1920.3708      0.9969611
   2497000  -639.48391      117.42561     -756.90952      310.18786     -574.39204      1920.3708      0.9969611
   2498000  -619.23285      125.06869     -744.30154      330.37759      1903.7588      1920.3708      0.9969611
   2499000  -642.37475      108.2068      -750.58155      285.83575      2433.4835      1920.3708      0.9969611
   2500000  -627.3545       117.25193     -744.60642      309.72907     -102.70901      1920.3708      0.9969611
   2501000  -607.23952      110.8951      -718.13462      292.93708      582.37021      1920.3708      0.9969611
   2502000  -616.36748      113.31111     -729.67859      299.31913     -1232.1032      1920.3708      0.9969611
   2503000  -641.1327       98.491492     -739.6242       260.17208     -2758.6189      1920.3708      0.9969611
   2504000  -628.43263      114.28784     -742.72047      301.89923      28.225183      1920.3708      0.9969611
   2505000  -607.30497      125.62051     -732.92548      331.83525     -1200.8697      1920.3708      0.9969611
   2506000  -623.12994      117.88367     -741.01361      311.39786     -608.80714      1920.3708      0.9969611
   2507000  -631.56646      113.09958     -744.66604      298.76035      1648.196       1920.3708      0.9969611
   2508000  -629.02271      101.51177     -730.53448      268.15035     -2067.0613      1920.3708      0.9969611
   2509000  -631.07914      109.64984     -740.72898      289.64764      3284.3905      1920.3708      0.9969611
   2510000  -647.68155      107.72227     -755.40382      284.55582     -1727.9054      1920.3708      0.9969611
   2511000  -636.79864      110.96494     -747.76358      293.12156      345.83111      1920.3708      0.9969611
   2512000  -639.09764      104.6954      -743.79304      276.56014      3289.8863      1920.3708      0.9969611
   2513000  -639.86441      110.85272     -750.71713      292.82513     -1504.4875      1920.3708      0.9969611
   2514000  -624.09851      110.87782     -734.97632      292.89142      822.90999      1920.3708      0.9969611
   2515000  -626.21021      125.23567     -751.44588      330.81867      833.7229       1920.3708      0.9969611
   2516000  -625.96292      102.99642     -728.95933      272.07215     -2540.3888      1920.3708      0.9969611
   2517000  -641.1346       116.60562     -757.74022      308.0218      -564.82307      1920.3708      0.9969611
   2518000  -641.49337      119.31725     -760.81062      315.18477     -1642.6232      1920.3708      0.9969611
   2519000  -621.27417      129.79926     -751.07343      342.87371     -2836.4334      1920.3708      0.9969611
   2520000  -654.05479      122.1663      -776.22109      322.71073     -3355.604       1920.3708      0.9969611
   2521000  -654.69369      105.17105     -759.86474      277.8166      -2538.4093      1920.3708      0.9969611
   2522000  -630.48226      122.17324     -752.6555       322.72905      1462.3997      1920.3708      0.9969611
   2523000  -645.19771      110.17764     -755.37535      291.04185     -1112.6617      1920.3708      0.9969611
   2524000  -651.62369      105.40004     -757.02373      278.42148     -926.75454      1920.3708      0.9969611
   2525000  -612.83858      112.61686     -725.45544      297.48522     -827.76545      1920.3708      0.9969611
   2526000  -638.73997      106.01371     -744.75368      280.04254      418.16315      1920.3708      0.9969611
   2527000  -632.80291      117.87913     -750.68204      311.38588      1256.0923      1920.3708      0.9969611
   2528000  -628.36772      112.66951     -741.03722      297.62429      186.81938      1920.3708      0.9969611
   2529000  -617.25119      122.30868     -739.55988      323.08683     -380.82825      1920.3708      0.9969611
   2530000  -637.17976      107.82898     -745.00874      284.83769     -36.459813      1920.3708      0.9969611
   2531000  -659.5436       103.09614     -762.63974      272.33558     -1296.2246      1920.3708      0.9969611
   2532000  -622.32835      127.07648     -749.40483      335.68129     -68.251095      1920.3708      0.9969611
   2533000  -622.37406      121.60695     -743.981        321.23315     -405.63483      1920.3708      0.9969611
   2534000  -641.07322      113.62606     -754.69928      300.15108     -203.56969      1920.3708      0.9969611
   2535000  -617.14516      124.53596     -741.68112      328.97036      704.49167      1920.3708      0.9969611
   2536000  -632.34788      112.08339     -744.43128      296.07603     -511.0182       1920.3708      0.9969611
   2537000  -644.0187       101.83186     -745.85056      268.9959      -1725.176       1920.3708      0.9969611
   2538000  -645.50829      104.72015     -750.22844      276.62552     -204.60838      1920.3708      0.9969611
   2539000  -620.49782      118.28918     -738.78699      312.46903      2258.0588      1920.3708      0.9969611
   2540000  -648.46614      100.75303     -749.21917      266.14609     -305.44673      1920.3708      0.9969611
   2541000  -614.25529      118.51405     -732.76934      313.06304     -912.05924      1920.3708      0.9969611
   2542000  -610.05003      117.28197     -727.33201      309.80844     -1572.2737      1920.3708      0.9969611
   2543000  -612.93889      123.5964      -736.5353       326.48844     -202.76976      1920.3708      0.9969611
   2544000  -630.72551      117.72484     -748.45035      310.97831      383.53231      1920.3708      0.9969611
   2545000  -594.87849      121.67939     -716.55788      321.42452      291.64191      1920.3708      0.9969611
   2546000  -609.85043      125.52711     -735.37755      331.58855      202.11975      1920.3708      0.9969611
   2547000  -621.82684      105.13018     -726.95702      277.70864     -529.64288      1920.3708      0.9969611
   2548000  -609.9373       103.42408     -713.36139      273.20186     -199.21584      1920.3708      0.9969611
   2549000  -648.57801      107.30647     -755.88448      283.45746      3931.5257      1920.3708      0.9969611
   2550000  -623.86916      123.0571      -746.92626      325.06382      855.38632      1920.3708      0.9969611
   2551000  -623.96775      115.99805     -739.9658       306.41687      268.33006      1920.3708      0.9969611
   2552000  -630.40613      117.50547     -747.9116       310.39883      1407.7595      1920.3708      0.9969611
   2553000  -637.67073      107.49076     -745.16148      283.94426      570.07522      1920.3708      0.9969611
   2554000  -639.22901      119.02177     -758.25078      314.40422     -1280.3553      1920.3708      0.9969611
   2555000  -642.6095       116.31618     -758.92568      307.25722      1847.837       1920.3708      0.9969611
   2556000  -629.66959      117.08108     -746.75067      309.27776     -2676.4926      1920.3708      0.9969611
   2557000  -654.98141      106.91183     -761.89324      282.41499      727.45985      1920.3708      0.9969611
   2558000  -632.85562      118.50385     -751.35947      313.03611      1890.0171      1920.3708      0.9969611
   2559000  -663.25945      94.970271     -758.22972      250.87054     -1779.7056      1920.3708      0.9969611
   2560000  -626.57018      122.84763     -749.41781      324.51051     -754.92547      1920.3708      0.9969611
   2561000  -628.65778      116.27369     -744.93147      307.14499      1575.2435      1920.3708      0.9969611
   2562000  -622.05357      106.05873     -728.1123       280.16148      2468.2116      1920.3708      0.9969611
   2563000  -630.88028      106.49398     -737.37427      281.31121      709.34247      1920.3708      0.9969611
   2564000  -639.46126      112.38126     -751.84252      296.86287      1298.3806      1920.3708      0.9969611
   2565000  -623.61761      106.53822     -730.15582      281.42806     -1016.942       1920.3708      0.9969611
   2566000  -656.19897      112.755       -768.95397      297.85012      79.205         1920.3708      0.9969611
   2567000  -651.81377      102.63697     -754.45074      271.12264     -1717.135       1920.3708      0.9969611
   2568000  -627.86564      112.58916     -740.4548       297.41206     -2116.0109      1920.3708      0.9969611
   2569000  -629.83052      130.59874     -760.42926      344.9856      -2034.863       1920.3708      0.9969611
   2570000  -623.12942      106.60344     -729.73286      281.60036      81.623002      1920.3708      0.9969611
   2571000  -642.47479      106.82032     -749.2951       282.17325      535.97528      1920.3708      0.9969611
   2572000  -654.38436      116.411       -770.79536      307.50769     -773.22469      1920.3708      0.9969611
   2573000  -648.47567      123.07399     -771.54967      325.10846     -432.8361       1920.3708      0.9969611
   2574000  -632.9758       117.25734     -750.23314      309.74338     -598.46213      1920.3708      0.9969611
   2575000  -636.35555      114.03163     -750.38718      301.22242     -806.70361      1920.3708      0.9969611
   2576000  -616.1218       134.04736     -750.16916      354.09538     -1026.3991      1920.3708      0.9969611
   2577000  -608.00213      115.81836     -723.82049      305.9422       1040.9045      1920.3708      0.9969611
   2578000  -592.51072      132.7825      -725.29322      350.75414      209.38995      1920.3708      0.9969611
   2579000  -638.14514      101.32818     -739.47332      267.6654       3674.211       1920.3708      0.9969611
   2580000  -649.27026      112.94434     -762.21461      298.35029     -1323.6618      1920.3708      0.9969611
   2581000  -647.25523      112.46267     -759.7179       297.07792     -1947.1199      1920.3708      0.9969611
   2582000  -613.82339      117.31135     -731.13474      309.88603      2695.7516      1920.3708      0.9969611
   2583000  -651.7089       117.42212     -769.13101      310.17863     -2595.4546      1920.3708      0.9969611
   2584000  -636.7746       114.68201     -751.45662      302.94047      997.70228      1920.3708      0.9969611
   2585000  -631.97305      110.55147     -742.52452      292.02935     -1298.6767      1920.3708      0.9969611
   2586000  -620.1746       115.06955     -735.24415      303.96416      134.9425       1920.3708      0.9969611
   2587000  -647.09427      107.66612     -754.76039      284.40749      250.99362      1920.3708      0.9969611
   2588000  -597.31827      122.52202     -719.84029      323.65039     -3271.2649      1920.3708      0.9969611
   2589000  -631.91834      114.1969      -746.11524      301.659       -1430.8536      1920.3708      0.9969611
   2590000  -650.54502      111.37845     -761.92347      294.21388     -4014.7176      1920.3708      0.9969611
   2591000  -632.27515      108.13161     -740.40676      285.63711     -916.96547      1920.3708      0.9969611
   2592000  -618.09307      114.75729     -732.85036      303.13931      4635.3804      1920.3708      0.9969611
   2593000  -637.37247      103.61562     -740.98809      273.70781     -728.10051      1920.3708      0.9969611
   2594000  -633.74452      112.80106     -746.54558      297.97178      262.05218      1920.3708      0.9969611
   2595000  -631.81911      115.69772     -747.51683      305.62352      1582.744       1920.3708      0.9969611
   2596000  -637.75627      116.58444     -754.34072      307.96586      59.073416      1920.3708      0.9969611
   2597000  -602.26592      121.0245      -723.29042      319.69459      847.98514      1920.3708      0.9969611
   2598000  -620.52271      127.29139     -747.81409      336.24899      516.61684      1920.3708      0.9969611
   2599000  -653.61684      105.49557     -759.11241      278.67383     -1217.5971      1920.3708      0.9969611
   2600000  -652.85882      96.739365     -749.59819      255.54372     -1353.717       1920.3708      0.9969611
   2601000  -631.19918      114.21109     -745.41027      301.69649     -1428.9211      1920.3708      0.9969611
   2602000  -626.41152      109.41971     -735.83124      289.03973     -1175.7898      1920.3708      0.9969611
   2603000  -594.87463      116.23429     -711.10892      307.04092     -214.02674      1920.3708      0.9969611
   2604000  -635.80861      117.0934      -752.90201      309.31031     -692.43539      1920.3708      0.9969611
   2605000  -632.94723      111.63524     -744.58246      294.89219      989.91619      1920.3708      0.9969611
   2606000  -614.9829       120.02963     -735.01253      317.06657      697.98355      1920.3708      0.9969611
   2607000  -644.37764      115.8866      -760.26424      306.12247     -655.62387      1920.3708      0.9969611
   2608000  -629.11218      107.17934     -736.29152      283.12163     -1022.6927      1920.3708      0.9969611
   2609000  -658.70946      105.36787     -764.07733      278.3365      -978.69023      1920.3708      0.9969611
   2610000  -621.52406      111.78413     -733.30819      295.2855      -1273.5321      1920.3708      0.9969611
   2611000  -652.35791      113.66612     -766.02402      300.2569      -2121.0959      1920.3708      0.9969611
   2612000  -629.81163      106.223       -736.03463      280.59541     -658.82425      1920.3708      0.9969611
   2613000  -618.83392      133.76269     -752.59661      353.34339     -1908.6214      1920.3708      0.9969611
   2614000  -662.94522      110.03738     -772.9826       290.67134      1038.8844      1920.3708      0.9969611
   2615000  -622.20455      117.20945     -739.41401      309.61687     -1927.7408      1920.3708      0.9969611
   2616000  -650.49546      98.620735     -749.1162       260.51349     -3101.1092      1920.3708      0.9969611
   2617000  -637.41987      120.61311     -758.03299      318.60788     -1463.6741      1920.3708      0.9969611
   2618000  -635.29977      103.17004     -738.46981      272.53079     -888.48868      1920.3708      0.9969611
   2619000  -649.95658      111.72828     -761.68485      295.13797     -1049.1423      1920.3708      0.9969611
   2620000  -621.14199      115.32109     -736.46308      304.62864     -2141.0479      1920.3708      0.9969611
   2621000  -611.08705      126.20849     -737.29555      333.38846     -795.49371      1920.3708      0.9969611
   2622000  -653.62109      108.84535     -762.46644      287.52251     -2326.4165      1920.3708      0.9969611
   2623000  -607.26422      125.64126     -732.90547      331.89007      1131.0064      1920.3708      0.9969611
   2624000  -635.94424      108.21996     -744.1642       285.87049     -1706.6716      1920.3708      0.9969611
   2625000  -605.95088      136.86114     -742.81202      361.52815      972.96822      1920.3708      0.9969611
   2626000  -640.81098      114.43044     -755.24142      302.27592     -1960.0312      1920.3708      0.9969611
   2627000  -618.69983      109.72622     -728.42606      289.8494       1229.7874      1920.3708      0.9969611
   2628000  -645.77741      97.320119     -743.09753      257.07782      1145.0396      1920.3708      0.9969611
   2629000  -636.76216      112.00951     -748.77167      295.88087     -168.34083      1920.3708      0.9969611
   2630000  -635.32541      122.90117     -758.22657      324.65193     -909.30831      1920.3708      0.9969611
   2631000  -620.28985      106.00333     -726.29317      280.01511      2282.9938      1920.3708      0.9969611
   2632000  -659.13831      100.56887     -759.70717      265.65961      1286.7246      1920.3708      0.9969611
   2633000  -647.8793       106.95047     -754.82977      282.51706      844.56598      1920.3708      0.9969611
   2634000  -644.34476      102.61313     -746.95788      271.05967     -931.06491      1920.3708      0.9969611
   2635000  -645.08783      113.51191     -758.59974      299.84956      1055.3199      1920.3708      0.9969611
   2636000  -631.24137      108.01304     -739.25442      285.32391     -1389.1758      1920.3708      0.9969611
   2637000  -657.81072      95.98474      -753.79546      253.55032      734.03726      1920.3708      0.9969611
   2638000  -622.77391      113.63623     -736.41014      300.17795     -1793.351       1920.3708      0.9969611
   2639000  -645.7379       104.52655     -750.26445      276.11411      879.95207      1920.3708      0.9969611
   2640000  -615.88974      118.02702     -733.91676      311.77653      2178.363       1920.3708      0.9969611
   2641000  -645.5828       99.717004     -745.29981      263.40936      1024.5837      1920.3708      0.9969611
   2642000  -629.12415      111.92195     -741.0461       295.64956      2158.4367      1920.3708      0.9969611
   2643000  -627.31008      113.95706     -741.26715      301.02546     -2510.1457      1920.3708      0.9969611
   2644000  -658.41197      109.40193     -767.8139       288.99275      708.60649      1920.3708      0.9969611
   2645000  -661.21605      107.8346      -769.05065      284.85255     -537.56438      1920.3708      0.9969611
   2646000  -658.87153      109.25623     -768.12776      288.60788      2139.7316      1920.3708      0.9969611
   2647000  -627.79102      122.04018     -749.8312       322.37757      2685.2176      1920.3708      0.9969611
   2648000  -640.19023      108.50335     -748.69357      286.61909     -45.298111      1920.3708      0.9969611
   2649000  -613.73236      120.18087     -733.91323      317.46608     -1239.1245      1920.3708      0.9969611
   2650000  -630.74329      124.07488     -754.81817      327.75238     -523.03008      1920.3708      0.9969611
   2651000  -645.35671      100.67177     -746.02848      265.93144      2010.642       1920.3708      0.9969611
   2652000  -646.28701      107.36352     -753.65053      283.60816     -1872.509       1920.3708      0.9969611
   2653000  -633.87922      114.18418     -748.06339      301.62539     -1537.8548      1920.3708      0.9969611
   2654000  -631.44488      117.59706     -749.04194      310.64075     -937.85691      1920.3708      0.9969611
   2655000  -655.78364      108.57652     -764.36016      286.81239      789.5186       1920.3708      0.9969611
   2656000  -656.62719      105.86496     -762.49214      279.6496       603.13847      1920.3708      0.9969611
   2657000  -624.71243      114.88189     -739.59432      303.46844      850.66126      1920.3708      0.9969611
   2658000  -644.11739      120.70082     -764.81821      318.83957     -1794.8649      1920.3708      0.9969611
   2659000  -618.2838       122.77036     -741.05415      324.30638      1941.3655      1920.3708      0.9969611
   2660000  -631.6106       125.69671     -757.30731      332.03656      1796.6315      1920.3708      0.9969611
   2661000  -596.21575      109.45222     -705.66797      289.1256       2420.1825      1920.3708      0.9969611
   2662000  -619.08145      126.25694     -745.33839      333.51644      2193.1355      1920.3708      0.9969611
   2663000  -626.43919      112.1226      -738.56179      296.17961      2062.4993      1920.3708      0.9969611
   2664000  -647.83298      115.26171     -763.09469      304.47178      1074.8033      1920.3708      0.9969611
   2665000  -628.02554      108.06151     -736.08705      285.45194     -1000.3332      1920.3708      0.9969611
   2666000  -623.09914      110.97818     -734.07732      293.15653     -1811.5432      1920.3708      0.9969611
   2667000  -637.72228      110.60459     -748.32687      292.16968      294.6379       1920.3708      0.9969611
   2668000  -622.49731      116.51995     -739.01725      307.79549      3845.0955      1920.3708      0.9969611
   2669000  -642.592        98.084552     -740.67655      259.09712     -713.62603      1920.3708      0.9969611
   2670000  -622.56724      115.03878     -737.60601      303.88288      3516.7066      1920.3708      0.9969611
   2671000  -624.50181      115.50315     -740.00496      305.10954     -19.815877      1920.3708      0.9969611
   2672000  -657.59747      97.031875     -754.62934      256.3164      -262.45997      1920.3708      0.9969611
   2673000  -614.47194      124.23868     -738.71061      328.18505     -185.4539       1920.3708      0.9969611
   2674000  -606.77537      122.52986     -729.30524      323.6711      -905.155        1920.3708      0.9969611
   2675000  -644.65528      99.972002     -744.62728      264.08295      2415.6871      1920.3708      0.9969611
   2676000  -630.84544      111.28785     -742.13329      293.97456     -852.69486      1920.3708      0.9969611
   2677000  -625.16738      110.62689     -735.79428      292.22858     -1134.5289      1920.3708      0.9969611
   2678000  -639.45018      101.72404     -741.17421      268.71108     -2674.7832      1920.3708      0.9969611
   2679000  -662.43418      110.12988     -772.56406      290.9157      -1157.5898      1920.3708      0.9969611
   2680000  -639.43717      115.41717     -754.85433      304.88242     -1196.3443      1920.3708      0.9969611
   2681000  -644.28007      115.50506     -759.78513      305.11459     -1466.6712      1920.3708      0.9969611
   2682000  -638.36252      108.9592      -747.32172      287.82325      3262.252       1920.3708      0.9969611
   2683000  -653.54644      121.99459     -775.54103      322.25714      1379.6259      1920.3708      0.9969611
   2684000  -626.13798      122.40661     -748.54459      323.34552      246.24856      1920.3708      0.9969611
   2685000  -622.10475      111.33009     -733.43484      294.08613      1704.5922      1920.3708      0.9969611
   2686000  -655.06301      101.73116     -756.79417      268.72989     -1330.3041      1920.3708      0.9969611
   2687000  -636.88724      115.134       -752.02124      304.13443     -1154.6008      1920.3708      0.9969611
   2688000  -646.36561      108.95423     -755.31984      287.81012     -1842.431       1920.3708      0.9969611
   2689000  -635.55049      114.6613      -750.21179      302.88575     -1675.4767      1920.3708      0.9969611
   2690000  -617.39521      120.86287     -738.25808      319.26763     -1300.2659      1920.3708      0.9969611
   2691000  -639.00649      106.80062     -745.80711      282.12122     -1068.37        1920.3708      0.9969611
   2692000  -646.35861      101.9063      -748.26491      269.19253     -121.62503      1920.3708      0.9969611
   2693000  -638.54958      114.03817     -752.58775      301.2397       3478.5692      1920.3708      0.9969611
   2694000  -634.59534      115.8212      -750.41653      305.9497      -67.18185       1920.3708      0.9969611
   2695000  -629.31015      111.71092     -741.02107      295.09212      304.82715      1920.3708      0.9969611
   2696000  -635.92607      112.71424     -748.64031      297.74246     -1788.8199      1920.3708      0.9969611
   2697000  -631.32561      107.27488     -738.60048      283.374       -209.30918      1920.3708      0.9969611
   2698000  -615.04429      118.61099     -733.65527      313.31912     -1030.2183      1920.3708      0.9969611
   2699000  -638.97796      115.98115     -754.95912      306.37223      1338.5124      1920.3708      0.9969611
   2700000  -652.73911      106.51351     -759.25263      281.3628       1598.7209      1920.3708      0.9969611
   2701000  -659.89745      93.279158     -753.17661      246.40334     -1284.4348      1920.3708      0.9969611
   2702000  -638.79712      106.39824     -745.19536      281.0583       1009.4453      1920.3708      0.9969611
   2703000  -625.58507      111.49212     -737.07719      294.51414     -281.42476      1920.3708      0.9969611
   2704000  -640.8538       118.91844     -759.77224      314.13128      714.42572      1920.3708      0.9969611
   2705000  -649.59531      108.94084     -758.53615      287.77475     -1459.1287      1920.3708      0.9969611
   2706000  -671.50658      97.044817     -768.5514       256.35059     -2107.1342      1920.3708      0.9969611
   2707000  -651.6192       111.24038     -762.85958      293.84914      618.29667      1920.3708      0.9969611
   2708000  -627.51421      118.0137      -745.52791      311.74134      1625.5071      1920.3708      0.9969611
   2709000  -654.5589       106.80901     -761.36791      282.14338     -423.93647      1920.3708      0.9969611
   2710000  -639.87881      112.70205     -752.58086      297.71026      1128.9291      1920.3708      0.9969611
   2711000  -630.20481      109.54359     -739.7484       289.36696      1161.9326      1920.3708      0.9969611
   2712000  -657.16983      102.89093     -760.06076      271.79351      1302.9852      1920.3708      0.9969611
   2713000  -620.60421      113.22921     -733.83342      299.10279      282.2432       1920.3708      0.9969611
   2714000  -640.03444      117.60048     -757.63492      310.64979      832.80983      1920.3708      0.9969611
   2715000  -643.65106      109.67108     -753.32215      289.70375      3457.8021      1920.3708      0.9969611
   2716000  -645.52186      106.47821     -752.00007      281.26956      528.15496      1920.3708      0.9969611
   2717000  -636.38533      105.0486      -741.43393      277.49313     -613.46875      1920.3708      0.9969611
   2718000  -649.73337      120.04532     -769.77869      317.10801     -1720.3303      1920.3708      0.9969611
   2719000  -644.64273      108.80823     -753.45097      287.42447     -1301.3628      1920.3708      0.9969611
   2720000  -625.56105      126.11963     -751.68068      333.15373      1790.8694      1920.3708      0.9969611
   2721000  -628.0276       117.81869     -745.84628      311.2262      -1204.3538      1920.3708      0.9969611
   2722000  -665.61034      94.980108     -760.59044      250.89652     -2477.7447      1920.3708      0.9969611
   2723000  -620.64204      113.20151     -733.84355      299.0296       1316.7508      1920.3708      0.9969611
   2724000  -602.98443      115.38027     -718.3647       304.78497     -224.03859      1920.3708      0.9969611
   2725000  -632.2111       121.32568     -753.53678      320.49017      201.26782      1920.3708      0.9969611
   2726000  -643.20869      120.5496      -763.75829      318.44011     -1872.9758      1920.3708      0.9969611
   2727000  -615.85732      111.01602     -726.87334      293.2565       338.79797      1920.3708      0.9969611
   2728000  -620.82678      115.04287     -735.86965      303.89369      193.96038      1920.3708      0.9969611
   2729000  -632.47477      110.54781     -743.02259      292.01968      1847.6947      1920.3708      0.9969611
   2730000  -637.19953      111.33074     -748.53027      294.08785     -776.35277      1920.3708      0.9969611
   2731000  -613.90822      121.33254     -735.24076      320.50829      442.0457       1920.3708      0.9969611
   2732000  -633.28102      112.07885     -745.35987      296.06404     -3984.7644      1920.3708      0.9969611
   2733000  -625.65612      101.38195     -727.03808      267.80743     -646.66716      1920.3708      0.9969611
   2734000  -623.79088      117.7428      -741.53368      311.02575     -1786.1221      1920.3708      0.9969611
   2735000  -613.88044      115.29784     -729.17828      304.5672      -1541.0809      1920.3708      0.9969611
   2736000  -642.63956      107.45025     -750.08981      283.83725     -679.19837      1920.3708      0.9969611
   2737000  -628.71112      102.24438     -730.95549      270.08559      3783.588       1920.3708      0.9969611
   2738000  -592.56381      126.49587     -719.05968      334.14759     -591.0962       1920.3708      0.9969611
   2739000  -630.02329      115.82809     -745.85138      305.9679      -380.35885      1920.3708      0.9969611
   2740000  -652.95263      105.09645     -758.04908      277.61955     -1625.997       1920.3708      0.9969611
   2741000  -624.68052      122.44225     -747.12277      323.43966      1906.5071      1920.3708      0.9969611
   2742000  -645.68696      106.53604     -752.223        281.42231      3194.0766      1920.3708      0.9969611
   2743000  -651.52609      107.78872     -759.31481      284.73135      1683.5163      1920.3708      0.9969611
   2744000  -632.68171      127.21318     -759.8949       336.04242     -823.11924      1920.3708      0.9969611
   2745000  -620.21627      110.28204     -730.49831      291.31762      658.83046      1920.3708      0.9969611
   2746000  -636.22756      124.5342      -760.76176      328.9657       276.0687       1920.3708      0.9969611
   2747000  -642.84971      115.29613     -758.14583      304.56269      5129.2459      1920.3708      0.9969611
   2748000  -661.78795      116.66974     -778.45769      308.19119      1208.891       1920.3708      0.9969611
   2749000  -645.78067      119.15855     -764.93921      314.76554      866.34856      1920.3708      0.9969611
   2750000  -600.84588      124.66891     -725.51479      329.32154      2498.8269      1920.3708      0.9969611
   2751000  -637.31918      106.34092     -743.6601       280.90689     -1466.4665      1920.3708      0.9969611
   2752000  -629.36795      106.18696     -735.55491      280.5002       565.68795      1920.3708      0.9969611
   2753000  -626.3555       112.46057     -738.81607      297.07237      1015.779       1920.3708      0.9969611
   2754000  -630.94753      106.93153     -737.87906      282.46702     -1800.839       1920.3708      0.9969611
   2755000  -629.03689      122.95213     -751.98903      324.78656      37.737743      1920.3708      0.9969611
   2756000  -602.71705      111.59399     -714.31104      294.78323      2133.1893      1920.3708      0.9969611
   2757000  -640.35812      116.06362     -756.42174      306.59007      49.554269      1920.3708      0.9969611
   2758000  -646.82096      110.49929     -757.32025      291.8915       47.187599      1920.3708      0.9969611
   2759000  -633.25861      105.80387     -739.06248      279.48824     -2524.8392      1920.3708      0.9969611
   2760000  -656.5647       97.971097     -754.53579      258.79742     -1106.4799      1920.3708      0.9969611
   2761000  -633.0356       108.87636     -741.91196      287.60443     -878.62905      1920.3708      0.9969611
   2762000  -634.09769      103.05819     -737.15588      272.23532      237.68385      1920.3708      0.9969611
   2763000  -619.84298      124.61951     -744.46249      329.19105      1576.3052      1920.3708      0.9969611
   2764000  -658.61372      107.19974     -765.81346      283.17552     -1128.9342      1920.3708      0.9969611
   2765000  -627.24895      111.34675     -738.59569      294.13013     -1227.967       1920.3708      0.9969611
   2766000  -626.42008      118.16414     -744.58422      312.13875     -1737.8158      1920.3708      0.9969611
   2767000  -665.1581       99.571511     -764.72961      263.02503      724.4657       1920.3708      0.9969611
   2768000  -629.27133      115.70594     -744.97728      305.64525     -292.69741      1920.3708      0.9969611
   2769000  -641.88358      110.72053     -752.60411      292.47594     -1958.3895      1920.3708      0.9969611
   2770000  -648.34216      109.18443     -757.52659      288.41822      803.04236      1920.3708      0.9969611
   2771000  -625.82246      110.39087     -736.21333      291.60512     -3064.5429      1920.3708      0.9969611
   2772000  -644.92012      116.09018     -761.0103       306.66022      448.29086      1920.3708      0.9969611
   2773000  -620.01761      113.89549     -733.9131       300.8628      -114.25977      1920.3708      0.9969611
   2774000  -617.03374      118.10283     -735.13657      311.97678     -641.04353      1920.3708      0.9969611
   2775000  -644.2309       104.5306      -748.7615       276.12481      317.6947       1920.3708      0.9969611
   2776000  -612.6919       118.51721     -731.20911      313.0714      -2828.7834      1920.3708      0.9969611
   2777000  -641.08926      113.25924     -754.3485       299.18212      288.09662      1920.3708      0.9969611
   2778000  -629.78206      107.27636     -737.05842      283.37791      1405.5374      1920.3708      0.9969611
   2779000  -651.1407       118.35832     -769.49902      312.65168      375.11106      1920.3708      0.9969611
   2780000  -644.31973      100.76782     -745.08755      266.18516     -472.83898      1920.3708      0.9969611
   2781000  -632.44379      112.13072     -744.57451      296.20105     -1834.1638      1920.3708      0.9969611
   2782000  -606.14742      121.93559     -728.08301      322.10128      1867.7059      1920.3708      0.9969611
   2783000  -639.21432      105.5435      -744.75782      278.80044     -1762.1561      1920.3708      0.9969611
   2784000  -612.77776      126.45821     -739.23597      334.0481       2323.7311      1920.3708      0.9969611
   2785000  -645.36457      112.42208     -757.78666      296.9707      -106.23079      1920.3708      0.9969611
   2786000  -647.56431      101.71216     -749.27647      268.67971     -1239.6546      1920.3708      0.9969611
   2787000  -634.82134      113.74416     -748.56551      300.46307     -893.63466      1920.3708      0.9969611
   2788000  -636.33683      112.32982     -748.66665      296.72698     -596.46769      1920.3708      0.9969611
   2789000  -621.98306      130.93801     -752.92108      345.88181     -516.56547      1920.3708      0.9969611
   2790000  -636.26415      103.62078     -739.88493      273.72146     -1787.9544      1920.3708      0.9969611
   2791000  -627.03235      108.92828     -735.96063      287.74158      566.93195      1920.3708      0.9969611
   2792000  -606.04669      112.06456     -718.11125      296.02628      969.23644      1920.3708      0.9969611
   2793000  -654.48956      103.2687      -757.75826      272.79141      2540.1205      1920.3708      0.9969611
   2794000  -642.09233      111.90574     -753.99807      295.60675      1945.4647      1920.3708      0.9969611
   2795000  -644.32708      112.48869     -756.81578      297.14666     -729.11734      1920.3708      0.9969611
   2796000  -676.08798      95.036039     -771.12402      251.04427     -685.23898      1920.3708      0.9969611
   2797000  -653.14224      104.26487     -757.40711      275.42287     -2199.2615      1920.3708      0.9969611
   2798000  -649.03661      109.42446     -758.46108      289.05228      1586.7697      1920.3708      0.9969611
   2799000  -629.95905      112.99223     -742.95129      298.4768       222.05574      1920.3708      0.9969611
   2800000  -636.42686      113.95721     -750.38407      301.02585      1313.1177      1920.3708      0.9969611
   2801000  -600.5957       122.83248     -723.42818      324.47048      2215.1731      1920.3708      0.9969611
   2802000  -627.75977      121.41995     -749.17972      320.73919      1449.5278      1920.3708      0.9969611
   2803000  -663.84454      103.81492     -767.65947      274.23429     -23.888591      1920.3708      0.9969611
   2804000  -625.80622      116.03265     -741.83887      306.50825     -956.26841      1920.3708      0.9969611
   2805000  -618.93517      120.70509     -739.64026      318.85085      286.89054      1920.3708      0.9969611
   2806000  -631.75292      123.99756     -755.75048      327.54812     -2436.7962      1920.3708      0.9969611
   2807000  -634.39077      114.00964     -748.40041      301.16435      797.67605      1920.3708      0.9969611
   2808000  -651.03202      100.99217     -752.02419      266.77779     -2173.8081      1920.3708      0.9969611
   2809000  -631.33984      116.846       -748.18585      308.65679     -2156.6133      1920.3708      0.9969611
   2810000  -648.57631      99.107585     -747.6839       261.79953      1761.6454      1920.3708      0.9969611
   2811000  -635.57121      111.20892     -746.78013      293.76604     -898.04607      1920.3708      0.9969611
   2812000  -641.76972      115.89188     -757.6616       306.13641     -1328.3118      1920.3708      0.9969611
   2813000  -638.3128       114.72055     -753.03336      303.04227     -832.41409      1920.3708      0.9969611
   2814000  -650.67853      101.98509     -752.66362      269.40066      631.1203       1920.3708      0.9969611
   2815000  -645.80805      120.10215     -765.9102       317.25813      401.20947      1920.3708      0.9969611
   2816000  -654.55659      111.00476     -765.56135      293.22676      49.140405      1920.3708      0.9969611
   2817000  -640.40306      124.58136     -764.98443      329.09028      607.6627       1920.3708      0.9969611
   2818000  -651.89301      114.76727     -766.66028      303.16568      443.0452       1920.3708      0.9969611
   2819000  -633.05802      124.11473     -757.17275      327.85763     -1351.7441      1920.3708      0.9969611
   2820000  -601.48617      128.59939     -730.08556      339.70417      161.22031      1920.3708      0.9969611
   2821000  -630.19723      117.82375     -748.02099      311.23959     -1069.6526      1920.3708      0.9969611
   2822000  -639.67533      115.98763     -755.66296      306.38933      1651.7491      1920.3708      0.9969611
   2823000  -639.0131       114.89557     -753.90867      303.50459      20.233886      1920.3708      0.9969611
   2824000  -616.74457      113.33957     -730.08413      299.3943       1020.4918      1920.3708      0.9969611
   2825000  -640.32564      110.16101     -750.48665      290.99792     -75.263227      1920.3708      0.9969611
   2826000  -629.75245      100.11016     -729.86261      264.44791     -286.02643      1920.3708      0.9969611
   2827000  -626.78344      115.61036     -742.3938       305.39276     -2972.7719      1920.3708      0.9969611
   2828000  -628.03437      113.08428     -741.11865      298.71995      3542.7155      1920.3708      0.9969611
   2829000  -641.44712      112.72518     -754.1723       297.77135      530.70989      1920.3708      0.9969611
   2830000  -650.3514       107.60343     -757.95483      284.24188      1600.208       1920.3708      0.9969611
   2831000  -626.21805      113.40753     -739.62558      299.57383     -2338.6188      1920.3708      0.9969611
   2832000  -636.21766      111.20152     -747.41918      293.7465       218.69049      1920.3708      0.9969611
   2833000  -638.75489      98.402757     -737.15765      259.93768      3064.8533      1920.3708      0.9969611
   2834000  -652.65891      119.94799     -772.60689      316.85089     -1062.7766      1920.3708      0.9969611
   2835000  -655.23804      98.696672     -753.93472      260.71408      3414.7377      1920.3708      0.9969611
   2836000  -636.93276      110.42926     -747.36202      291.70654     -93.47698       1920.3708      0.9969611
   2837000  -632.36245      119.83079     -752.19324      316.54131      244.19469      1920.3708      0.9969611
   2838000  -635.27712      106.79516     -742.07228      282.10679      213.97178      1920.3708      0.9969611
   2839000  -642.45672      99.191302     -741.64802      262.02068      993.10208      1920.3708      0.9969611
   2840000  -613.9111       120.56707     -734.47816      318.48623     -1473.7589      1920.3708      0.9969611
   2841000  -609.56438      103.70323     -713.26761      273.93925      1092.125       1920.3708      0.9969611
   2842000  -613.0904       114.26726     -727.35766      301.84487     -1509.7835      1920.3708      0.9969611
   2843000  -631.96894      116.37316     -748.3421       307.40775     -1446.6307      1920.3708      0.9969611
   2844000  -636.69777      105.35156     -742.04934      278.29344     -1840.478       1920.3708      0.9969611
   2845000  -611.77189      120.39449     -732.16638      318.03036     -597.04788      1920.3708      0.9969611
   2846000  -614.62112      127.98844     -742.60956      338.09032     -1958.2199      1920.3708      0.9969611
   2847000  -631.72736      112.63969     -744.36705      297.54552     -791.10687      1920.3708      0.9969611
   2848000  -640.9635       103.31427     -744.27777      272.91178     -1782.7719      1920.3708      0.9969611
   2849000  -634.33282      114.65055     -748.98337      302.85735      1565.4106      1920.3708      0.9969611
   2850000  -631.6231       108.43622     -740.05932      286.44176     -292.03014      1920.3708      0.9969611
   2851000  -632.65166      111.9439      -744.59556      295.70754     -0.21717013     1920.3708      0.9969611
   2852000  -631.11851      94.240166     -725.35867      248.94191     -859.96048      1920.3708      0.9969611
   2853000  -642.65657      118.78311     -761.43969      313.7738      -1281.035       1920.3708      0.9969611
   2854000  -637.37789      118.76221     -756.1401       313.71858     -2795.7545      1920.3708      0.9969611
   2855000  -659.44892      99.871857     -759.32078      263.81841      1243.0902      1920.3708      0.9969611
   2856000  -656.61481      107.48229     -764.0971       283.9219      -762.02935      1920.3708      0.9969611
   2857000  -617.47528      136.87136     -754.34664      361.55516      865.82986      1920.3708      0.9969611
   2858000  -638.27541      119.0888      -757.3642       314.58128     -1130.7655      1920.3708      0.9969611
   2859000  -615.93689      125.13257     -741.06946      330.54633      1181.5257      1920.3708      0.9969611
   2860000  -627.14433      129.09223     -756.23655      341.00604     -988.74051      1920.3708      0.9969611
   2861000  -632.20235      112.61289     -744.81524      297.47473     -1548.0771      1920.3708      0.9969611
   2862000  -604.88103      130.72498     -735.60602      345.31908     -3120.2052      1920.3708      0.9969611
   2863000  -642.73488      114.7111      -757.44598      303.01729     -1933.1585      1920.3708      0.9969611
   2864000  -644.25949      120.24072     -764.50021      317.62416      232.3226       1920.3708      0.9969611
   2865000  -619.04695      121.80162     -740.84858      321.7474       1562.0255      1920.3708      0.9969611
   2866000  -638.91417      108.62526     -747.53942      286.94112     -728.406        1920.3708      0.9969611
   2867000  -631.2366       114.97236     -746.20895      303.70743      123.48512      1920.3708      0.9969611
   2868000  -630.24489      110.16861     -740.4135       291.01799      156.17211      1920.3708      0.9969611
   2869000  -656.30001      106.7214      -763.02141      281.91195      1836.9401      1920.3708      0.9969611
   2870000  -656.10059      105.72806     -761.82866      279.28799      4693.7048      1920.3708      0.9969611
   2871000  -645.56754      115.72586     -761.2934       305.69786     -1234.4976      1920.3708      0.9969611
   2872000  -652.91408      107.4089      -760.32298      283.72804     -1995.2417      1920.3708      0.9969611
   2873000  -644.94914      106.16355     -751.11269      280.43835      1050.3428      1920.3708      0.9969611
   2874000  -631.49692      111.91502     -743.41194      295.63125      2590.6102      1920.3708      0.9969611
   2875000  -623.3387       100.67422     -724.01292      265.9379      -1166.1734      1920.3708      0.9969611
   2876000  -616.29175      113.58205     -729.8738       300.03483      289.97506      1920.3708      0.9969611
   2877000  -617.19871      110.85253     -728.05124      292.82462      1711.1217      1920.3708      0.9969611
   2878000  -635.67946      108.04594     -743.7254       285.41082      929.75604      1920.3708      0.9969611
   2879000  -625.87739      118.38187     -744.25926      312.71388      744.38017      1920.3708      0.9969611
   2880000  -627.3519       113.95805     -741.30995      301.02806     -607.75119      1920.3708      0.9969611
   2881000  -624.52485      114.27948     -738.80433      301.87713      493.78631      1920.3708      0.9969611
   2882000  -636.55425      119.04603     -755.60028      314.46831      1459.5535      1920.3708      0.9969611
   2883000  -614.69039      123.7177      -738.40808      326.80885     -31.63831       1920.3708      0.9969611
   2884000  -631.72249      112.19937     -743.92186      296.38239     -146.74183      1920.3708      0.9969611
   2885000  -600.27732      126.08368     -726.361        333.05875      2133.5855      1920.3708      0.9969611
   2886000  -627.90231      101.21719     -729.11949      267.3722      -185.29912      1920.3708      0.9969611
   2887000  -633.55519      111.13037     -744.68556      293.55855     -3025.0638      1920.3708      0.9969611
   2888000  -636.81466      106.99279     -743.80745      282.62885      2810.2157      1920.3708      0.9969611
   2889000  -659.69984      104.62623     -764.32606      276.3774       1906.3195      1920.3708      0.9969611
   2890000  -653.65019      120.41138     -774.06157      318.07499      571.15615      1920.3708      0.9969611
   2891000  -632.58784      119.9512      -752.53904      316.85937      434.46238      1920.3708      0.9969611
   2892000  -652.2036       110.3795      -762.5831       291.57507      946.19342      1920.3708      0.9969611
   2893000  -637.49712      112.90369     -750.40081      298.24289      1919.8306      1920.3708      0.9969611
   2894000  -622.86242      116.97364     -739.83605      308.99395      535.86331      1920.3708      0.9969611
   2895000  -647.10531      99.704794     -746.81011      263.3771      -1535.7344      1920.3708      0.9969611
   2896000  -639.11644      115.86514     -754.98158      306.06577     -1119.9977      1920.3708      0.9969611
   2897000  -633.57379      116.44505     -750.01884      307.59765      3614.7956      1920.3708      0.9969611
   2898000  -621.856        120.70704     -742.56303      318.85598     -1398.5154      1920.3708      0.9969611
   2899000  -639.04824      115.71138     -754.75961      305.65959      504.8658       1920.3708      0.9969611
   2900000  -631.96119      108.16473     -740.12592      285.7246      -3803.4123      1920.3708      0.9969611
   2901000  -628.02891      110.11463     -738.14354      290.87542     -1494.7791      1920.3708      0.9969611
   2902000  -650.45938      109.29458     -759.75396      288.7092       1093.1337      1920.3708      0.9969611
   2903000  -635.72141      113.80771     -749.52912      300.63094     -776.49385      1920.3708      0.9969611
   2904000  -619.08536      111.32488     -730.41024      294.07238      2574.7545      1920.3708      0.9969611
   2905000  -637.48699      111.1772      -748.66419      293.68226     -1862.6007      1920.3708      0.9969611
   2906000  -641.6055       111.79091     -753.39641      295.30342     -880.5103       1920.3708      0.9969611
   2907000  -611.29127      122.83473     -734.126        324.47644      3058.5929      1920.3708      0.9969611
   2908000  -644.45804      112.01755     -756.47559      295.90211      1704.7182      1920.3708      0.9969611
   2909000  -647.04448      115.79066     -762.83514      305.86904      2094.1583      1920.3708      0.9969611
   2910000  -603.10252      122.12757     -725.23009      322.60842     -1958.3884      1920.3708      0.9969611
   2911000  -647.71932      108.02768     -755.747        285.36259     -937.92079      1920.3708      0.9969611
   2912000  -631.00708      133.91193     -764.91901      353.73762     -1763.5793      1920.3708      0.9969611
   2913000  -638.85615      120.74026     -759.59641      318.94375      338.61281      1920.3708      0.9969611
   2914000  -642.66169      104.86956     -747.53126      277.0202      -34.717712      1920.3708      0.9969611
   2915000  -650.1797       108.99952     -759.17922      287.92976      2488.0683      1920.3708      0.9969611
   2916000  -633.71193      109.64673     -743.35865      289.63941      821.0734       1920.3708      0.9969611
   2917000  -640.70201      132.96085     -773.66286      351.22527      325.32939      1920.3708      0.9969611
   2918000  -637.50501      113.26336     -750.76837      299.19298     -2091.8517      1920.3708      0.9969611
   2919000  -631.44244      103.62796     -735.07041      273.74043      131.63197      1920.3708      0.9969611
   2920000  -616.9046       121.45208     -738.35669      320.82407      589.10761      1920.3708      0.9969611
   2921000  -627.38428      133.42268     -760.80696      352.44522      1790.6685      1920.3708      0.9969611
   2922000  -665.62838      102.26218     -767.89057      270.13263      321.58666      1920.3708      0.9969611
   2923000  -639.72828      120.99808     -760.72636      319.62478     -2712.7635      1920.3708      0.9969611
   2924000  -648.21937      92.52274      -740.74211      244.40521      1093.3251      1920.3708      0.9969611
   2925000  -622.26393      109.43322     -731.69715      289.07541     -179.24225      1920.3708      0.9969611
   2926000  -600.80469      126.19513     -726.99982      333.35316     -756.17462      1920.3708      0.9969611
   2927000  -623.15204      124.31658     -747.46862      328.39084     -1116.8832      1920.3708      0.9969611
   2928000  -620.9071       123.58297     -744.49007      326.45296     -349.17006      1920.3708      0.9969611
   2929000  -622.85228      109.33882     -732.1911       288.82604      1234.4085      1920.3708      0.9969611
   2930000  -648.37181      111.94287     -760.31469      295.70484      1094.5488      1920.3708      0.9969611
   2931000  -623.57258      117.57663     -741.14921      310.58679     -284.89334      1920.3708      0.9969611
   2932000  -662.64846      108.67339     -771.32184      287.06826      1047.58        1920.3708      0.9969611
   2933000  -630.82156      118.34117     -749.16273      312.60638      1064.1969      1920.3708      0.9969611
   2934000  -620.29743      138.12328     -758.42071      364.86218      1994.5016      1920.3708      0.9969611
   2935000  -657.62269      105.0037      -762.62639      277.37453      2225.6205      1920.3708      0.9969611
   2936000  -637.72855      109.79883     -747.52738      290.04119     -1255.655       1920.3708      0.9969611
   2937000  -617.66828      119.44313     -737.11142      315.5173      -810.80682      1920.3708      0.9969611
   2938000  -634.5916       112.33552     -746.92711      296.74203      664.1124       1920.3708      0.9969611
   2939000  -631.98617      114.70817     -746.69434      303.00956      3157.2517      1920.3708      0.9969611
   2940000  -685.41028      106.80819     -792.21847      282.14122      585.40311      1920.3708      0.9969611
   2941000  -624.02008      126.53227     -750.55235      334.24375     -1360.9541      1920.3708      0.9969611
   2942000  -624.9575       116.30454     -741.26204      307.22647     -379.77317      1920.3708      0.9969611
   2943000  -606.34993      115.98335     -722.33329      306.37804     -2088.0947      1920.3708      0.9969611
   2944000  -634.73889      118.81171     -753.5506       313.84934     -616.66267      1920.3708      0.9969611
   2945000  -630.18585      121.78375     -751.9696       321.70019      2636.4774      1920.3708      0.9969611
   2946000  -645.8829       109.18207     -755.06497      288.41198      160.16959      1920.3708      0.9969611
   2947000  -633.87685      119.18805     -753.0649       314.84347      732.08064      1920.3708      0.9969611
   2948000  -642.98697      100.13544     -743.12241      264.51468     -1884.5066      1920.3708      0.9969611
   2949000  -646.68933      102.64682     -749.33615      271.14867     -634.0187       1920.3708      0.9969611
   2950000  -613.3029       126.08623     -739.38914      333.0655      -516.95185      1920.3708      0.9969611
   2951000  -621.74116      121.11205     -742.85321      319.92585      1364.0785      1920.3708      0.9969611
   2952000  -595.36618      134.522       -729.88818      355.34916      1635.3923      1920.3708      0.9969611
   2953000  -620.28496      106.99223     -727.27719      282.62737     -1786.9382      1920.3708      0.9969611
   2954000  -662.51701      99.517953     -762.03497      262.88355      330.1869       1920.3708      0.9969611
   2955000  -647.56641      111.68494     -759.25135      295.02348     -1182.733       1920.3708      0.9969611
   2956000  -619.44396      120.93866     -740.38262      319.46782     -1311.7965      1920.3708      0.9969611
   2957000  -631.27872      101.68984     -732.96856      268.62074      90.638603      1920.3708      0.9969611
   2958000  -631.13003      102.85501     -733.98504      271.69861     -260.51685      1920.3708      0.9969611
   2959000  -637.26125      111.84822     -749.10947      295.4548      -3199.7476      1920.3708      0.9969611
   2960000  -628.73246      119.63568     -748.36814      316.02591     -584.34948      1920.3708      0.9969611
   2961000  -639.05062      95.408537     -734.45916      252.02824     -254.72647      1920.3708      0.9969611
   2962000  -639.32619      102.46203     -741.78821      270.66052     -177.09936      1920.3708      0.9969611
   2963000  -626.86699      123.35758     -750.22457      325.85757      1929.892       1920.3708      0.9969611
   2964000  -654.81541      112.04602     -766.86142      295.97729     -102.26664      1920.3708      0.9969611
   2965000  -643.7263       111.4479      -755.17419      294.39732      3007.2242      1920.3708      0.9969611
   2966000  -638.84625      121.05851     -759.90476      319.78442      1862.1277      1920.3708      0.9969611
   2967000  -618.83072      124.13351     -742.96423      327.90724      301.3417       1920.3708      0.9969611
   2968000  -617.47735      123.61616     -741.09351      326.54064      1581.8587      1920.3708      0.9969611
   2969000  -631.86953      108.41934     -740.28887      286.39718      668.20595      1920.3708      0.9969611
   2970000  -625.33428      118.75039     -744.08467      313.68737     -52.697057      1920.3708      0.9969611
   2971000  -612.9517       127.90285     -740.85455      337.86422      2198.559       1920.3708      0.9969611
   2972000  -636.34312      110.39409     -746.73721      291.61362      2223.4387      1920.3708      0.9969611
   2973000  -655.20414      100.56894     -755.77309      265.65981      190.74741      1920.3708      0.9969611
   2974000  -636.94218      118.37161     -755.31379      312.68679     -1852.501       1920.3708      0.9969611
   2975000  -614.90211      110.7482      -725.65031      292.54904      786.03589      1920.3708      0.9969611
   2976000  -617.87833      132.21746     -750.09579      349.26155      3824.5069      1920.3708      0.9969611
   2977000  -619.62486      115.45154     -735.0764       304.97322      1353.84        1920.3708      0.9969611
   2978000  -631.32926      113.76804     -745.0973       300.52614     -1915.1851      1920.3708      0.9969611
   2979000  -641.92863      112.92157     -754.8502       298.29012     -1253.606       1920.3708      0.9969611
   2980000  -626.92693      117.05912     -743.98606      309.21977     -445.21444      1920.3708      0.9969611
   2981000  -641.58531      120.07402     -761.65932      317.18381      1612.5991      1920.3708      0.9969611
   2982000  -650.30942      107.12828     -757.43771      282.98677     -449.23946      1920.3708      0.9969611
   2983000  -655.9994       117.478       -773.4774       310.32626     -73.931423      1920.3708      0.9969611
   2984000  -631.76785      115.66196     -747.42981      305.52906      423.28771      1920.3708      0.9969611
   2985000  -632.57072      110.11305     -742.68377      290.87122      213.95321      1920.3708      0.9969611
   2986000  -648.31035      125.49867     -773.80903      331.51342     -1002.5352      1920.3708      0.9969611
   2987000  -647.18019      127.11895     -774.29914      335.79349      474.79923      1920.3708      0.9969611
   2988000  -650.4199       110.34947     -760.76938      291.49576      2349.913       1920.3708      0.9969611
   2989000  -625.82475      110.97126     -736.79602      293.13826      775.46698      1920.3708      0.9969611
   2990000  -638.4019       105.61168     -744.01358      278.98056      1341.1252      1920.3708      0.9969611
   2991000  -633.75935      110.49247     -744.25182      291.8735       610.41388      1920.3708      0.9969611
   2992000  -635.12487      104.80196     -739.92684      276.84163     -1146.5542      1920.3708      0.9969611
   2993000  -635.71573      121.54156     -757.2573       321.06044      2583.1355      1920.3708      0.9969611
   2994000  -636.90144      115.11827     -752.01972      304.09288     -1106.629       1920.3708      0.9969611
   2995000  -651.86195      104.0777      -755.93965      274.92844     -1137.8512      1920.3708      0.9969611
   2996000  -641.80322      121.62128     -763.4245       321.27102     -1975.2989      1920.3708      0.9969611
   2997000  -648.78506      116.04602     -764.83108      306.54357     -311.34563      1920.3708      0.9969611
   2998000  -653.95823      111.404       -765.36223      294.28135      787.95666      1920.3708      0.9969611
   2999000  -634.8466       114.83433     -749.68094      303.34282     -1176.9788      1920.3708      0.9969611
   3000000  -647.587        105.64185     -753.22886      279.06026     -19.29586       1920.3708      0.9969611
Loop time of 1803.35 on 1 procs for 2000000 steps with 192 atoms

Performance: 95.821 ns/day, 0.250 hours/ns, 1109.044 timesteps/s
99.7% CPU use with 1 MPI tasks x 1 OpenMP threads

MPI task timing breakdown:
Section |  min time  |  avg time  |  max time  |%varavg| %total
---------------------------------------------------------------
Pair    | 1450.6     | 1450.6     | 1450.6     |   0.0 | 80.44
Bond    | 0.10842    | 0.10842    | 0.10842    |   0.0 |  0.01
Kspace  | 225.75     | 225.75     | 225.75     |   0.0 | 12.52
Neigh   | 73.186     | 73.186     | 73.186     |   0.0 |  4.06
Comm    | 26.992     | 26.992     | 26.992     |   0.0 |  1.50
Output  | 0.46155    | 0.46155    | 0.46155    |   0.0 |  0.03
Modify  | 21.711     | 21.711     | 21.711     |   0.0 |  1.20
Other   |            | 4.523      |            |       |  0.25

Nlocal:            192 ave         192 max         192 min
Histogram: 1 0 0 0 0 0 0 0 0 0
Nghost:           4659 ave        4659 max        4659 min
Histogram: 1 0 0 0 0 0 0 0 0 0
Neighs:          69232 ave       69232 max       69232 min
Histogram: 1 0 0 0 0 0 0 0 0 0

Total # of neighbors = 69232
Ave neighs/atom = 360.58333
Ave special neighs/atom = 2
Neighbor list builds = 57276
Dangerous builds = 0

# write data file
write_data data.after_prod.lmp
System init for write_data ...
PPPM initialization ...
  using 12-bit tables for long-range coulomb (src/kspace.cpp:342)
  G vector (1/distance) = 0.31260513
  grid = 12 12 12
  stencil order = 5
  estimated absolute RMS force accuracy = 0.0021455329
  estimated relative force accuracy = 6.4612085e-06
  using double precision FFTW3
  3d grid and FFT values/proc = 6859 1728
Generated 1 of 1 mixed pair_coeff terms from geometric mixing rule

# clean up
undump dPROD
unfix fTHERMO
unfix fMOM
unfix fSHAKE
Total wall time: 0:45:09
