LAMMPS (23 Jun 2022 - Update 4)
  using 1 OpenMP thread(s) per MPI task
# created by fftool

# System settings
units real
boundary p p p  # Periodic boundary conditions

# definition of atoms, bonds, angles
atom_style full
bond_style harmonic
angle_style harmonic

# definition of pair potentials
special_bonds lj/coul 0.0 0.0 0.5
pair_style lj/cut/coul/long 10.0 10.0
pair_modify mix geometric tail yes
kspace_style pppm 1.0e-5

# read data file
read_data data.lmp
Reading data file ...
  orthogonal box = (0 0 0) to (15.660478 15.660478 15.660478)
  1 by 1 by 2 MPI processor grid
  reading atoms ...
  384 atoms
  scanning bonds ...
  1 = max bonds/atom
  scanning angles ...
  1 = max angles/atom
  reading bonds ...
  256 bonds
  reading angles ...
  128 angles
Finding 1-2 1-3 1-4 neighbors ...
  special bond factors lj:    0        0        0.5
  special bond factors coul:  0        0        0.5
     2 = max # of 1-2 neighbors
     1 = max # of 1-3 neighbors
     1 = max # of 1-4 neighbors
     2 = max # of special neighbors
  special bonds CPU = 0.000 seconds
  read_data CPU = 0.006 seconds

# definition of LJ parameters
pair_coeff    1    1     0.000000     0.000000  # Hw Hw
pair_coeff    2    2     0.163049     3.182090  # Ow-Ow

############################################

# remove energy hotspots
minimize 1.0e-4 1.0e-6 100 1000
WARNING: Using 'neigh_modify every 1 delay 0 check yes' setting during minimization (src/min.cpp:187)
PPPM initialization ...
  using 12-bit tables for long-range coulomb (src/kspace.cpp:342)
  G vector (1/distance) = 0.31203871
  grid = 15 15 15
  stencil order = 5
  estimated absolute RMS force accuracy = 0.0022228175
  estimated relative force accuracy = 6.6939488e-06
  using double precision FFTW3
  3d grid and FFT values/proc = 6776 1800
Generated 1 of 1 mixed pair_coeff terms from geometric mixing rule
Neighbor list info ...
  update every 1 steps, delay 0 steps, check yes
  max neighbors/atom: 2000, page size: 100000
  master list distance cutoff = 12
  ghost atom cutoff = 12
  binsize = 6, bins = 3 3 3
  1 neighbor lists, perpetual/occasional/extra = 1 0 0
  (1) pair lj/cut/coul/long, perpetual
      attributes: half, newton on
      pair build: half/bin/newton
      stencil: half/bin/3d
      bin: standard
Per MPI rank memory allocation (min/avg/max) = 8.68 | 8.68 | 8.68 Mbytes
   Step          Temp          E_pair         E_mol          TotEng         Press
         0   0              61742.467      1.0236194e-06  61742.467      4438317.8
       100   0             -1927.3185      156.50379     -1770.8148     -7338.4326
Loop time of 0.24435 on 2 procs for 100 steps with 384 atoms

99.7% CPU use with 2 MPI tasks x 1 OpenMP threads

Minimization stats:
  Stopping criterion = max iterations
  Energy initial, next-to-last, final =
       61742.467333288  -1769.53371570159  -1770.81475176701
  Force two-norm initial, final = 467784.44 42.753722
  Force max component initial, final = 252164.97 10.312867
  Final line search alpha, max atom move = 0.0053780524 0.05546314
  Iterations, force evaluations = 100 176

MPI task timing breakdown:
Section |  min time  |  avg time  |  max time  |%varavg| %total
---------------------------------------------------------------
Pair    | 0.1813     | 0.1833     | 0.18529    |   0.5 | 75.01
Bond    | 0.00070033 | 0.00071865 | 0.00073696 |   0.0 |  0.29
Kspace  | 0.036199   | 0.038177   | 0.040154   |   1.0 | 15.62
Neigh   | 0.0074427  | 0.007446   | 0.0074493  |   0.0 |  3.05
Comm    | 0.013121   | 0.013129   | 0.013136   |   0.0 |  5.37
Output  | 1.2715e-05 | 1.5168e-05 | 1.762e-05  |   0.0 |  0.01
Modify  | 0          | 0          | 0          |   0.0 |  0.00
Other   |            | 0.001569   |            |       |  0.64

Nlocal:            192 ave         198 max         186 min
Histogram: 1 0 0 0 0 0 0 0 0 1
Nghost:           4795 ave        4815 max        4775 min
Histogram: 1 0 0 0 0 0 0 0 0 1
Neighs:          69246 ave       69422 max       69070 min
Histogram: 1 0 0 0 0 0 0 0 0 1

Total # of neighbors = 138492
Ave neighs/atom = 360.65625
Ave special neighs/atom = 2
Neighbor list builds = 5
Dangerous builds = 0
reset_timestep 0

# constrain water bonds and angles
fix fSHAKE all shake 0.0001 20 0 b 1 a 1
       0 = # of size 2 clusters
       0 = # of size 3 clusters
       0 = # of size 4 clusters
     128 = # of frozen angles
  find clusters CPU = 0.000 seconds

# remove Center of Mass movement every 100 steps
fix fMOM all momentum 100 linear 1 1 1

# define the neighbor list
neighbor 2.0 bin

# IMPORTANT: timestep and temperature and pressure
timestep 1.0
variable vTK equal 298.15
variable vPBAR equal 1.0

# randomize velocities
velocity all create ${vTK} 28810
velocity all create 298.15 28810

# thermostat (solving the ODE)
fix fTHERMO all nvt temp ${vTK} ${vTK} 100
fix fTHERMO all nvt temp 298.15 ${vTK} 100
fix fTHERMO all nvt temp 298.15 298.15 100

# print settings
thermo 1000
thermo_style custom step etotal ke pe temp press vol density
# trajectory output
dump dEQUI all custom 1000 equi.lammpstrj id element xu yu zu
dump_modify dEQUI element H O sort id

# equilibration
# 1 ns
run 1000000
PPPM initialization ...
  using 12-bit tables for long-range coulomb (src/kspace.cpp:342)
  G vector (1/distance) = 0.31203871
  grid = 15 15 15
  stencil order = 5
  estimated absolute RMS force accuracy = 0.0022228175
  estimated relative force accuracy = 6.6939488e-06
  using double precision FFTW3
  3d grid and FFT values/proc = 6776 1800
Generated 1 of 1 mixed pair_coeff terms from geometric mixing rule
Per MPI rank memory allocation (min/avg/max) = 9.718 | 9.718 | 9.718 Mbytes
   Step         TotEng         KinEng         PotEng          Temp          Press          Volume        Density
         0  -1700.6928      226.62577     -1927.3185      298.15        -735.68659      3840.7412      0.99696119
      1000  -1239.4571      232.51949     -1471.9766      305.90381      2509.8918      3840.7412      0.99696119
      2000  -1260.5258      230.62367     -1491.1494      303.40966     -243.47089      3840.7412      0.99696119
      3000  -1263.021       216.84523     -1479.8662      285.28267      2568.1624      3840.7412      0.99696119
      4000  -1268.405       222.81204     -1491.2171      293.13264     -161.05964      3840.7412      0.99696119
      5000  -1270.3442      228.61652     -1498.9608      300.76904     -1178.4536      3840.7412      0.99696119
      6000  -1281.9496      214.86555     -1496.8151      282.67819     -743.94249      3840.7412      0.99696119
      7000  -1279.852       232.7548      -1512.6068      306.21337     -143.79083      3840.7412      0.99696119
      8000  -1264.7379      226.79776     -1491.5357      298.37627     -345.02707      3840.7412      0.99696119
      9000  -1250.2256      227.72706     -1477.9527      299.59886      2252.9651      3840.7412      0.99696119
     10000  -1267.5553      224.48027     -1492.0356      295.32737     -2335.7566      3840.7412      0.99696119
     11000  -1259.4861      240.0817      -1499.5678      315.85268      458.74519      3840.7412      0.99696119
     12000  -1235.1943      246.70529     -1481.8996      324.56671      380.98216      3840.7412      0.99696119
     13000  -1247.729       225.01077     -1472.7398      296.02529      572.57463      3840.7412      0.99696119
     14000  -1272.1921      239.1027      -1511.2948      314.56471     -136.03848      3840.7412      0.99696119
     15000  -1279.6957      214.96535     -1494.661       282.8095      -806.24758      3840.7412      0.99696119
     16000  -1280.0171      218.0812      -1498.0983      286.90871     -1164.6463      3840.7412      0.99696119
     17000  -1275.5292      222.67781     -1498.2071      292.95604      605.34356      3840.7412      0.99696119
     18000  -1214.9377      240.16401     -1455.1017      315.96097      86.547017      3840.7412      0.99696119
     19000  -1242.1546      240.18658     -1482.3412      315.99067     -396.18368      3840.7412      0.99696119
     20000  -1255.4911      237.63935     -1493.1305      312.63952      1237.6359      3840.7412      0.99696119
     21000  -1267.2493      213.61809     -1480.8674      281.03703      1595.6342      3840.7412      0.99696119
     22000  -1272.6171      213.21779     -1485.8349      280.51039     -563.38214      3840.7412      0.99696119
     23000  -1269.3912      212.29355     -1481.6847      279.29446     -145.54455      3840.7412      0.99696119
     24000  -1228.6136      237.17787     -1465.7915      312.03239     -911.80421      3840.7412      0.99696119
     25000  -1243.2941      233.83739     -1477.1315      307.63765     -616.09505      3840.7412      0.99696119
     26000  -1289.0687      205.39131     -1494.46        270.21384     -2491.9963      3840.7412      0.99696119
     27000  -1274.0514      225.76538     -1499.8168      297.01806     -1183.2427      3840.7412      0.99696119
     28000  -1266.8436      227.72749     -1494.571       299.59943      2205.0596      3840.7412      0.99696119
     29000  -1217.3773      245.63398     -1463.0113      323.1573      -522.57867      3840.7412      0.99696119
     30000  -1282.107       218.3684      -1500.4754      287.28656      392.80627      3840.7412      0.99696119
     31000  -1239.9774      237.23478     -1477.2122      312.10726      402.47695      3840.7412      0.99696119
     32000  -1253.0168      219.9935      -1473.0103      289.42455      406.11678      3840.7412      0.99696119
     33000  -1285.4207      215.63193     -1501.0526      283.68645      687.1681       3840.7412      0.99696119
     34000  -1254.9118      227.4309      -1482.3427      299.20923      875.60631      3840.7412      0.99696119
     35000  -1275.7268      218.10032     -1493.8271      286.93387     -902.38238      3840.7412      0.99696119
     36000  -1239.4728      238.66811     -1478.1409      313.99296     -781.95629      3840.7412      0.99696119
     37000  -1244.6042      210.5517      -1455.1559      277.00287      2252.287       3840.7412      0.99696119
     38000  -1260.1488      202.74634     -1462.8952      266.7341       2591.4481      3840.7412      0.99696119
     39000  -1222.0558      242.52719     -1464.5829      319.06999     -680.57239      3840.7412      0.99696119
     40000  -1242.5712      231.17936     -1473.7505      304.14073      81.874741      3840.7412      0.99696119
     41000  -1264.9626      228.44285     -1493.4054      300.54055     -1003.8064      3840.7412      0.99696119
     42000  -1279.1514      231.11256     -1510.2639      304.05284      856.78389      3840.7412      0.99696119
     43000  -1242.9324      231.8633      -1474.7957      305.04052     -507.67786      3840.7412      0.99696119
     44000  -1271.5183      224.9203      -1496.4386      295.90627      1593.5244      3840.7412      0.99696119
     45000  -1234.8081      224.15516     -1458.9633      294.89965      400.67583      3840.7412      0.99696119
     46000  -1255.1505      210.67052     -1465.821       277.15919     -932.57842      3840.7412      0.99696119
     47000  -1270.8922      227.85334     -1498.7456      299.76499     -1301.896       3840.7412      0.99696119
     48000  -1236.7248      232.02621     -1468.7511      305.25484      417.10451      3840.7412      0.99696119
     49000  -1270.3911      222.18373     -1492.5748      292.30602      473.64722      3840.7412      0.99696119
     50000  -1225.1107      217.35646     -1442.4672      285.95525      2007.0491      3840.7412      0.99696119
     51000  -1248.0827      224.24434     -1472.327       295.01697     -2099.4966      3840.7412      0.99696119
     52000  -1233.089       241.46901     -1474.558       317.67783      1174.3647      3840.7412      0.99696119
     53000  -1278.7154      214.91808     -1493.6335      282.7473      -789.13308      3840.7412      0.99696119
     54000  -1234.4627      232.27308     -1466.7358      305.57963     -1116.0336      3840.7412      0.99696119
     55000  -1254.0555      227.43273     -1481.4883      299.21164      456.65574      3840.7412      0.99696119
     56000  -1237.7351      217.95374     -1455.6889      286.74103     -12.451521      3840.7412      0.99696119
     57000  -1242.8666      239.97551     -1482.8421      315.71298      269.45658      3840.7412      0.99696119
     58000  -1279.9622      234.46736     -1514.4296      308.46643      1254.7791      3840.7412      0.99696119
     59000  -1236.7385      236.84729     -1473.5857      311.59748      2562.6714      3840.7412      0.99696119
     60000  -1267.1524      227.89965     -1495.052       299.82593     -199.36349      3840.7412      0.99696119
     61000  -1229.8173      237.42411     -1467.2414      312.35635     -1108.9009      3840.7412      0.99696119
     62000  -1243.0531      225.39047     -1468.4435      296.52483     -319.63753      3840.7412      0.99696119
     63000  -1222.2571      220.24455     -1442.5017      289.75483      277.77707      3840.7412      0.99696119
     64000  -1239.278       223.62174     -1462.8997      294.19788     -234.51336      3840.7412      0.99696119
     65000  -1282.8231      217.36555     -1500.1886      285.9672       220.45858      3840.7412      0.99696119
     66000  -1261.1586      214.02261     -1475.1812      281.56922      247.40999      3840.7412      0.99696119
     67000  -1250.9685      230.33353     -1481.302       303.02795     -1083.7115      3840.7412      0.99696119
     68000  -1270.6949      231.55014     -1502.245       304.62852      1369.9032      3840.7412      0.99696119
     69000  -1221.2288      239.04728     -1460.276       314.4918       1743.9263      3840.7412      0.99696119
     70000  -1223.675       241.41511     -1465.0901      317.60693      459.80776      3840.7412      0.99696119
     71000  -1254.0344      227.48492     -1481.5194      299.28031      1047.3205      3840.7412      0.99696119
     72000  -1238.4815      231.24235     -1469.7239      304.2236       1191.2064      3840.7412      0.99696119
     73000  -1215.8597      218.66344     -1434.5232      287.67471      920.36816      3840.7412      0.99696119
     74000  -1245.9443      233.1269      -1479.0712      306.70292     -1327.0534      3840.7412      0.99696119
     75000  -1238.6736      243.49609     -1482.1697      320.34467     -1776.4686      3840.7412      0.99696119
     76000  -1247.5807      202.76392     -1450.3446      266.75723      1364.9506      3840.7412      0.99696119
     77000  -1252.6301      229.3748      -1482.0049      301.76664     -3.780937       3840.7412      0.99696119
     78000  -1268.9616      242.18913     -1511.1507      318.62523     -779.2586       3840.7412      0.99696119
     79000  -1300.9528      236.64523     -1537.5981      311.33165      150.23579      3840.7412      0.99696119
     80000  -1270.8041      229.01128     -1499.8154      301.28838      1084.0561      3840.7412      0.99696119
     81000  -1256.5576      222.11481     -1478.6724      292.21535      431.61286      3840.7412      0.99696119
     82000  -1276.581       201.2502      -1477.8312      264.76577     -1033.6573      3840.7412      0.99696119
     83000  -1256.9436      230.01439     -1486.958       302.60809      977.37348      3840.7412      0.99696119
     84000  -1217.6086      244.8302      -1462.4388      322.09984      569.23148      3840.7412      0.99696119
     85000  -1257.7957      239.00489     -1496.8006      314.43604      980.9832       3840.7412      0.99696119
     86000  -1307.3932      220.82202     -1528.2152      290.51455     -506.08237      3840.7412      0.99696119
     87000  -1230.9468      228.59203     -1459.5389      300.73682      319.00953      3840.7412      0.99696119
     88000  -1277.0301      213.68214     -1490.7122      281.12129     -1011.3884      3840.7412      0.99696119
     89000  -1237.4173      246.22804     -1483.6453      323.93885      534.95442      3840.7412      0.99696119
     90000  -1289.9491      225.48163     -1515.4307      296.64476      521.81412      3840.7412      0.99696119
     91000  -1233.8089      245.54299     -1479.3519      323.03758      1583.206       3840.7412      0.99696119
     92000  -1273.5942      203.44506     -1477.0393      267.65334     -1114.915       3840.7412      0.99696119
     93000  -1255.7476      216.94527     -1472.6929      285.41428      2411.4594      3840.7412      0.99696119
     94000  -1287.695       225.08172     -1512.7767      296.11864      857.33101      3840.7412      0.99696119
     95000  -1266.6997      215.94879     -1482.6485      284.10331      1013.1148      3840.7412      0.99696119
     96000  -1242.2436      235.11691     -1477.3605      309.32099      217.72133      3840.7412      0.99696119
     97000  -1262.9593      215.67494     -1478.6342      283.74303      300.17219      3840.7412      0.99696119
     98000  -1261.6056      231.74035     -1493.3459      304.87876      2002.0949      3840.7412      0.99696119
     99000  -1262.8913      217.29159     -1480.1829      285.8699      -895.5867       3840.7412      0.99696119
    100000  -1234.6657      223.0349      -1457.7006      293.42583      936.37865      3840.7412      0.99696119
    101000  -1296.8862      210.71385     -1507.6001      277.2162      -20.182892      3840.7412      0.99696119
    102000  -1272.5191      218.8355      -1491.3546      287.90108     -10.048528      3840.7412      0.99696119
    103000  -1293.3834      219.37215     -1512.7555      288.6071       1924.3973      3840.7412      0.99696119
    104000  -1259.9587      219.85842     -1479.8171      289.24683      1292.9639      3840.7412      0.99696119
    105000  -1277.6582      217.8736      -1495.5318      286.6356      -1795.0371      3840.7412      0.99696119
    106000  -1291.018       212.79695     -1503.8149      279.95673     -2056.0073      3840.7412      0.99696119
    107000  -1270.8789      217.28481     -1488.1637      285.86098     -77.989793      3840.7412      0.99696119
    108000  -1285.1491      214.01784     -1499.1669      281.56294      656.16729      3840.7412      0.99696119
    109000  -1275.2834      217.04455     -1492.328       285.5449       427.8741       3840.7412      0.99696119
    110000  -1293.8208      223.76093     -1517.5818      294.381        1281.3176      3840.7412      0.99696119
    111000  -1225.133       226.61943     -1451.7525      298.14166     -446.79585      3840.7412      0.99696119
    112000  -1268.7262      232.68066     -1501.4068      306.11584      49.282114      3840.7412      0.99696119
    113000  -1262.5789      231.538       -1494.1169      304.61256      509.64889      3840.7412      0.99696119
    114000  -1238.918       227.22002     -1466.138       298.9318       518.45636      3840.7412      0.99696119
    115000  -1235.6942      216.73108     -1452.4253      285.1325       631.26002      3840.7412      0.99696119
    116000  -1266.824       231.20524     -1498.0292      304.17478     -189.53967      3840.7412      0.99696119
    117000  -1252.9427      234.76159     -1487.7042      308.85352     -561.43139      3840.7412      0.99696119
    118000  -1291.6127      210.65129     -1502.264       277.13389      305.73879      3840.7412      0.99696119
    119000  -1252.2183      227.99938     -1480.2177      299.95713      3187.8627      3840.7412      0.99696119
    120000  -1271.6663      220.09696     -1491.7633      289.56066     -1643.4581      3840.7412      0.99696119
    121000  -1256.626       223.1104      -1479.7364      293.52516     -1226.7957      3840.7412      0.99696119
    122000  -1261.5095      227.2938      -1488.8033      299.02886      280.8712       3840.7412      0.99696119
    123000  -1280.636       210.52832     -1491.1643      276.97211     -1368.6672      3840.7412      0.99696119
    124000  -1244.0564      229.81627     -1473.8727      302.34744      813.0242       3840.7412      0.99696119
    125000  -1252.257       215.21603     -1467.4731      283.13929      1887.9968      3840.7412      0.99696119
    126000  -1231.7633      232.77182     -1464.5351      306.23577     -426.09509      3840.7412      0.99696119
    127000  -1244.3859      241.44362     -1485.8295      317.64444     -164.39013      3840.7412      0.99696119
    128000  -1243.257       230.24906     -1473.5061      302.91682     -1278.9932      3840.7412      0.99696119
    129000  -1250.8241      223.46743     -1474.2915      293.99487     -1038.858       3840.7412      0.99696119
    130000  -1264.7436      231.6601      -1496.4037      304.77318      2.7687711      3840.7412      0.99696119
    131000  -1268.9068      219.30886     -1488.2157      288.52383     -114.85539      3840.7412      0.99696119
    132000  -1251.6509      231.49236     -1483.1432      304.5525       2927.9714      3840.7412      0.99696119
    133000  -1253.9314      222.78325     -1476.7146      293.09476     -1603.5867      3840.7412      0.99696119
    134000  -1257.0245      224.5915      -1481.616       295.4737       796.93728      3840.7412      0.99696119
    135000  -1241.4291      201.19347     -1442.6226      264.69114     -765.88117      3840.7412      0.99696119
    136000  -1278.0594      230.27731     -1508.3367      302.95398     -1533.7032      3840.7412      0.99696119
    137000  -1259.1215      226.07211     -1485.1936      297.4216       733.45699      3840.7412      0.99696119
    138000  -1273.1493      235.6062      -1508.7555      309.9647      -38.13007       3840.7412      0.99696119
    139000  -1240.5414      225.04565     -1465.5871      296.07119      1437.2328      3840.7412      0.99696119
    140000  -1251.4735      230.07044     -1481.5439      302.68183     -682.09703      3840.7412      0.99696119
    141000  -1267.1382      205.59546     -1472.7337      270.48242      1463.0677      3840.7412      0.99696119
    142000  -1256.8241      225.66671     -1482.4908      296.88826      860.4855       3840.7412      0.99696119
    143000  -1255.6697      238.91034     -1494.5801      314.31164     -707.38457      3840.7412      0.99696119
    144000  -1268.5822      212.60324     -1481.1855      279.70189      1969.4751      3840.7412      0.99696119
    145000  -1250.2827      213.35655     -1463.6392      280.69294     -1193.9063      3840.7412      0.99696119
    146000  -1253.8045      212.49168     -1466.2962      279.55511     -704.30242      3840.7412      0.99696119
    147000  -1235.9067      232.08472     -1467.9914      305.33182      270.82381      3840.7412      0.99696119
    148000  -1241.96        218.42576     -1460.3858      287.36203      2809.0266      3840.7412      0.99696119
    149000  -1236.0938      245.3427      -1481.4365      322.77409      297.34139      3840.7412      0.99696119
    150000  -1243.744       235.1259      -1478.8699      309.33281     -839.14451      3840.7412      0.99696119
    151000  -1250.8702      224.39206     -1475.2623      295.21131      2039.5703      3840.7412      0.99696119
    152000  -1291.1358      201.84457     -1492.9804      265.54772     -466.73503      3840.7412      0.99696119
    153000  -1280.6735      201.83786     -1482.5114      265.5389      -3663.3809      3840.7412      0.99696119
    154000  -1243.6975      237.27223     -1480.9698      312.15653      750.55504      3840.7412      0.99696119
    155000  -1218.0939      249.37592     -1467.4698      328.08021     -801.84025      3840.7412      0.99696119
    156000  -1240.8121      235.60842     -1476.4205      309.96762      124.99424      3840.7412      0.99696119
    157000  -1273.9816      210.41232     -1484.3939      276.81951      93.389326      3840.7412      0.99696119
    158000  -1275.8429      212.67865     -1488.5215      279.80109     -906.28969      3840.7412      0.99696119
    159000  -1228.1797      218.45866     -1446.6384      287.4053       623.05849      3840.7412      0.99696119
    160000  -1232.9311      219.70375     -1452.6348      289.04335     -190.26262      3840.7412      0.99696119
    161000  -1271.1541      212.06902     -1483.2231      278.99907      1376.4615      3840.7412      0.99696119
    162000  -1232.6968      233.40568     -1466.1025      307.06968      1631.0475      3840.7412      0.99696119
    163000  -1240.8425      226.62527     -1467.4678      298.14934      1925.7232      3840.7412      0.99696119
    164000  -1219.7049      236.2696      -1455.9745      310.83747      486.66687      3840.7412      0.99696119
    165000  -1251.942       227.85447     -1479.7964      299.76648     -510.29649      3840.7412      0.99696119
    166000  -1267.8708      228.1646      -1496.0354      300.1745      -1646.4122      3840.7412      0.99696119
    167000  -1232.7304      238.07488     -1470.8053      313.2125      -284.25716      3840.7412      0.99696119
    168000  -1304.0389      218.66013     -1522.6991      287.67037     -858.12384      3840.7412      0.99696119
    169000  -1283.9531      232.74341     -1516.6965      306.1984      -56.321562      3840.7412      0.99696119
    170000  -1252.8996      243.55006     -1496.4497      320.41568     -15.281076      3840.7412      0.99696119
    171000  -1230.7201      234.43613     -1465.1562      308.42534      1042.9845      3840.7412      0.99696119
    172000  -1259.947       231.21861     -1491.1656      304.19236     -825.08041      3840.7412      0.99696119
    173000  -1300.8068      202.5518      -1503.3586      266.47816      1756.2566      3840.7412      0.99696119
    174000  -1251.3208      246.34674     -1497.6675      324.09501     -358.42464      3840.7412      0.99696119
    175000  -1279.3578      214.71874     -1494.0766      282.48505     -80.630489      3840.7412      0.99696119
    176000  -1236.168       236.94925     -1473.1173      311.73163      126.11496      3840.7412      0.99696119
    177000  -1306.72        225.74856     -1532.4686      296.99593     -1169.0868      3840.7412      0.99696119
    178000  -1248.6968      225.66957     -1474.3663      296.89202     -162.49587      3840.7412      0.99696119
    179000  -1278.2182      209.27647     -1487.4947      275.32517     -441.27423      3840.7412      0.99696119
    180000  -1233.2496      237.93977     -1471.1893      313.03476     -1163.239       3840.7412      0.99696119
    181000  -1247.2858      239.11401     -1486.3998      314.5796       1902.0329      3840.7412      0.99696119
    182000  -1301.6214      212.48166     -1514.1031      279.54194     -897.27159      3840.7412      0.99696119
    183000  -1256.3879      223.02195     -1479.4098      293.4088       2385.7143      3840.7412      0.99696119
    184000  -1283.898       224.86873     -1508.7667      295.83842     -334.52181      3840.7412      0.99696119
    185000  -1267.9549      214.29949     -1482.2544      281.93348      858.62569      3840.7412      0.99696119
    186000  -1282.256       215.97754     -1498.2335      284.14113     -74.514854      3840.7412      0.99696119
    187000  -1235.2209      243.65169     -1478.8726      320.54938      5.512341       3840.7412      0.99696119
    188000  -1260.2303      225.12954     -1485.3599      296.18155     -1539.0752      3840.7412      0.99696119
    189000  -1276.1769      209.41735     -1485.5943      275.51052      1517.1643      3840.7412      0.99696119
    190000  -1238.3894      223.62204     -1462.0114      294.19827      1070.0119      3840.7412      0.99696119
    191000  -1258.5096      207.15332     -1465.6629      272.53194     -294.10042      3840.7412      0.99696119
    192000  -1255.6762      234.15735     -1489.8335      308.05858      193.51179      3840.7412      0.99696119
    193000  -1311.3503      203.60621     -1514.9565      267.86535     -1330.1912      3840.7412      0.99696119
    194000  -1281.3302      226.14362     -1507.4738      297.51568      306.24987      3840.7412      0.99696119
    195000  -1271.5056      236.70549     -1508.2111      311.41093     -315.56112      3840.7412      0.99696119
    196000  -1241.0512      234.04046     -1475.0916      307.9048      -1187.7815      3840.7412      0.99696119
    197000  -1270.2118      230.92716     -1501.139       303.80893      1877.499       3840.7412      0.99696119
    198000  -1282.4879      228.13571     -1510.6236      300.13648     -1001.7255      3840.7412      0.99696119
    199000  -1261.4805      232.88469     -1494.3651      306.38427     -396.22146      3840.7412      0.99696119
    200000  -1261.4414      208.12997     -1469.5714      273.81684      1372.319       3840.7412      0.99696119
    201000  -1262.2642      232.17138     -1494.4356      305.44583     -186.93761      3840.7412      0.99696119
    202000  -1234.8568      221.95798     -1456.8148      292.00903      811.03494      3840.7412      0.99696119
    203000  -1298.0978      203.26481     -1501.3626      267.4162       1111.7747      3840.7412      0.99696119
    204000  -1231.8546      252.68232     -1484.5369      332.43012     -654.02137      3840.7412      0.99696119
    205000  -1265.4369      230.19066     -1495.6275      302.83998     -137.88535      3840.7412      0.99696119
    206000  -1282.4219      214.05189     -1496.4738      281.60774      2095.5733      3840.7412      0.99696119
    207000  -1242.7495      232.046       -1474.7955      305.28088      27.83495       3840.7412      0.99696119
    208000  -1230.2428      241.41937     -1471.6622      317.61253      1127.1214      3840.7412      0.99696119
    209000  -1258.3503      228.18214     -1486.5324      300.19756     -435.1061       3840.7412      0.99696119
    210000  -1245.4517      231.08107     -1476.5328      304.01141     -1081.687       3840.7412      0.99696119
    211000  -1285.6026      215.67988     -1501.2825      283.74953      1054.8649      3840.7412      0.99696119
    212000  -1245.8358      241.22002     -1487.0558      317.35026      1983.2348      3840.7412      0.99696119
    213000  -1280.2215      226.97435     -1507.1959      298.60859      1390.2392      3840.7412      0.99696119
    214000  -1248.1462      234.48949     -1482.6357      308.49555      1289.8212      3840.7412      0.99696119
    215000  -1259.3815      221.09983     -1480.4813      290.88004     -525.92538      3840.7412      0.99696119
    216000  -1290.4291      205.95005     -1496.3791      270.94892     -465.37293      3840.7412      0.99696119
    217000  -1248.9539      238.42565     -1487.3795      313.67398      1594.16        3840.7412      0.99696119
    218000  -1258.1022      228.82476     -1486.927       301.043        44.613898      3840.7412      0.99696119
    219000  -1250.671       231.11427     -1481.7853      304.05509     -1318.6299      3840.7412      0.99696119
    220000  -1241.8851      229.52437     -1471.4094      301.96341      1218.3072      3840.7412      0.99696119
    221000  -1287.7151      223.36792     -1511.083       293.86396      262.63372      3840.7412      0.99696119
    222000  -1271.0463      225.2399      -1496.2862      296.32674     -489.98865      3840.7412      0.99696119
    223000  -1280.527       211.04491     -1491.572       277.65174     -508.00056      3840.7412      0.99696119
    224000  -1289.7364      203.26966     -1493.0061      267.42259      601.78836      3840.7412      0.99696119
    225000  -1248.3089      243.29749     -1491.6064      320.0834      -314.85409      3840.7412      0.99696119
    226000  -1232.9733      234.72259     -1467.6959      308.80222     -120.71123      3840.7412      0.99696119
    227000  -1265.5514      211.05886     -1476.6103      277.67009     -126.36657      3840.7412      0.99696119
    228000  -1249.9043      250.41316     -1500.3174      329.44481      503.44326      3840.7412      0.99696119
    229000  -1279.4576      228.92963     -1508.3873      301.18097     -2063.5489      3840.7412      0.99696119
    230000  -1261.0551      214.42746     -1475.4826      282.10184      734.23812      3840.7412      0.99696119
    231000  -1258.1215      224.88697     -1483.0085      295.86242      781.12758      3840.7412      0.99696119
    232000  -1204.8236      248.576       -1453.3996      327.02784      470.61802      3840.7412      0.99696119
    233000  -1243.6499      225.32798     -1468.9779      296.44261     -224.71748      3840.7412      0.99696119
    234000  -1261.9762      228.99296     -1490.9691      301.26428      529.96373      3840.7412      0.99696119
    235000  -1248.0393      214.99169     -1463.031       282.84414      1634.837       3840.7412      0.99696119
    236000  -1260.7326      221.71409     -1482.4467      291.68816      1038.089       3840.7412      0.99696119
    237000  -1283.8219      223.7532      -1507.5751      294.37084     -242.74708      3840.7412      0.99696119
    238000  -1257.4932      219.93588     -1477.4291      289.34874     -1006.3484      3840.7412      0.99696119
    239000  -1254.2656      248.34435     -1502.6099      326.72307      1547.965       3840.7412      0.99696119
    240000  -1229.6717      230.5316      -1460.2033      303.28852      744.88761      3840.7412      0.99696119
    241000  -1278.3447      219.04935     -1497.394       288.18243      37.929316      3840.7412      0.99696119
    242000  -1253.7176      227.80242     -1481.52        299.698        17.561137      3840.7412      0.99696119
    243000  -1257.7926      229.6395      -1487.4321      302.11488     -821.26211      3840.7412      0.99696119
    244000  -1262.8162      233.9484      -1496.7646      307.78368      595.92722      3840.7412      0.99696119
    245000  -1260.8023      234.20717     -1495.0095      308.12412      777.31869      3840.7412      0.99696119
    246000  -1282.6774      211.72179     -1494.3992      278.54225      2104.9161      3840.7412      0.99696119
    247000  -1268.258       219.89812     -1488.1561      289.29907      718.87893      3840.7412      0.99696119
    248000  -1247.029       253.38624     -1500.4153      333.35621      431.29793      3840.7412      0.99696119
    249000  -1266.275       222.55127     -1488.8263      292.78957     -803.10289      3840.7412      0.99696119
    250000  -1235.3839      251.59443     -1486.9783      330.9989       1708.048       3840.7412      0.99696119
    251000  -1263.2972      221.98548     -1485.2827      292.04521      169.12225      3840.7412      0.99696119
    252000  -1261.516       208.77906     -1470.2951      274.67078     -1394.521       3840.7412      0.99696119
    253000  -1257.9351      221.19514     -1479.1302      291.00544      2178.1243      3840.7412      0.99696119
    254000  -1257.5633      210.54237     -1468.1057      276.9906       2078.9576      3840.7412      0.99696119
    255000  -1208.6017      245.8877      -1454.4894      323.49109      195.70779      3840.7412      0.99696119
    256000  -1247.5621      237.10938     -1484.6715      311.94229      1738.851       3840.7412      0.99696119
    257000  -1275.5852      225.7875      -1501.3727      297.04716      618.34903      3840.7412      0.99696119
    258000  -1322.1949      202.04399     -1524.2389      265.81008      2305.2881      3840.7412      0.99696119
    259000  -1255.4417      247.90962     -1503.3514      326.15114     -427.16076      3840.7412      0.99696119
    260000  -1272.1211      218.61484     -1490.7359      287.61078     -996.73908      3840.7412      0.99696119
    261000  -1238.0475      225.45255     -1463.5         296.6065      -68.772681      3840.7412      0.99696119
    262000  -1271.2723      217.95066     -1489.223       286.73698     -692.75982      3840.7412      0.99696119
    263000  -1241.3823      219.74872     -1461.131       289.10251     -776.09405      3840.7412      0.99696119
    264000  -1304.7293      215.55414     -1520.2834      283.5841       1191.8965      3840.7412      0.99696119
    265000  -1235.6897      220.10761     -1455.7973      289.57467     -550.22385      3840.7412      0.99696119
    266000  -1258.092       231.10172     -1489.1937      304.03857      1402.2625      3840.7412      0.99696119
    267000  -1261.5565      224.85951     -1486.416       295.8263      -1292.0192      3840.7412      0.99696119
    268000  -1292.6491      208.97367     -1501.6227      274.92681      235.25247      3840.7412      0.99696119
    269000  -1248.5933      227.35722     -1475.9505      299.1123       1445.706       3840.7412      0.99696119
    270000  -1289.0421      246.93893     -1535.981       324.8741      -724.35734      3840.7412      0.99696119
    271000  -1247.6711      224.73977     -1472.4109      295.66877     -1244.5948      3840.7412      0.99696119
    272000  -1262.48        231.5899      -1494.0699      304.68083     -787.70714      3840.7412      0.99696119
    273000  -1262.1387      216.65799     -1478.7967      285.03633      694.5626       3840.7412      0.99696119
    274000  -1276.1114      228.64039     -1504.7518      300.80044      348.81075      3840.7412      0.99696119
    275000  -1248.8237      235.2769      -1484.1006      309.53146     -576.21912      3840.7412      0.99696119
    276000  -1277.6006      225.55283     -1503.1534      296.73843      1305.7774      3840.7412      0.99696119
    277000  -1289.1634      214.83451     -1503.9979      282.63736     -155.41007      3840.7412      0.99696119
    278000  -1222.8113      246.21019     -1469.0215      323.91536      1342.5468      3840.7412      0.99696119
    279000  -1262.6025      230.76848     -1493.3709      303.60017      271.342        3840.7412      0.99696119
    280000  -1258.0313      229.89049     -1487.9218      302.44508     -1258.839       3840.7412      0.99696119
    281000  -1261.4175      223.73391     -1485.1514      294.34546     -435.3588       3840.7412      0.99696119
    282000  -1221.1429      248.40204     -1469.545       326.79897      1514.0956      3840.7412      0.99696119
    283000  -1273.0232      245.89129     -1518.9145      323.49582      1071.6414      3840.7412      0.99696119
    284000  -1291.4011      212.06403     -1503.4651      278.99251     -1027.722       3840.7412      0.99696119
    285000  -1278.4782      223.24526     -1501.7235      293.70259      516.92487      3840.7412      0.99696119
    286000  -1250.2437      236.87356     -1487.1173      311.63205      1280.0535      3840.7412      0.99696119
    287000  -1226.6049      243.13356     -1469.7385      319.86772     -143.82698      3840.7412      0.99696119
    288000  -1234.995       229.63814     -1464.6332      302.11308      659.40272      3840.7412      0.99696119
    289000  -1248.7482      240.4869      -1489.2351      316.38577      722.8273       3840.7412      0.99696119
    290000  -1270.9571      217.43999     -1488.3971      286.06515     -121.06142      3840.7412      0.99696119
    291000  -1260.7641      231.59253     -1492.3566      304.6843      -750.22218      3840.7412      0.99696119
    292000  -1227.8374      251.13939     -1478.9768      330.40024      1808.6685      3840.7412      0.99696119
    293000  -1295.0468      216.5748      -1511.6216      284.92689      138.2042       3840.7412      0.99696119
    294000  -1277.0952      204.23183     -1481.327       268.68842      1487.659       3840.7412      0.99696119
    295000  -1265.6579      238.12678     -1503.7847      313.28079      910.65201      3840.7412      0.99696119
    296000  -1261.4709      241.19169     -1502.6626      317.313        6.9521864      3840.7412      0.99696119
    297000  -1265.8113      207.02787     -1472.8392      272.36691     -841.72385      3840.7412      0.99696119
    298000  -1228.0536      230.13585     -1458.1895      302.76788      1228.7312      3840.7412      0.99696119
    299000  -1285.3236      209.33518     -1494.6588      275.40241     -434.65974      3840.7412      0.99696119
    300000  -1258.1133      222.19178     -1480.3051      292.31662      1950.0747      3840.7412      0.99696119
    301000  -1275.0968      220.73666     -1495.8335      290.40226      538.7841       3840.7412      0.99696119
    302000  -1259.9333      228.5896      -1488.5229      300.73362      627.68762      3840.7412      0.99696119
    303000  -1255.349       231.17576     -1486.5247      304.13599      1256.2338      3840.7412      0.99696119
    304000  -1247.794       221.67961     -1469.4736      291.6428       52.929603      3840.7412      0.99696119
    305000  -1239.336       229.57606     -1468.9121      302.03141      937.69935      3840.7412      0.99696119
    306000  -1248.6153      215.39213     -1464.0074      283.37096      831.13451      3840.7412      0.99696119
    307000  -1240.7909      223.3089      -1464.0998      293.78631      802.81262      3840.7412      0.99696119
    308000  -1291.142       231.05567     -1522.1977      303.978       -159.94357      3840.7412      0.99696119
    309000  -1297.6683      231.02036     -1528.6887      303.93155     -580.29509      3840.7412      0.99696119
    310000  -1242.9395      232.52373     -1475.4632      305.90938      369.03938      3840.7412      0.99696119
    311000  -1287.6218      214.40247     -1502.0242      282.06896      608.30617      3840.7412      0.99696119
    312000  -1269.1534      224.07435     -1493.2277      294.79334     -1670.0438      3840.7412      0.99696119
    313000  -1222.4459      232.58367     -1455.0296      305.98824     -546.51257      3840.7412      0.99696119
    314000  -1244.8501      231.19591     -1476.046       304.1625       3188.1384      3840.7412      0.99696119
    315000  -1235.8256      224.21538     -1460.041       294.97887     -723.87042      3840.7412      0.99696119
    316000  -1245.7205      227.02612     -1472.7466      298.6767       1713.1804      3840.7412      0.99696119
    317000  -1256.8313      245.7519      -1502.5832      323.31243     -919.85015      3840.7412      0.99696119
    318000  -1255.6042      242.55466     -1498.1589      319.10612      363.01658      3840.7412      0.99696119
    319000  -1290.6544      217.7344      -1508.3888      286.45247     -1256.7089      3840.7412      0.99696119
    320000  -1238.0598      223.69427     -1461.754       294.29331      169.36432      3840.7412      0.99696119
    321000  -1247.7714      240.57884     -1488.3502      316.50672     -797.3398       3840.7412      0.99696119
    322000  -1284.2702      212.39117     -1496.6614      279.42289     -622.88809      3840.7412      0.99696119
    323000  -1263.6047      220.28346     -1483.8882      289.80602      61.373626      3840.7412      0.99696119
    324000  -1210.8902      249.96776     -1460.858       328.85884      126.86098      3840.7412      0.99696119
    325000  -1228.8273      233.30979     -1462.1371      306.94352     -1156.2666      3840.7412      0.99696119
    326000  -1255.2224      236.56097     -1491.7834      311.2208       1562.3563      3840.7412      0.99696119
    327000  -1256.2305      220.2052      -1476.4357      289.70306      1252.1724      3840.7412      0.99696119
    328000  -1261.4423      219.11977     -1480.5621      288.27507      1684.4191      3840.7412      0.99696119
    329000  -1234.8978      234.49464     -1469.3925      308.50233      145.95441      3840.7412      0.99696119
    330000  -1269.6477      219.18996     -1488.8377      288.36741      1450.0364      3840.7412      0.99696119
    331000  -1269.8989      217.28272     -1487.1817      285.85823     -540.90675      3840.7412      0.99696119
    332000  -1248.304       217.51811     -1465.8221      286.16792      1957.7022      3840.7412      0.99696119
    333000  -1258.3338      210.0419      -1468.3757      276.33218      2442.3284      3840.7412      0.99696119
    334000  -1243.9951      226.79975     -1470.7948      298.37888     -286.88259      3840.7412      0.99696119
    335000  -1215.8334      252.08479     -1467.9182      331.64401     -23.557116      3840.7412      0.99696119
    336000  -1214.8933      239.93386     -1454.8271      315.65819     -1283.4411      3840.7412      0.99696119
    337000  -1249.6829      236.80643     -1486.4893      311.54372      1185.2977      3840.7412      0.99696119
    338000  -1250.3021      230.12551     -1480.4276      302.75428      2513.5276      3840.7412      0.99696119
    339000  -1278.4704      225.76772     -1504.2381      297.02114     -286.82346      3840.7412      0.99696119
    340000  -1256.2516      217.66138     -1473.913       286.3564       1268.4255      3840.7412      0.99696119
    341000  -1252.1585      226.28254     -1478.441       297.69844      280.09275      3840.7412      0.99696119
    342000  -1239.9689      227.68825     -1467.6572      299.5478      -962.33263      3840.7412      0.99696119
    343000  -1295.9928      200.56678     -1496.5595      263.86665     -1475.7145      3840.7412      0.99696119
    344000  -1266.5553      223.53969     -1490.095       294.08993     -177.62058      3840.7412      0.99696119
    345000  -1272.3236      234.14294     -1506.4666      308.03962      595.24905      3840.7412      0.99696119
    346000  -1286.9218      225.59282     -1512.5147      296.79104      550.6384       3840.7412      0.99696119
    347000  -1245.6882      224.83294     -1470.5211      295.79134      395.93863      3840.7412      0.99696119
    348000  -1270.9045      216.66958     -1487.5741      285.05159     -54.720683      3840.7412      0.99696119
    349000  -1244.6442      232.15784     -1476.8021      305.42802      437.12214      3840.7412      0.99696119
    350000  -1248.4662      237.33136     -1485.7975      312.23433     -990.452        3840.7412      0.99696119
    351000  -1246.153       225.97945     -1472.1325      297.29969     -463.94574      3840.7412      0.99696119
    352000  -1225.6439      252.14106     -1477.7849      331.71804      2321.4031      3840.7412      0.99696119
    353000  -1254.0793      227.7837      -1481.863       299.67338      1544.7026      3840.7412      0.99696119
    354000  -1282.339       245.9007      -1528.2397      323.50819      683.33852      3840.7412      0.99696119
    355000  -1283.5561      224.54951     -1508.1056      295.41846      228.15989      3840.7412      0.99696119
    356000  -1251.1852      222.83712     -1474.0223      293.16563     -893.78007      3840.7412      0.99696119
    357000  -1255.1639      239.38088     -1494.5448      314.93068     -1208.2264      3840.7412      0.99696119
    358000  -1258.6524      213.14799     -1471.8004      280.41857     -675.67302      3840.7412      0.99696119
    359000  -1250.3181      221.75411     -1472.0722      291.74082      1034.0902      3840.7412      0.99696119
    360000  -1260.3625      210.99796     -1471.3605      277.58997      156.18732      3840.7412      0.99696119
    361000  -1249.7275      244.22451     -1493.952       321.30299     -155.68515      3840.7412      0.99696119
    362000  -1290.6845      217.87093     -1508.5555      286.63208     -831.54201      3840.7412      0.99696119
    363000  -1280.306       205.27958     -1485.5856      270.06684     -2020.3538      3840.7412      0.99696119
    364000  -1282.0668      224.4395      -1506.5063      295.27373     -167.40593      3840.7412      0.99696119
    365000  -1255.6099      222.86384     -1478.4738      293.20078      2060.3648      3840.7412      0.99696119
    366000  -1224.6926      231.11737     -1455.81        304.05916      1599.1606      3840.7412      0.99696119
    367000  -1244.9987      231.73468     -1476.7333      304.8713      -803.26436      3840.7412      0.99696119
    368000  -1244.4512      220.27827     -1464.7294      289.7992       1280.168       3840.7412      0.99696119
    369000  -1275.2788      218.86093     -1494.1398      287.93454      196.77189      3840.7412      0.99696119
    370000  -1201.9382      253.29545     -1455.2337      333.23676     -349.76294      3840.7412      0.99696119
    371000  -1258.3245      220.56742     -1478.8919      290.1796       2062.896       3840.7412      0.99696119
    372000  -1284.8891      218.77029     -1503.6594      287.81529      831.49678      3840.7412      0.99696119
    373000  -1256.689       214.97813     -1471.6672      282.82631      41.617909      3840.7412      0.99696119
    374000  -1215.9076      237.54172     -1453.4494      312.51108     -1298.1204      3840.7412      0.99696119
    375000  -1252.3307      242.79532     -1495.126       319.42273      1077.7346      3840.7412      0.99696119
    376000  -1302.1997      213.69973     -1515.8994      281.14443      763.14012      3840.7412      0.99696119
    377000  -1252.8422      209.1686      -1462.0108      275.18326      2235.3834      3840.7412      0.99696119
    378000  -1267.1031      217.01173     -1484.1148      285.50172      412.93475      3840.7412      0.99696119
    379000  -1237.2398      228.1198      -1465.3596      300.11555     -377.22364      3840.7412      0.99696119
    380000  -1265.3294      217.37251     -1482.702       285.97637      732.41748      3840.7412      0.99696119
    381000  -1257.6652      225.51809     -1483.1833      296.69273     -788.88651      3840.7412      0.99696119
    382000  -1229.1976      208.49865     -1437.6962      274.30186      745.33663      3840.7412      0.99696119
    383000  -1257.627       220.94539     -1478.5723      290.67686     -583.60024      3840.7412      0.99696119
    384000  -1249.7585      220.81441     -1470.5729      290.50454     -194.22583      3840.7412      0.99696119
    385000  -1237.1521      236.5046      -1473.6567      311.14664      1672.8884      3840.7412      0.99696119
    386000  -1241.5897      244.8561      -1486.4458      322.13391      411.32804      3840.7412      0.99696119
    387000  -1251.7903      225.46221     -1477.2525      296.61921     -715.03623      3840.7412      0.99696119
    388000  -1230.481       230.19814     -1460.6792      302.84983     -2088.4058      3840.7412      0.99696119
    389000  -1258.9286      212.82269     -1471.7513      279.9906      -774.05009      3840.7412      0.99696119
    390000  -1250.9564      248.18384     -1499.1402      326.51191      3105.2591      3840.7412      0.99696119
    391000  -1271.728       220.6311      -1492.3591      290.26338      990.65416      3840.7412      0.99696119
    392000  -1272.1492      230.34338     -1502.4926      303.0409      -274.07704      3840.7412      0.99696119
    393000  -1242.7589      241.65247     -1484.4114      317.9192      -869.16287      3840.7412      0.99696119
    394000  -1251.8848      220.77198     -1472.6567      290.44872      775.67788      3840.7412      0.99696119
    395000  -1247.0003      235.0045      -1482.0048      309.17309      1801.0382      3840.7412      0.99696119
    396000  -1235.2971      223.22819     -1458.5253      293.68013     -1867.0521      3840.7412      0.99696119
    397000  -1295.0598      216.89532     -1511.9551      285.34857      840.47396      3840.7412      0.99696119
    398000  -1274.3916      242.05762     -1516.4492      318.45221     -889.33016      3840.7412      0.99696119
    399000  -1257.8006      230.3236      -1488.1242      303.01488      1999.0623      3840.7412      0.99696119
    400000  -1283.6052      225.82124     -1509.4265      297.09155     -1038.9438      3840.7412      0.99696119
    401000  -1241.2059      235.97645     -1477.1823      310.4518      -98.461421      3840.7412      0.99696119
    402000  -1235.7583      245.42413     -1481.1824      322.88121     -882.42527      3840.7412      0.99696119
    403000  -1246.9551      241.34181     -1488.297       317.51049     -811.96486      3840.7412      0.99696119
    404000  -1231.068       227.34161     -1458.4096      299.09177     -150.88359      3840.7412      0.99696119
    405000  -1243.4871      230.49001     -1473.9771      303.23381      1317.0458      3840.7412      0.99696119
    406000  -1229.2574      229.83343     -1459.0909      302.37002     -695.98345      3840.7412      0.99696119
    407000  -1236.9306      225.30954     -1462.2402      296.41835      533.3147       3840.7412      0.99696119
    408000  -1237.2655      214.73676     -1452.0023      282.50876      2106.7293      3840.7412      0.99696119
    409000  -1272.8798      218.4076      -1491.2874      287.33813      644.07753      3840.7412      0.99696119
    410000  -1224.8595      225.94316     -1450.8027      297.25196      78.663022      3840.7412      0.99696119
    411000  -1289.1202      213.29313     -1502.4133      280.60951      324.89038      3840.7412      0.99696119
    412000  -1242.5385      238.66655     -1481.205       313.99091     -1050.0479      3840.7412      0.99696119
    413000  -1264.643       214.05096     -1478.694       281.60652     -91.330453      3840.7412      0.99696119
    414000  -1269.1671      228.22288     -1497.39        300.25116      1276.5386      3840.7412      0.99696119
    415000  -1191.9141      247.96089     -1439.875       326.21858      280.57121      3840.7412      0.99696119
    416000  -1249.0208      221.63617     -1470.657       291.58566      746.70927      3840.7412      0.99696119
    417000  -1201.598       247.11264     -1448.7107      325.10263     -783.89468      3840.7412      0.99696119
    418000  -1202.4425      242.94603     -1445.3885      319.62101      1139.6141      3840.7412      0.99696119
    419000  -1262.7237      223.61737     -1486.3411      294.19214      68.211604      3840.7412      0.99696119
    420000  -1259.9295      232.56658     -1492.4961      305.96576      2025.7078      3840.7412      0.99696119
    421000  -1235.0167      245.42222     -1480.4389      322.8787      -808.58081      3840.7412      0.99696119
    422000  -1262.5963      218.40786     -1481.0042      287.33847      36.724169      3840.7412      0.99696119
    423000  -1267.5311      217.08897     -1484.6201      285.60333     -18.800174      3840.7412      0.99696119
    424000  -1226.2543      218.80223     -1445.0565      287.85731     -1361.899       3840.7412      0.99696119
    425000  -1258.6204      232.0231      -1490.6435      305.25076      1360.6487      3840.7412      0.99696119
    426000  -1270.0233      233.94127     -1503.9646      307.77431      1075.7193      3840.7412      0.99696119
    427000  -1219.0378      228.33518     -1447.373       300.39891      2688.5268      3840.7412      0.99696119
    428000  -1258.0412      227.27565     -1485.3169      299.00498     -1452.8889      3840.7412      0.99696119
    429000  -1198.2561      250.2629      -1448.519       329.24712      663.20598      3840.7412      0.99696119
    430000  -1247.8597      216.98686     -1464.8465      285.46899     -749.16409      3840.7412      0.99696119
    431000  -1235.3712      237.38356     -1472.7548      312.303        2475.1974      3840.7412      0.99696119
    432000  -1277.2765      214.44915     -1491.7256      282.13037      2022.0578      3840.7412      0.99696119
    433000  -1259.1727      221.15596     -1480.3286      290.95389      2077.9181      3840.7412      0.99696119
    434000  -1283.6481      224.84952     -1508.4976      295.81315     -44.415625      3840.7412      0.99696119
    435000  -1217.5624      234.4657      -1452.0281      308.46424     -365.46779      3840.7412      0.99696119
    436000  -1257.2818      220.34582     -1477.6276      289.88806      148.78001      3840.7412      0.99696119
    437000  -1237.8532      243.9363      -1481.7895      320.92382      1257.6086      3840.7412      0.99696119
    438000  -1258.4858      228.71074     -1487.1965      300.893        621.73953      3840.7412      0.99696119
    439000  -1235.957       199.30844     -1435.2654      262.21118     -1917.3705      3840.7412      0.99696119
    440000  -1238.2208      233.8074      -1472.0282      307.59818      924.65778      3840.7412      0.99696119
    441000  -1291.6924      217.92437     -1509.6167      286.70239      497.38826      3840.7412      0.99696119
    442000  -1226.2931      227.92689     -1454.22        299.86176      1494.8896      3840.7412      0.99696119
    443000  -1263.046       237.54925     -1500.5953      312.52099     -963.60634      3840.7412      0.99696119
    444000  -1255.8424      220.19199     -1476.0344      289.68569      626.38821      3840.7412      0.99696119
    445000  -1232.0069      220.06747     -1452.0743      289.52187     -657.25936      3840.7412      0.99696119
    446000  -1274.4981      241.47609     -1515.9742      317.68715      1083.3753      3840.7412      0.99696119
    447000  -1246.6053      227.00892     -1473.6143      298.65407     -581.30404      3840.7412      0.99696119
    448000  -1237.96        227.3518      -1465.3118      299.10516     -2437.856       3840.7412      0.99696119
    449000  -1247.502       219.76621     -1467.2683      289.12553      201.87037      3840.7412      0.99696119
    450000  -1256.9569      216.30077     -1473.2577      284.56637     -370.89035      3840.7412      0.99696119
    451000  -1232.2167      238.29898     -1470.5157      313.50734      993.75325      3840.7412      0.99696119
    452000  -1253.8471      235.95336     -1489.8005      310.42143      275.76624      3840.7412      0.99696119
    453000  -1270.9672      217.12295     -1488.0902      285.64804     -16.127504      3840.7412      0.99696119
    454000  -1260.9485      233.95233     -1494.9008      307.78886      1702.3373      3840.7412      0.99696119
    455000  -1280.9643      236.18968     -1517.1539      310.73233      263.19192      3840.7412      0.99696119
    456000  -1244.2056      249.93952     -1494.1452      328.82168     -374.46134      3840.7412      0.99696119
    457000  -1252.2186      216.29575     -1468.5143      284.55977     -1208.8584      3840.7412      0.99696119
    458000  -1254.9834      227.67213     -1482.6556      299.52659      343.06351      3840.7412      0.99696119
    459000  -1273.3946      214.37232     -1487.7669      282.0293       1207.9356      3840.7412      0.99696119
    460000  -1214.9196      266.52422     -1481.4438      350.6406       1330.4243      3840.7412      0.99696119
    461000  -1274.7259      229.91946     -1504.6453      302.48319     -649.90319      3840.7412      0.99696119
    462000  -1248.8318      217.4002      -1466.232       286.01279     -1565.1576      3840.7412      0.99696119
    463000  -1242.0633      229.17494     -1471.2382      301.50369      1079.6838      3840.7412      0.99696119
    464000  -1245.7695      230.1921      -1475.9616      302.84188     -69.25597       3840.7412      0.99696119
    465000  -1242.0454      242.09037     -1484.1358      318.4953       1560.8979      3840.7412      0.99696119
    466000  -1218.2165      218.98197     -1437.1985      288.09378     -980.75873      3840.7412      0.99696119
    467000  -1260.2593      218.91636     -1479.1757      288.00746      2231.3787      3840.7412      0.99696119
    468000  -1237.3625      214.55112     -1451.9136      282.26453     -1922.8267      3840.7412      0.99696119
    469000  -1262.6817      217.02414     -1479.7058      285.51805      421.48802      3840.7412      0.99696119
    470000  -1219.0524      237.04345     -1456.0958      311.85555      1042.3054      3840.7412      0.99696119
    471000  -1256.3668      212.64023     -1469.0071      279.75055      1306.8914      3840.7412      0.99696119
    472000  -1223.624       226.58068     -1450.2047      298.09068      1079.939       3840.7412      0.99696119
    473000  -1276.8357      211.51504     -1488.3507      278.27025     -444.32548      3840.7412      0.99696119
    474000  -1263.2537      233.4901      -1496.7438      307.18075     -963.90507      3840.7412      0.99696119
    475000  -1276.2365      217.44436     -1493.6808      286.07089      733.74275      3840.7412      0.99696119
    476000  -1224.2646      244.84505     -1469.1097      322.11938     -625.34615      3840.7412      0.99696119
    477000  -1242.319       233.58979     -1475.9088      307.3119       183.4803       3840.7412      0.99696119
    478000  -1253.9162      227.53502     -1481.4512      299.34621      154.26419      3840.7412      0.99696119
    479000  -1244.6024      233.99853     -1478.6009      307.84964      849.90631      3840.7412      0.99696119
    480000  -1233.7553      233.93185     -1467.6872      307.76191      978.43217      3840.7412      0.99696119
    481000  -1257.7039      234.43327     -1492.1371      308.42159      1301.0145      3840.7412      0.99696119
    482000  -1265.5396      226.49299     -1492.0326      297.97531      718.07204      3840.7412      0.99696119
    483000  -1285.7817      227.47717     -1513.2589      299.2701       1256.9093      3840.7412      0.99696119
    484000  -1253.8782      220.71311     -1474.5913      290.37127      2885.2937      3840.7412      0.99696119
    485000  -1262.0715      231.87457     -1493.946       305.05535      1293.3916      3840.7412      0.99696119
    486000  -1235.8946      233.22242     -1469.117       306.82859      1981.1688      3840.7412      0.99696119
    487000  -1278.9168      226.62259     -1505.5394      298.14581      2334.0136      3840.7412      0.99696119
    488000  -1269.9607      232.80835     -1502.769       306.28383      1093.2891      3840.7412      0.99696119
    489000  -1256.3646      230.30071     -1486.6653      302.98477      602.61008      3840.7412      0.99696119
    490000  -1257.5774      217.21686     -1474.7942      285.77159      2772.4995      3840.7412      0.99696119
    491000  -1263.4372      247.34118     -1510.7784      325.4033       501.29256      3840.7412      0.99696119
    492000  -1262.5832      219.35625     -1481.9395      288.58618      93.453022      3840.7412      0.99696119
    493000  -1256.1315      225.65288     -1481.7843      296.87006     -919.10813      3840.7412      0.99696119
    494000  -1268.651       206.65665     -1475.3077      271.87852     -495.61702      3840.7412      0.99696119
    495000  -1275.0905      219.6306      -1494.7211      288.94711      251.75701      3840.7412      0.99696119
    496000  -1282.8984      219.8042      -1502.7026      289.1755      -880.28539      3840.7412      0.99696119
    497000  -1266.406       224.65252     -1491.0585      295.55399     -231.27531      3840.7412      0.99696119
    498000  -1271.6998      216.7288      -1488.4286      285.12949      234.82215      3840.7412      0.99696119
    499000  -1258.8783      208.377       -1467.2553      274.14182      407.04137      3840.7412      0.99696119
    500000  -1237.5974      238.06381     -1475.6612      313.19794      696.96841      3840.7412      0.99696119
    501000  -1238.4487      233.2868      -1471.7355      306.91328     -768.87635      3840.7412      0.99696119
    502000  -1254.501       229.46611     -1483.9671      301.88676      13.700855      3840.7412      0.99696119
    503000  -1275.6919      215.1701      -1490.862       283.07885      340.27432      3840.7412      0.99696119
    504000  -1277.8296      235.31801     -1513.1476      309.58555     -908.95007      3840.7412      0.99696119
    505000  -1290.4427      225.69893     -1516.1417      296.93065     -482.2063       3840.7412      0.99696119
    506000  -1257.5734      233.9512      -1491.5246      307.78736      89.046611      3840.7412      0.99696119
    507000  -1299.7367      221.33383     -1521.0705      291.1879       1404.9643      3840.7412      0.99696119
    508000  -1290.0265      214.70297     -1504.7295      282.4643       1234.1687      3840.7412      0.99696119
    509000  -1244.2739      223.21364     -1467.4875      293.66099     -1293.8352      3840.7412      0.99696119
    510000  -1264.6148      232.98897     -1497.6038      306.52145     -1907.4886      3840.7412      0.99696119
    511000  -1268.1474      234.96629     -1503.1137      309.12283     -652.01199      3840.7412      0.99696119
    512000  -1250.9907      208.28983     -1459.2805      274.02714     -1254.9308      3840.7412      0.99696119
    513000  -1225.8059      245.13451     -1470.9404      322.50019      1209.6594      3840.7412      0.99696119
    514000  -1234.3929      218.53351     -1452.9264      287.50378     -3420.1787      3840.7412      0.99696119
    515000  -1231.1235      226.08738     -1457.2109      297.44169      2660.2831      3840.7412      0.99696119
    516000  -1248.0324      222.82621     -1470.8586      293.15128      543.31333      3840.7412      0.99696119
    517000  -1258.9338      222.25337     -1481.1872      292.39765      1201.1489      3840.7412      0.99696119
    518000  -1234.4905      241.60869     -1476.0992      317.86161     -548.79054      3840.7412      0.99696119
    519000  -1268.1854      216.14704     -1484.3324      284.36413     -1750.9842      3840.7412      0.99696119
    520000  -1221.9         244.57919     -1466.4792      321.76961     -777.0569       3840.7412      0.99696119
    521000  -1254.7472      227.93634     -1482.6836      299.87419     -1067.4086      3840.7412      0.99696119
    522000  -1258.8768      236.41459     -1495.2913      311.02822      499.9329       3840.7412      0.99696119
    523000  -1276.1215      207.14897     -1483.2705      272.52623      21.575745      3840.7412      0.99696119
    524000  -1253.5146      229.31218     -1482.8268      301.68425      357.73133      3840.7412      0.99696119
    525000  -1240.9494      239.79489     -1480.7443      315.47536     -468.05784      3840.7412      0.99696119
    526000  -1266.351       222.12825     -1488.4792      292.23303     -297.45877      3840.7412      0.99696119
    527000  -1238.9815      229.63742     -1468.6189      302.11214     -836.91944      3840.7412      0.99696119
    528000  -1214.9002      241.76953     -1456.6697      318.07321     -52.412486      3840.7412      0.99696119
    529000  -1257.9252      221.86128     -1479.7865      291.88182     -1847.9839      3840.7412      0.99696119
    530000  -1230.2557      221.39621     -1451.6519      291.26996     -1473.1766      3840.7412      0.99696119
    531000  -1284.3988      231.11184     -1515.5106      304.05189     -2109.8746      3840.7412      0.99696119
    532000  -1258.6008      215.25492     -1473.8557      283.19045      808.55852      3840.7412      0.99696119
    533000  -1262.5039      209.80942     -1472.3134      276.02633     -587.37628      3840.7412      0.99696119
    534000  -1226.713       229.77498     -1456.4879      302.29311      378.42805      3840.7412      0.99696119
    535000  -1213.5918      242.62618     -1456.218       319.20022      1159.8992      3840.7412      0.99696119
    536000  -1239.2974      254.23402     -1493.5314      334.47155      100.85244      3840.7412      0.99696119
    537000  -1271.7595      221.71143     -1493.471       291.68466     -1414.8888      3840.7412      0.99696119
    538000  -1235.5372      232.49277     -1468.03        305.86865      183.51341      3840.7412      0.99696119
    539000  -1226.1274      244.56491     -1470.6923      321.75082      530.1427       3840.7412      0.99696119
    540000  -1241.7012      233.2274      -1474.9286      306.83514     -1983.5476      3840.7412      0.99696119
    541000  -1285.0152      227.31837     -1512.3336      299.06119      999.87356      3840.7412      0.99696119
    542000  -1262.4265      248.80242     -1511.2289      327.32571      129.75046      3840.7412      0.99696119
    543000  -1267.7236      236.80339     -1504.527       311.53973      214.47763      3840.7412      0.99696119
    544000  -1246.3297      215.76561     -1462.0953      283.86232     -1504.177       3840.7412      0.99696119
    545000  -1246.6292      222.25682     -1468.886       292.40218     -1320.1352      3840.7412      0.99696119
    546000  -1252.5478      250.80747     -1503.3553      329.96357     -1417.6344      3840.7412      0.99696119
    547000  -1278.9813      219.21887     -1498.2002      288.40544      185.69124      3840.7412      0.99696119
    548000  -1225.7404      227.00221     -1452.7426      298.64525     -923.15747      3840.7412      0.99696119
    549000  -1244.8496      232.38903     -1477.2386      305.73217      229.69337      3840.7412      0.99696119
    550000  -1234.0964      223.42636     -1457.5228      293.94084      156.79508      3840.7412      0.99696119
    551000  -1233.4392      221.21909     -1454.6583      291.03694     -173.92495      3840.7412      0.99696119
    552000  -1220.4415      223.2731      -1443.7146      293.73921      2001.1833      3840.7412      0.99696119
    553000  -1267.1193      222.10316     -1489.2224      292.20002     -694.79168      3840.7412      0.99696119
    554000  -1242.2809      233.62416     -1475.905       307.35712      2038.103       3840.7412      0.99696119
    555000  -1284.0894      214.15944     -1498.2488      281.74923      831.58198      3840.7412      0.99696119
    556000  -1263.8921      228.9383      -1492.8304      301.19238      480.10611      3840.7412      0.99696119
    557000  -1240.4643      235.9265      -1476.3908      310.38609     -1941.8926      3840.7412      0.99696119
    558000  -1265.4041      221.64039     -1487.0445      291.59121     -1268.3744      3840.7412      0.99696119
    559000  -1232.6624      228.65435     -1461.3168      300.81881     -156.75475      3840.7412      0.99696119
    560000  -1236.2437      234.42994     -1470.6736      308.4172      -505.36263      3840.7412      0.99696119
    561000  -1272.2073      217.37514     -1489.5824      285.97982      139.34877      3840.7412      0.99696119
    562000  -1254.7029      240.19322     -1494.8962      315.99941     -142.05739      3840.7412      0.99696119
    563000  -1284.6732      228.02369     -1512.6969      299.98911      744.46018      3840.7412      0.99696119
    564000  -1275.9144      226.06939     -1501.9838      297.41802      692.09984      3840.7412      0.99696119
    565000  -1258.2948      201.6653      -1459.9601      265.31187     -168.86374      3840.7412      0.99696119
    566000  -1250.1545      235.01497     -1485.1695      309.18687     -120.56307      3840.7412      0.99696119
    567000  -1257.3183      232.45106     -1489.7693      305.81378      852.806        3840.7412      0.99696119
    568000  -1282.6277      216.01443     -1498.6422      284.18967     -521.07107      3840.7412      0.99696119
    569000  -1241.9046      234.52879     -1476.4334      308.54726      474.09818      3840.7412      0.99696119
    570000  -1251.2621      240.73502     -1491.9971      316.7122       1248.5673      3840.7412      0.99696119
    571000  -1263.3797      225.2135      -1488.5932      296.292        504.01198      3840.7412      0.99696119
    572000  -1245.9744      218.00634     -1463.9808      286.81024      377.4559       3840.7412      0.99696119
    573000  -1265.528       233.5984      -1499.1264      307.32322     -1809.4791      3840.7412      0.99696119
    574000  -1250.6742      216.15569     -1466.8299      284.37551     -1858.3906      3840.7412      0.99696119
    575000  -1222.9453      240.14481     -1463.0901      315.93571      552.78717      3840.7412      0.99696119
    576000  -1267.8933      226.93957     -1494.8328      298.56283      99.043556      3840.7412      0.99696119
    577000  -1278.6535      225.07865     -1503.7321      296.11459     -1904.0455      3840.7412      0.99696119
    578000  -1305.7239      212.44549     -1518.1694      279.49434     -228.39         3840.7412      0.99696119
    579000  -1251.5966      227.43587     -1479.0324      299.21577     -154.17873      3840.7412      0.99696119
    580000  -1243.5923      223.56        -1467.1524      294.11666      64.297961      3840.7412      0.99696119
    581000  -1279.2091      222.19089     -1501.4         292.31544      114.15915      3840.7412      0.99696119
    582000  -1273.3425      206.33166     -1479.6742      271.45096      572.3122       3840.7412      0.99696119
    583000  -1280.1081      205.23679     -1485.3449      270.01055      387.93855      3840.7412      0.99696119
    584000  -1275.8102      222.28028     -1498.0905      292.43305     -451.32594      3840.7412      0.99696119
    585000  -1240.9242      242.67952     -1483.6037      319.27039      1041.0885      3840.7412      0.99696119
    586000  -1233.2103      225.81144     -1459.0217      297.07866     -1.4235404      3840.7412      0.99696119
    587000  -1257.5352      219.98598     -1477.5212      289.41465     -878.28724      3840.7412      0.99696119
    588000  -1219.5873      250.18267     -1469.77        329.14158     -1451.8974      3840.7412      0.99696119
    589000  -1271.9428      227.66896     -1499.6118      299.52242     -94.329539      3840.7412      0.99696119
    590000  -1264.6237      223.9256      -1488.5493      294.59764     -222.74539      3840.7412      0.99696119
    591000  -1266.9291      228.1214      -1495.0505      300.11765     -1208.4049      3840.7412      0.99696119
    592000  -1248.3709      217.59192     -1465.9628      286.26502      339.91747      3840.7412      0.99696119
    593000  -1229.9454      227.47022     -1457.4156      299.26096      898.8357       3840.7412      0.99696119
    594000  -1289.378       211.3235      -1500.7015      278.01826     -255.22577      3840.7412      0.99696119
    595000  -1240.2333      229.13852     -1469.3718      301.45579      65.880351      3840.7412      0.99696119
    596000  -1257.9907      225.60665     -1483.5973      296.80924     -1782.0653      3840.7412      0.99696119
    597000  -1242.3062      235.69641     -1478.0026      310.08338      384.47963      3840.7412      0.99696119
    598000  -1305.315       217.662       -1522.977       286.35722      1610.5378      3840.7412      0.99696119
    599000  -1258.7938      215.39901     -1474.1928      283.38002      1104.4129      3840.7412      0.99696119
    600000  -1293.5457      220.46136     -1514.007       290.04007      414.66561      3840.7412      0.99696119
    601000  -1255.032       219.06893     -1474.1009      288.20818     -386.12969      3840.7412      0.99696119
    602000  -1296.2924      218.92647     -1515.2188      288.02077     -203.76808      3840.7412      0.99696119
    603000  -1268.4391      226.74624     -1495.1853      298.30849     -239.05452      3840.7412      0.99696119
    604000  -1240.7889      261.23357     -1502.0224      343.68019      2900.0263      3840.7412      0.99696119
    605000  -1267.7635      209.70775     -1477.4712      275.89256     -657.46036      3840.7412      0.99696119
    606000  -1247.3533      238.44468     -1485.798       313.69901     -362.20124      3840.7412      0.99696119
    607000  -1275.9323      223.08054     -1499.0128      293.48588     -408.37787      3840.7412      0.99696119
    608000  -1268.4322      213.98053     -1482.4127      281.51386     -328.42907      3840.7412      0.99696119
    609000  -1227.6526      221.87477     -1449.5274      291.89956     -751.91161      3840.7412      0.99696119
    610000  -1232.6252      225.32718     -1457.9524      296.44156      822.15464      3840.7412      0.99696119
    611000  -1270.4979      220.3494      -1490.8473      289.89277     -604.28801      3840.7412      0.99696119
    612000  -1262.4732      228.48212     -1490.9553      300.59222     -163.40239      3840.7412      0.99696119
    613000  -1255.41        228.91842     -1484.3284      301.16622      540.38027      3840.7412      0.99696119
    614000  -1209.8428      235.52175     -1445.3646      309.8536       280.23924      3840.7412      0.99696119
    615000  -1293.1712      210.83798     -1504.0092      277.3795      -930.43007      3840.7412      0.99696119
    616000  -1255.172       231.69963     -1486.8717      304.82519      1013.5645      3840.7412      0.99696119
    617000  -1269.7638      219.11632     -1488.8801      288.27053      326.25523      3840.7412      0.99696119
    618000  -1270.0781      216.87204     -1486.9502      285.31794      89.649272      3840.7412      0.99696119
    619000  -1255.1481      246.18891     -1501.337       323.88736     -906.2069       3840.7412      0.99696119
    620000  -1272.1247      228.96985     -1501.0945      301.23388      794.32555      3840.7412      0.99696119
    621000  -1256.5271      231.99723     -1488.5243      305.21672      166.59139      3840.7412      0.99696119
    622000  -1230.812       237.44482     -1468.2569      312.3836       2137.4626      3840.7412      0.99696119
    623000  -1239.6804      234.78659     -1474.467       308.88641      591.71401      3840.7412      0.99696119
    624000  -1258.736       217.5462      -1476.2822      286.20487     -234.22365      3840.7412      0.99696119
    625000  -1278.1532      209.82856     -1487.9817      276.0515       290.97162      3840.7412      0.99696119
    626000  -1239.6548      227.95264     -1467.6075      299.89563      678.71488      3840.7412      0.99696119
    627000  -1258.4377      220.79374     -1479.2314      290.47734     -2010.8726      3840.7412      0.99696119
    628000  -1243.3045      214.2065      -1457.511       281.81114      504.28303      3840.7412      0.99696119
    629000  -1236.8382      234.87126     -1471.7094      308.99781      43.767381      3840.7412      0.99696119
    630000  -1262.1719      208.7422      -1470.9141      274.62228      580.59704      3840.7412      0.99696119
    631000  -1277.9939      213.13634     -1491.1303      280.40324      1627.0742      3840.7412      0.99696119
    632000  -1300.0238      209.82248     -1509.8463      276.04351     -1343.439       3840.7412      0.99696119
    633000  -1259.4574      226.23885     -1485.6963      297.64096     -855.19079      3840.7412      0.99696119
    634000  -1235.3837      230.11638     -1465.5         302.74226     -697.20762      3840.7412      0.99696119
    635000  -1232.3378      231.17153     -1463.5093      304.13042     -168.68597      3840.7412      0.99696119
    636000  -1267.2896      222.8742      -1490.1638      293.21441     -532.92823      3840.7412      0.99696119
    637000  -1286.5651      203.10217     -1489.6673      267.20223      559.71396      3840.7412      0.99696119
    638000  -1259.4022      238.76642     -1498.1686      314.1223       1159.8073      3840.7412      0.99696119
    639000  -1258.8561      218.49131     -1477.3474      287.44826     -221.80486      3840.7412      0.99696119
    640000  -1209.1289      244.16964     -1453.2985      321.2308       2926.2217      3840.7412      0.99696119
    641000  -1241.874       241.09081     -1482.9648      317.18028      2566.2471      3840.7412      0.99696119
    642000  -1234.7296      235.90574     -1470.6353      310.35877      1454.143       3840.7412      0.99696119
    643000  -1266.7303      219.12084     -1485.8512      288.27647      1008.4587      3840.7412      0.99696119
    644000  -1284.7094      215.2183      -1499.9277      283.14227      453.73045      3840.7412      0.99696119
    645000  -1274.9219      219.31568     -1494.2376      288.53281     -1271.2272      3840.7412      0.99696119
    646000  -1281.1515      223.2693      -1504.4208      293.7342       552.12186      3840.7412      0.99696119
    647000  -1285.1544      213.79899     -1498.9534      281.27502      1706.6513      3840.7412      0.99696119
    648000  -1256.5287      235.41361     -1491.9423      309.71133      128.31837      3840.7412      0.99696119
    649000  -1259.0573      211.65631     -1470.7137      278.45611     -684.18794      3840.7412      0.99696119
    650000  -1227.3827      226.94577     -1454.3285      298.57099     -500.27338      3840.7412      0.99696119
    651000  -1271.472       222.42291     -1493.8949      292.6207       1747.0188      3840.7412      0.99696119
    652000  -1293.5694      219.31826     -1512.8877      288.53621      1040.8677      3840.7412      0.99696119
    653000  -1262.3648      225.19523     -1487.56        296.26797      430.93511      3840.7412      0.99696119
    654000  -1254.4735      238.65601     -1493.1295      313.97704     -188.36564      3840.7412      0.99696119
    655000  -1237.4274      225.83651     -1463.2639      297.11165      363.74237      3840.7412      0.99696119
    656000  -1266.9326      224.0682      -1491.0008      294.78525      535.91511      3840.7412      0.99696119
    657000  -1281.5299      203.45904     -1484.989       267.67173      192.24732      3840.7412      0.99696119
    658000  -1259.1327      227.69267     -1486.8254      299.55362      1397.9594      3840.7412      0.99696119
    659000  -1270.2925      243.45451     -1513.7471      320.28997     -1088.5002      3840.7412      0.99696119
    660000  -1259.4169      226.25263     -1485.6695      297.6591       41.832373      3840.7412      0.99696119
    661000  -1251.069       213.6719      -1464.7409      281.10783     -344.97297      3840.7412      0.99696119
    662000  -1257.2069      230.76493     -1487.9719      303.5955      -469.8049       3840.7412      0.99696119
    663000  -1273.6249      233.69491     -1507.3198      307.45019      305.87831      3840.7412      0.99696119
    664000  -1239.9175      243.68224     -1483.5997      320.58958      633.58999      3840.7412      0.99696119
    665000  -1240.037       243.47366     -1483.5107      320.31516     -1741.6756      3840.7412      0.99696119
    666000  -1277.8005      230.77928     -1508.5797      303.61437     -552.40754      3840.7412      0.99696119
    667000  -1261.4573      225.86688     -1487.3241      297.1516       759.40261      3840.7412      0.99696119
    668000  -1222.3537      228.75413     -1451.1079      300.95007     -44.848517      3840.7412      0.99696119
    669000  -1204.3022      227.00307     -1431.3052      298.64637     -2004.8271      3840.7412      0.99696119
    670000  -1178.2575      254.17065     -1432.4282      334.38819     -286.84722      3840.7412      0.99696119
    671000  -1243.9392      217.2748      -1461.214       285.84782     -1345.5192      3840.7412      0.99696119
    672000  -1261.8034      210.80052     -1472.6039      277.33022      883.81276      3840.7412      0.99696119
    673000  -1257.7617      222.4074      -1480.1691      292.6003       673.94515      3840.7412      0.99696119
    674000  -1289.5762      228.78954     -1518.3658      300.99667      379.24129      3840.7412      0.99696119
    675000  -1215.1056      241.86014     -1456.9658      318.19241      1335.1121      3840.7412      0.99696119
    676000  -1263.7723      236.0708      -1499.8431      310.57593     -96.964087      3840.7412      0.99696119
    677000  -1256.5395      221.60817     -1478.1477      291.54882     -263.90137      3840.7412      0.99696119
    678000  -1218.14        216.24458     -1434.3846      284.49245      2533.746       3840.7412      0.99696119
    679000  -1274.7291      225.33493     -1500.064       296.45177     -1203.4082      3840.7412      0.99696119
    680000  -1217.0582      235.63651     -1452.6947      310.00457     -136.60511      3840.7412      0.99696119
    681000  -1257.2472      226.25784     -1483.505       297.66594      259.88215      3840.7412      0.99696119
    682000  -1263.1157      227.51306     -1490.6288      299.31733     -440.84488      3840.7412      0.99696119
    683000  -1249.9397      218.22632     -1468.166       287.09964      1654.389       3840.7412      0.99696119
    684000  -1230.8914      236.98865     -1467.88        311.78346      1975.8777      3840.7412      0.99696119
    685000  -1268.9617      228.82171     -1497.7834      301.03899      489.23211      3840.7412      0.99696119
    686000  -1253.5805      209.66673     -1463.2472      275.83861     -94.290445      3840.7412      0.99696119
    687000  -1244.2151      227.18218     -1471.3973      298.88202      1016.3109      3840.7412      0.99696119
    688000  -1242.9854      249.07005     -1492.0555      327.67781      992.01957      3840.7412      0.99696119
    689000  -1235.5341      225.63587     -1461.17        296.84768     -277.8441       3840.7412      0.99696119
    690000  -1246.6469      231.68698     -1478.3338      304.80855      108.7857       3840.7412      0.99696119
    691000  -1262.9671      219.78555     -1482.7527      289.15097     -1117.3106      3840.7412      0.99696119
    692000  -1256.6815      217.81512     -1474.4966      286.55867      1583.8983      3840.7412      0.99696119
    693000  -1266.2683      219.43391     -1485.7022      288.68836     -936.79575      3840.7412      0.99696119
    694000  -1242.6907      239.9723      -1482.663       315.70877     -1033.36        3840.7412      0.99696119
    695000  -1255.9073      225.48985     -1481.3972      296.65557      1385.918       3840.7412      0.99696119
    696000  -1237.6808      244.54948     -1482.2303      321.73052     -419.25549      3840.7412      0.99696119
    697000  -1238.8771      241.68938     -1480.5665      317.96776      957.19643      3840.7412      0.99696119
    698000  -1273.5484      212.42263     -1485.971       279.46427     -516.30383      3840.7412      0.99696119
    699000  -1239.9416      243.73208     -1483.6737      320.65515     -137.25277      3840.7412      0.99696119
    700000  -1256.5209      229.9681      -1486.489       302.54718      2598.5065      3840.7412      0.99696119
    701000  -1274.4445      225.94077     -1500.3853      297.24881     -168.94751      3840.7412      0.99696119
    702000  -1241.8044      233.89851     -1475.703       307.71806     -781.38255      3840.7412      0.99696119
    703000  -1280.5489      223.51641     -1504.0653      294.05931      539.89715      3840.7412      0.99696119
    704000  -1272.4845      229.1475      -1501.632       301.46759     -154.53612      3840.7412      0.99696119
    705000  -1235.9905      222.81837     -1458.8088      293.14096      646.75383      3840.7412      0.99696119
    706000  -1277.9371      226.62036     -1504.5575      298.14288     -1922.994       3840.7412      0.99696119
    707000  -1266.5742      214.31018     -1480.8844      281.94754      593.76726      3840.7412      0.99696119
    708000  -1247.9127      228.4907      -1476.4034      300.60351      21.780587      3840.7412      0.99696119
    709000  -1262.5871      222.12754     -1484.7147      292.2321      -212.4962       3840.7412      0.99696119
    710000  -1285.3856      232.03274     -1517.4184      305.26344      293.49931      3840.7412      0.99696119
    711000  -1267.7202      229.93919     -1497.6593      302.50915      416.35486      3840.7412      0.99696119
    712000  -1269.6056      216.23411     -1485.8397      284.47867     -712.54997      3840.7412      0.99696119
    713000  -1222.9809      244.96669     -1467.9476      322.2794      -1097.6331      3840.7412      0.99696119
    714000  -1231.4471      248.02379     -1479.4709      326.30134     -1779.9152      3840.7412      0.99696119
    715000  -1250.4585      207.43672     -1457.8952      272.90479     -1078.5469      3840.7412      0.99696119
    716000  -1318.6862      204.20272     -1522.8889      268.65012     -675.081        3840.7412      0.99696119
    717000  -1256.2258      216.27436     -1472.5002      284.53164     -248.40909      3840.7412      0.99696119
    718000  -1254.381       223.54352     -1477.9246      294.09497      752.42121      3840.7412      0.99696119
    719000  -1267.1617      218.20996     -1485.3716      287.07811     -758.87146      3840.7412      0.99696119
    720000  -1237.8084      251.22667     -1489.0351      330.51506     -275.34378      3840.7412      0.99696119
    721000  -1283.7899      215.87132     -1499.6612      284.00139     -745.67327      3840.7412      0.99696119
    722000  -1296.3131      202.57306     -1498.8861      266.50613      832.07509      3840.7412      0.99696119
    723000  -1275.3313      239.76081     -1515.0921      315.43053      1406.5654      3840.7412      0.99696119
    724000  -1261.8568      226.24367     -1488.1005      297.64731      3392.3877      3840.7412      0.99696119
    725000  -1237.0195      227.95307     -1464.9726      299.8962      -139.47061      3840.7412      0.99696119
    726000  -1248.7537      235.71104     -1484.4648      310.10263     -1112.7296      3840.7412      0.99696119
    727000  -1240.8522      216.71102     -1457.5633      285.10611      72.832286      3840.7412      0.99696119
    728000  -1253.7372      227.5182      -1481.2554      299.32408     -679.35363      3840.7412      0.99696119
    729000  -1248.1362      229.51206     -1477.6482      301.94722      441.57914      3840.7412      0.99696119
    730000  -1295.0158      214.5438      -1509.5596      282.25489     -1236.6598      3840.7412      0.99696119
    731000  -1281.9338      209.3392      -1491.273       275.4077       439.65764      3840.7412      0.99696119
    732000  -1262.2979      236.15918     -1498.4571      310.6922       925.62096      3840.7412      0.99696119
    733000  -1248.2784      242.88014     -1491.1585      319.53432     -420.38437      3840.7412      0.99696119
    734000  -1244.0023      235.14207     -1479.1444      309.35409     -165.09502      3840.7412      0.99696119
    735000  -1216.5042      232.70265     -1449.2069      306.14478     -370.88183      3840.7412      0.99696119
    736000  -1270.5794      208.41794     -1478.9973      274.19569     -1489.7796      3840.7412      0.99696119
    737000  -1293.9271      212.81959     -1506.7467      279.98652      1405.1261      3840.7412      0.99696119
    738000  -1284.3158      204.3879      -1488.7037      268.89375     -1074.3296      3840.7412      0.99696119
    739000  -1241.02        228.14316     -1469.1631      300.14629     -257.11538      3840.7412      0.99696119
    740000  -1271.2835      247.69378     -1518.9772      325.86717      452.93834      3840.7412      0.99696119
    741000  -1291.5482      208.96141     -1500.5096      274.91068      924.10719      3840.7412      0.99696119
    742000  -1302.0788      220.96796     -1523.0468      290.70656      1724.337       3840.7412      0.99696119
    743000  -1230.3288      218.81787     -1449.1467      287.87789     -20.448821      3840.7412      0.99696119
    744000  -1272.2053      223.96247     -1496.1677      294.64615      591.65457      3840.7412      0.99696119
    745000  -1243.4869      245.74908     -1489.236       323.30873      1392.0611      3840.7412      0.99696119
    746000  -1238.5093      230.45909     -1468.9684      303.19313      329.78585      3840.7412      0.99696119
    747000  -1263.5819      226.42361     -1490.0055      297.88404      850.24607      3840.7412      0.99696119
    748000  -1187.9665      227.92645     -1415.893       299.86118      817.98139      3840.7412      0.99696119
    749000  -1251.1313      239.21258     -1490.3439      314.70927     -2263.4534      3840.7412      0.99696119
    750000  -1269.9863      221.75206     -1491.7384      291.73811     -899.52345      3840.7412      0.99696119
    751000  -1254.1166      225.11805     -1479.2346      296.16644     -768.59148      3840.7412      0.99696119
    752000  -1251.4104      207.15001     -1458.5604      272.52759     -1031.8182      3840.7412      0.99696119
    753000  -1288.0311      227.65183     -1515.6829      299.49988     -1715.9745      3840.7412      0.99696119
    754000  -1217.415       228.40413     -1445.8191      300.48961      28.968013      3840.7412      0.99696119
    755000  -1223.4998      223.56984     -1447.0696      294.1296      -229.95913      3840.7412      0.99696119
    756000  -1267.3835      223.66684     -1491.0503      294.25722      504.93014      3840.7412      0.99696119
    757000  -1294.7975      209.3098      -1504.1073      275.36902     -1202.7941      3840.7412      0.99696119
    758000  -1304.9256      214.059       -1518.9846      281.61709     -1773.4706      3840.7412      0.99696119
    759000  -1256.8018      231.61857     -1488.4204      304.71855     -1250.4546      3840.7412      0.99696119
    760000  -1237.2184      232.65682     -1469.8753      306.08447     -177.04858      3840.7412      0.99696119
    761000  -1248.892       239.77089     -1488.6628      315.44379      230.16317      3840.7412      0.99696119
    762000  -1272.7284      204.67872     -1477.4071      269.27635     -174.55369      3840.7412      0.99696119
    763000  -1210.8191      231.5765      -1442.3956      304.66321      910.26227      3840.7412      0.99696119
    764000  -1282.1303      220.91931     -1503.0496      290.64255      1806.9663      3840.7412      0.99696119
    765000  -1248.3682      239.64237     -1488.0106      315.2747       805.93404      3840.7412      0.99696119
    766000  -1250.9688      218.59108     -1469.5599      287.57953     -31.566967      3840.7412      0.99696119
    767000  -1249.8776      242.19784     -1492.0755      318.63669      1233.1152      3840.7412      0.99696119
    768000  -1270.9638      230.23256     -1501.1963      302.89512     -615.28245      3840.7412      0.99696119
    769000  -1239.7376      236.57646     -1476.3141      311.24117      1386.3711      3840.7412      0.99696119
    770000  -1274.9964      230.32768     -1505.3241      303.02025      941.94913      3840.7412      0.99696119
    771000  -1249.9374      246.36296     -1496.3003      324.11634     -589.45678      3840.7412      0.99696119
    772000  -1242.7063      235.9201      -1478.6264      310.37766     -38.625892      3840.7412      0.99696119
    773000  -1258.0205      235.42578     -1493.4463      309.72733     -1632.1006      3840.7412      0.99696119
    774000  -1229.9337      243.99961     -1473.9333      321.00711     -21.787501      3840.7412      0.99696119
    775000  -1243.1545      230.77326     -1473.9278      303.60646     -307.32974      3840.7412      0.99696119
    776000  -1262.3807      235.9456      -1498.3263      310.41121      778.70812      3840.7412      0.99696119
    777000  -1265.8666      239.04795     -1504.9146      314.49269      465.20464      3840.7412      0.99696119
    778000  -1264.0158      213.77883     -1477.7946      281.2485       1478.2669      3840.7412      0.99696119
    779000  -1234.4489      252.43886     -1486.8878      332.10983      511.18157      3840.7412      0.99696119
    780000  -1261.0673      220.11007     -1481.1773      289.57791      1078.1084      3840.7412      0.99696119
    781000  -1242.5954      234.52555     -1477.121       308.54298     -652.92049      3840.7412      0.99696119
    782000  -1270.8511      233.13711     -1503.9882      306.71634      1081.4274      3840.7412      0.99696119
    783000  -1278.4734      219.52361     -1497.997       288.80636     -1591.4153      3840.7412      0.99696119
    784000  -1264.9224      222.12167     -1487.0441      292.22438     -1427.0696      3840.7412      0.99696119
    785000  -1273.9094      217.45675     -1491.3662      286.08718      866.37971      3840.7412      0.99696119
    786000  -1249.3722      216.29812     -1465.6703      284.56289     -648.253        3840.7412      0.99696119
    787000  -1242.0779      243.66766     -1485.7455      320.57039      1045.0542      3840.7412      0.99696119
    788000  -1305.4266      215.04495     -1520.4716      282.91421      707.60116      3840.7412      0.99696119
    789000  -1283.8983      217.05939     -1500.9577      285.56442     -17.922661      3840.7412      0.99696119
    790000  -1253.4026      223.09677     -1476.4994      293.50723      236.65618      3840.7412      0.99696119
    791000  -1239.7933      251.5268      -1491.3201      330.90991      1168.2525      3840.7412      0.99696119
    792000  -1286.0073      214.95336     -1500.9606      282.79371     -991.16404      3840.7412      0.99696119
    793000  -1256.1788      246.95755     -1503.1364      324.89859     -1457.6082      3840.7412      0.99696119
    794000  -1256.6173      232.64831     -1489.2656      306.07328     -388.02226      3840.7412      0.99696119
    795000  -1244.7497      223.05308     -1467.8027      293.44975     -471.85837      3840.7412      0.99696119
    796000  -1249.1358      219.42273     -1468.5585      288.67365      1006.2574      3840.7412      0.99696119
    797000  -1268.6142      220.17024     -1488.7844      289.65707     -2604.2125      3840.7412      0.99696119
    798000  -1267.421       218.24876     -1485.6698      287.12916      975.24399      3840.7412      0.99696119
    799000  -1255.8366      224.99222     -1480.8288      296.00089      130.9603       3840.7412      0.99696119
    800000  -1262.0785      227.7482      -1489.8267      299.62667     -1539.0121      3840.7412      0.99696119
    801000  -1220.0958      240.22194     -1460.3177      316.03719     -268.45348      3840.7412      0.99696119
    802000  -1249.2128      228.49502     -1477.7078      300.60919      1606.2865      3840.7412      0.99696119
    803000  -1264.1253      221.54259     -1485.6679      291.46254     -686.95454      3840.7412      0.99696119
    804000  -1237.4832      244.13781     -1481.621       321.18893      580.58424      3840.7412      0.99696119
    805000  -1246.1505      236.90495     -1483.0555      311.67334     -73.22067       3840.7412      0.99696119
    806000  -1268.3386      224.13959     -1492.4781      294.87916     -2906.7784      3840.7412      0.99696119
    807000  -1274.9807      216.91295     -1491.8937      285.37176     -411.78677      3840.7412      0.99696119
    808000  -1264.2587      227.94701     -1492.2057      299.88823     -800.11001      3840.7412      0.99696119
    809000  -1267.4046      233.4117      -1500.8163      307.07761      1200.9631      3840.7412      0.99696119
    810000  -1272.813       214.16081     -1486.9738      281.75104     -35.330136      3840.7412      0.99696119
    811000  -1255.8996      241.02374     -1496.9233      317.09204      1382.9794      3840.7412      0.99696119
    812000  -1253.7959      212.12901     -1465.9249      279.07798      782.42734      3840.7412      0.99696119
    813000  -1261.3497      235.2275      -1496.5772      309.46648     -299.76008      3840.7412      0.99696119
    814000  -1224.5477      259.21761     -1483.7653      341.02798     -188.09333      3840.7412      0.99696119
    815000  -1260.0536      239.63506     -1499.6887      315.26508      1748.9596      3840.7412      0.99696119
    816000  -1263.5648      209.1143      -1472.6792      275.11182     -1238.7139      3840.7412      0.99696119
    817000  -1242.9838      235.80742     -1478.7912      310.22942      85.984257      3840.7412      0.99696119
    818000  -1278.4814      220.63476     -1499.1162      290.26819      575.14775      3840.7412      0.99696119
    819000  -1248.4086      238.67497     -1487.0836      314.00199      664.03052      3840.7412      0.99696119
    820000  -1254.0234      217.1807      -1471.2041      285.72402     -268.77147      3840.7412      0.99696119
    821000  -1243.6415      225.58197     -1469.2235      296.77677     -1115.7055      3840.7412      0.99696119
    822000  -1265.3463      205.80955     -1471.1558      270.76407      246.44254      3840.7412      0.99696119
    823000  -1236.8925      234.09509     -1470.9876      307.97667     -456.38792      3840.7412      0.99696119
    824000  -1253.7044      221.95165     -1475.656       292.0007       184.75228      3840.7412      0.99696119
    825000  -1293.7724      212.7344      -1506.5068      279.87445      106.69967      3840.7412      0.99696119
    826000  -1245.4868      200.76145     -1446.2482      264.12277      891.18897      3840.7412      0.99696119
    827000  -1273.9964      222.95519     -1496.9516      293.32097     -1538.3364      3840.7412      0.99696119
    828000  -1253.0738      214.31888     -1467.3927      281.95899      1194.1856      3840.7412      0.99696119
    829000  -1303.311       217.00775     -1520.3188      285.49648      457.21736      3840.7412      0.99696119
    830000  -1260.1261      224.01144     -1484.1376      294.71058     -1374.1411      3840.7412      0.99696119
    831000  -1228.7273      236.58813     -1465.3154      311.25653     -536.95094      3840.7412      0.99696119
    832000  -1279.8063      230.12954     -1509.9359      302.75957      748.69003      3840.7412      0.99696119
    833000  -1259.7305      232.32503     -1492.0555      305.64797      267.01293      3840.7412      0.99696119
    834000  -1235.38        241.28722     -1476.6672      317.43868     -576.46607      3840.7412      0.99696119
    835000  -1275.7591      220.67226     -1496.4314      290.31753      273.23512      3840.7412      0.99696119
    836000  -1280.2641      210.70546     -1490.9696      277.20516     -1593.4662      3840.7412      0.99696119
    837000  -1250.0846      217.62724     -1467.7118      286.31148     -202.032        3840.7412      0.99696119
    838000  -1280.7263      217.79869     -1498.525       286.53705      1666.5995      3840.7412      0.99696119
    839000  -1251.7174      215.42307     -1467.1404      283.41166      1057.975       3840.7412      0.99696119
    840000  -1283.1623      212.07554     -1495.2378      279.00764      687.29073      3840.7412      0.99696119
    841000  -1263.7428      222.29095     -1486.0338      292.44709      1317.5661      3840.7412      0.99696119
    842000  -1243.0221      219.6667      -1462.6888      288.99461     -1328.8581      3840.7412      0.99696119
    843000  -1256.6908      238.31114     -1495.0019      313.52333      2065.2598      3840.7412      0.99696119
    844000  -1258.1734      216.36693     -1474.5404      284.65341      1400.7216      3840.7412      0.99696119
    845000  -1221.9109      235.13667     -1457.0476      309.34698      424.64645      3840.7412      0.99696119
    846000  -1239.0485      228.18955     -1467.2381      300.20732     -596.80037      3840.7412      0.99696119
    847000  -1235.7528      241.29156     -1477.0444      317.44438      518.33543      3840.7412      0.99696119
    848000  -1221.9957      261.07583     -1483.0715      343.47267     -1510.4111      3840.7412      0.99696119
    849000  -1243.8412      223.12577     -1466.967       293.54538      277.77882      3840.7412      0.99696119
    850000  -1256.0521      226.81495     -1482.867       298.39888      1298.197       3840.7412      0.99696119
    851000  -1228.8053      253.41142     -1482.2167      333.38934      447.20396      3840.7412      0.99696119
    852000  -1243.979       237.96955     -1481.9486      313.07393     -451.17335      3840.7412      0.99696119
    853000  -1244.4151      239.97494     -1484.3901      315.71223      283.89936      3840.7412      0.99696119
    854000  -1259.1883      212.48876     -1471.6771      279.55127     -802.39633      3840.7412      0.99696119
    855000  -1239.1538      235.19767     -1474.3514      309.42723     -2724.8787      3840.7412      0.99696119
    856000  -1243.9115      229.63789     -1473.5494      302.11276     -570.4385       3840.7412      0.99696119
    857000  -1237.6896      220.04858     -1457.7382      289.49701     -389.45029      3840.7412      0.99696119
    858000  -1238.7324      247.33702     -1486.0694      325.39782      92.645568      3840.7412      0.99696119
    859000  -1269.0436      207.84277     -1476.8864      273.43898     -2354.8574      3840.7412      0.99696119
    860000  -1273.6012      218.98078     -1492.582       288.09222      2277.185       3840.7412      0.99696119
    861000  -1230.2036      215.54787     -1445.7514      283.57586      69.39237       3840.7412      0.99696119
    862000  -1231.7004      239.34696     -1471.0473      314.88605      572.44187      3840.7412      0.99696119
    863000  -1260.2459      224.61539     -1484.8613      295.50514      527.7547       3840.7412      0.99696119
    864000  -1222.6409      234.69998     -1457.3408      308.77247      1634.4682      3840.7412      0.99696119
    865000  -1247.2232      257.68665     -1504.9098      339.01384     -579.26163      3840.7412      0.99696119
    866000  -1240.8988      234.9049      -1475.8037      309.04206      2599.1717      3840.7412      0.99696119
    867000  -1251.0786      225.57066     -1476.6493      296.76189      1722.4445      3840.7412      0.99696119
    868000  -1294.527       215.76824     -1510.2953      283.86578     -27.370061      3840.7412      0.99696119
    869000  -1257.9459      228.26461     -1486.2105      300.30606      319.20202      3840.7412      0.99696119
    870000  -1263.0689      222.57316     -1485.6421      292.81836     -1311.408       3840.7412      0.99696119
    871000  -1245.555       213.20278     -1458.7577      280.49065      12.778433      3840.7412      0.99696119
    872000  -1252.0918      233.64324     -1485.7351      307.38222     -658.98808      3840.7412      0.99696119
    873000  -1269.6159      223.96893     -1493.5848      294.65465     -521.32148      3840.7412      0.99696119
    874000  -1243.429       230.45492     -1473.8839      303.18765     -473.08858      3840.7412      0.99696119
    875000  -1282.9743      216.21074     -1499.185       284.44793     -1604.3962      3840.7412      0.99696119
    876000  -1227.1674      242.43504     -1469.6025      318.94875      900.2708       3840.7412      0.99696119
    877000  -1217.9638      236.55762     -1454.5214      311.21638      15.891549      3840.7412      0.99696119
    878000  -1256.2932      233.51993     -1489.8132      307.21999     -1379.9374      3840.7412      0.99696119
    879000  -1241.3587      247.33621     -1488.6949      325.39676     -52.22174       3840.7412      0.99696119
    880000  -1238.4778      242.5373      -1481.0151      319.08329     -352.70778      3840.7412      0.99696119
    881000  -1218.5975      227.92963     -1446.5271      299.86536      1290.5221      3840.7412      0.99696119
    882000  -1228.1655      234.99809     -1463.1636      309.16466     -1561.7362      3840.7412      0.99696119
    883000  -1264.9364      222.23995     -1487.1764      292.37999     -1408.604       3840.7412      0.99696119
    884000  -1282.1817      199.19624     -1481.378       262.06358     -951.25014      3840.7412      0.99696119
    885000  -1218.1299      234.99472     -1453.1246      309.16023      475.80574      3840.7412      0.99696119
    886000  -1260.1926      232.16318     -1492.3558      305.43504     -1886.2226      3840.7412      0.99696119
    887000  -1301.6303      212.40814     -1514.0385      279.44521     -616.99827      3840.7412      0.99696119
    888000  -1270.2687      210.64875     -1480.9175      277.13054     -785.71592      3840.7412      0.99696119
    889000  -1291.6276      220.06096     -1511.6886      289.51331     -1439.5086      3840.7412      0.99696119
    890000  -1236.8067      243.65669     -1480.4633      320.55596     -607.35847      3840.7412      0.99696119
    891000  -1219.2149      253.95509     -1473.17        334.10459      1468.1526      3840.7412      0.99696119
    892000  -1248.8641      248.58904     -1497.4532      327.04499      328.03279      3840.7412      0.99696119
    893000  -1242.5224      229.92254     -1472.4449      302.48724      1604.4178      3840.7412      0.99696119
    894000  -1259.3385      226.81266     -1486.1512      298.39587      841.25895      3840.7412      0.99696119
    895000  -1283.7759      197.13294     -1480.9089      259.34908     -291.98596      3840.7412      0.99696119
    896000  -1294.1411      208.90347     -1503.0446      274.83445      1402.9211      3840.7412      0.99696119
    897000  -1279.7456      231.61027     -1511.3559      304.70764      362.27998      3840.7412      0.99696119
    898000  -1242.4963      234.36804     -1476.8644      308.33577      432.9936       3840.7412      0.99696119
    899000  -1252.288       221.05593     -1473.3439      290.82229     -828.38828      3840.7412      0.99696119
    900000  -1246.5437      225.8212      -1472.3649      297.09151     -87.877041      3840.7412      0.99696119
    901000  -1236.4941      235.54034     -1472.0344      309.87806      287.39031      3840.7412      0.99696119
    902000  -1269.4863      243.21183     -1512.6982      319.9707      -1040.3031      3840.7412      0.99696119
    903000  -1266.795       238.8256      -1505.6206      314.20015     -1272.7001      3840.7412      0.99696119
    904000  -1239.2146      232.57875     -1471.7933      305.98177     -119.2823       3840.7412      0.99696119
    905000  -1265.1952      223.43787     -1488.6331      293.95598     -1155.2676      3840.7412      0.99696119
    906000  -1267.7342      231.44072     -1499.175       304.48457     -2321.2559      3840.7412      0.99696119
    907000  -1246.0471      225.46051     -1471.5076      296.61697     -468.34439      3840.7412      0.99696119
    908000  -1200.9963      264.42112     -1465.4174      347.87376      29.252906      3840.7412      0.99696119
    909000  -1260.278       231.35049     -1491.6285      304.36586      1107.6004      3840.7412      0.99696119
    910000  -1252.5867      222.53602     -1475.1227      292.7695       1851.5553      3840.7412      0.99696119
    911000  -1254.357       222.26753     -1476.6245      292.41627     -2304.7247      3840.7412      0.99696119
    912000  -1254.5873      228.22321     -1482.8105      300.2516       1959.824       3840.7412      0.99696119
    913000  -1217.8455      243.34682     -1461.1923      320.1483       288.90423      3840.7412      0.99696119
    914000  -1250.4443      235.07615     -1485.5205      309.26737      1305.3197      3840.7412      0.99696119
    915000  -1265.0347      226.96121     -1491.9959      298.5913       1356.3715      3840.7412      0.99696119
    916000  -1261.0778      237.70991     -1498.7877      312.73235      702.99795      3840.7412      0.99696119
    917000  -1227.4723      233.6581      -1461.1304      307.40176      601.98703      3840.7412      0.99696119
    918000  -1302.8479      200.491       -1503.3389      263.76696      362.1531       3840.7412      0.99696119
    919000  -1255.0382      219.1309      -1474.1691      288.28971      1162.4509      3840.7412      0.99696119
    920000  -1246.8476      228.71785     -1475.5655      300.90235      1104.0283      3840.7412      0.99696119
    921000  -1274.5538      214.66147     -1489.2153      282.40971      137.34909      3840.7412      0.99696119
    922000  -1279.7892      219.27746     -1499.0667      288.48253      1197.0812      3840.7412      0.99696119
    923000  -1249.2796      242.52534     -1491.8049      319.06756      671.16306      3840.7412      0.99696119
    924000  -1271.9884      225.56004     -1497.5485      296.74792      1189.3866      3840.7412      0.99696119
    925000  -1260.1734      246.60607     -1506.7795      324.43617      632.98772      3840.7412      0.99696119
    926000  -1201.1356      233.27057     -1434.4062      306.89193      297.44924      3840.7412      0.99696119
    927000  -1287.0553      232.72671     -1519.782       306.17643      876.7433       3840.7412      0.99696119
    928000  -1220.0477      250.37894     -1470.4266      329.39978      1629.6469      3840.7412      0.99696119
    929000  -1274.1941      210.75724     -1484.9513      277.27328      613.89372      3840.7412      0.99696119
    930000  -1283.6895      199.76892     -1483.4584      262.81699      903.69485      3840.7412      0.99696119
    931000  -1273.6327      224.02804     -1497.6607      294.73241     -708.1606       3840.7412      0.99696119
    932000  -1249.6788      223.01813     -1472.6969      293.40377     -271.01519      3840.7412      0.99696119
    933000  -1296.2108      193.90466     -1490.1154      255.10194     -427.83665      3840.7412      0.99696119
    934000  -1211.4703      218.36141     -1429.8318      287.27736      1220.1395      3840.7412      0.99696119
    935000  -1253.6409      208.6483      -1462.2892      274.49875      1245.7883      3840.7412      0.99696119
    936000  -1277.6704      223.44602     -1501.1164      293.9667       2060.2783      3840.7412      0.99696119
    937000  -1267.2403      239.05027     -1506.2906      314.49573      59.109761      3840.7412      0.99696119
    938000  -1282.7486      214.41289     -1497.1615      282.08268     -549.13939      3840.7412      0.99696119
    939000  -1232.4335      229.93622     -1462.3697      302.50524      2023.7922      3840.7412      0.99696119
    940000  -1281.2047      212.51601     -1493.7207      279.58713      1154.0775      3840.7412      0.99696119
    941000  -1255.556       227.41716     -1482.9732      299.19116     -650.09056      3840.7412      0.99696119
    942000  -1292.6889      230.98603     -1523.6749      303.88638      801.1734       3840.7412      0.99696119
    943000  -1257.9285      237.38972     -1495.3182      312.3111       216.81193      3840.7412      0.99696119
    944000  -1270.0775      223.47599     -1493.5535      294.00613      82.001664      3840.7412      0.99696119
    945000  -1264.3691      228.91731     -1493.2864      301.16476      807.92941      3840.7412      0.99696119
    946000  -1248.0506      228.41276     -1476.4634      300.50097     -1420.5155      3840.7412      0.99696119
    947000  -1245.5249      222.89287     -1468.4178      293.23898     -0.2007712      3840.7412      0.99696119
    948000  -1270.9155      219.60993     -1490.5254      288.91993     -659.92151      3840.7412      0.99696119
    949000  -1236.7813      224.99369     -1461.775       296.00283     -436.54942      3840.7412      0.99696119
    950000  -1220.4256      219.26413     -1439.6897      288.46499      322.25664      3840.7412      0.99696119
    951000  -1251.2362      239.85224     -1491.0884      315.55081      651.74858      3840.7412      0.99696119
    952000  -1289.4169      212.35239     -1501.7693      279.37186     -957.21306      3840.7412      0.99696119
    953000  -1244.8649      234.27426     -1479.1391      308.21239      719.02782      3840.7412      0.99696119
    954000  -1259.2914      223.0101      -1482.3015      293.3932       2802.0872      3840.7412      0.99696119
    955000  -1249.3091      221.92372     -1471.2328      291.96396      1084.524       3840.7412      0.99696119
    956000  -1258.6311      233.1075      -1491.7386      306.6774       967.61266      3840.7412      0.99696119
    957000  -1305.7689      212.68077     -1518.4496      279.80389      86.264272      3840.7412      0.99696119
    958000  -1259.6816      215.94763     -1475.6292      284.10178     -1023.7587      3840.7412      0.99696119
    959000  -1284.328       211.04911     -1495.3771      277.65727      1160.4209      3840.7412      0.99696119
    960000  -1269.6254      226.88165     -1496.507       298.48663      47.352985      3840.7412      0.99696119
    961000  -1249.7051      222.16564     -1471.8707      292.28223      1349.7776      3840.7412      0.99696119
    962000  -1259.1632      224.48256     -1483.6458      295.33038     -185.87226      3840.7412      0.99696119
    963000  -1232.1406      225.53623     -1457.6768      296.71659      1908.7096      3840.7412      0.99696119
    964000  -1276.3235      217.64046     -1493.964       286.32887      130.36046      3840.7412      0.99696119
    965000  -1255.5711      239.47924     -1495.0503      315.06009     -1614.0704      3840.7412      0.99696119
    966000  -1225.9982      208.70298     -1434.7012      274.57068     -2592.8749      3840.7412      0.99696119
    967000  -1257.5555      214.81656     -1472.3721      282.61374     -51.539869      3840.7412      0.99696119
    968000  -1280.1482      204.21725     -1484.3654      268.66924     -65.623867      3840.7412      0.99696119
    969000  -1254.0364      226.99147     -1481.0279      298.63112      1502.2146      3840.7412      0.99696119
    970000  -1285.8413      215.24153     -1501.0828      283.17284      328.37801      3840.7412      0.99696119
    971000  -1262.4918      231.90762     -1494.3994      305.09882     -1810.888       3840.7412      0.99696119
    972000  -1200.3578      236.89953     -1437.2573      311.6662      -582.50901      3840.7412      0.99696119
    973000  -1258.5444      212.23037     -1470.7748      279.21134      1204.6332      3840.7412      0.99696119
    974000  -1274.6038      228.79397     -1503.3977      301.00249      826.63592      3840.7412      0.99696119
    975000  -1267.5816      220.76994     -1488.3516      290.44604     -292.22684      3840.7412      0.99696119
    976000  -1253.4344      240.28618     -1493.7206      316.1217      -2048.449       3840.7412      0.99696119
    977000  -1271.3169      231.86691     -1503.1838      305.04527      813.2134       3840.7412      0.99696119
    978000  -1258.7635      234.60775     -1493.3713      308.65114     -851.1458       3840.7412      0.99696119
    979000  -1261.5906      246.57791     -1508.1685      324.39913      178.35175      3840.7412      0.99696119
    980000  -1260.5261      216.76668     -1477.2928      285.17933     -1068.1102      3840.7412      0.99696119
    981000  -1217.7599      253.55458     -1471.3145      333.57768     -1131.5012      3840.7412      0.99696119
    982000  -1237.2679      218.73965     -1456.0076      287.77498      1962.0547      3840.7412      0.99696119
    983000  -1255.3206      225.61441     -1480.935       296.81945      405.62563      3840.7412      0.99696119
    984000  -1259.0965      213.28534     -1472.3818      280.59926      1217.5179      3840.7412      0.99696119
    985000  -1299.7564      215.51341     -1515.2698      283.53053     -542.97347      3840.7412      0.99696119
    986000  -1262.0503      215.70409     -1477.7544      283.78139      1379.6231      3840.7412      0.99696119
    987000  -1282.668       229.29005     -1511.9581      301.65514     -2198.6798      3840.7412      0.99696119
    988000  -1247.6279      220.56721     -1468.1951      290.17932     -1020.7454      3840.7412      0.99696119
    989000  -1256.4403      220.16392     -1476.6042      289.64875      1981.7277      3840.7412      0.99696119
    990000  -1289.5676      212.30279     -1501.8704      279.30661      91.510619      3840.7412      0.99696119
    991000  -1241.3398      235.37355     -1476.7134      309.65862      365.7725       3840.7412      0.99696119
    992000  -1215.2484      245.6311      -1460.8795      323.15351     -855.3621       3840.7412      0.99696119
    993000  -1265.9455      224.24577     -1490.1912      295.01885      2426.272       3840.7412      0.99696119
    994000  -1224.1623      226.18102     -1450.3433      297.56489     -66.983811      3840.7412      0.99696119
    995000  -1258.2485      225.86382     -1484.1123      297.14757      1376.7538      3840.7412      0.99696119
    996000  -1230.7972      230.09741     -1460.8946      302.71731      1085.321       3840.7412      0.99696119
    997000  -1253.8292      220.61948     -1474.4487      290.2481      -1461.923       3840.7412      0.99696119
    998000  -1233.3684      228.51482     -1461.8832      300.63524      1572.5794      3840.7412      0.99696119
    999000  -1258.61        220.1308      -1478.7408      289.60518      567.41642      3840.7412      0.99696119
   1000000  -1258.659       231.12679     -1489.7858      304.07157     -407.77207      3840.7412      0.99696119
Loop time of 1172.06 on 2 procs for 1000000 steps with 384 atoms

Performance: 73.717 ns/day, 0.326 hours/ns, 853.201 timesteps/s
99.6% CPU use with 2 MPI tasks x 1 OpenMP threads

MPI task timing breakdown:
Section |  min time  |  avg time  |  max time  |%varavg| %total
---------------------------------------------------------------
Pair    | 756.73     | 761.48     | 766.24     |  17.2 | 64.97
Bond    | 0.090912   | 0.096385   | 0.10186    |   1.8 |  0.01
Kspace  | 216.22     | 220.63     | 225.03     |  29.6 | 18.82
Neigh   | 55.67      | 55.671     | 55.671     |   0.0 |  4.75
Comm    | 77.366     | 77.856     | 78.347     |   5.6 |  6.64
Output  | 0.30625    | 0.30903    | 0.31181    |   0.5 |  0.03
Modify  | 52.929     | 52.997     | 53.065     |   0.9 |  4.52
Other   |            | 3.018      |            |       |  0.26

Nlocal:            192 ave         197 max         187 min
Histogram: 1 0 0 0 0 0 0 0 0 1
Nghost:           4850 ave        4870 max        4830 min
Histogram: 1 0 0 0 0 0 0 0 0 1
Neighs:          69373 ave       71760 max       66986 min
Histogram: 1 0 0 0 0 0 0 0 0 1

Total # of neighbors = 138746
Ave neighs/atom = 361.31771
Ave special neighs/atom = 2
Neighbor list builds = 34090
Dangerous builds = 0
# write data file
write_data data.after_eq.lmp
System init for write_data ...
PPPM initialization ...
  using 12-bit tables for long-range coulomb (src/kspace.cpp:342)
  G vector (1/distance) = 0.31203871
  grid = 15 15 15
  stencil order = 5
  estimated absolute RMS force accuracy = 0.0022228175
  estimated relative force accuracy = 6.6939488e-06
  using double precision FFTW3
  3d grid and FFT values/proc = 6776 1800
Generated 1 of 1 mixed pair_coeff terms from geometric mixing rule

# clean up
undump dEQUI

# production
# 2 ns
dump dPROD all custom 1000 prod.lammpstrj id element xu yu zu
dump_modify dPROD element H O sort id
run 2000000
PPPM initialization ...
  using 12-bit tables for long-range coulomb (src/kspace.cpp:342)
  G vector (1/distance) = 0.31203871
  grid = 15 15 15
  stencil order = 5
  estimated absolute RMS force accuracy = 0.0022228175
  estimated relative force accuracy = 6.6939488e-06
  using double precision FFTW3
  3d grid and FFT values/proc = 6776 1800
Generated 1 of 1 mixed pair_coeff terms from geometric mixing rule
Per MPI rank memory allocation (min/avg/max) = 9.719 | 9.719 | 9.719 Mbytes
   Step         TotEng         KinEng         PotEng          Temp          Press          Volume        Density
   1000000  -1258.659       231.12679     -1489.7858      304.07157     -407.23863      3840.7412      0.99696119
   1001000  -1272.8679      209.37737     -1482.2452      275.45791      1731.47        3840.7412      0.99696119
   1002000  -1276.7834      237.81738     -1514.6008      312.87373      1152.3699      3840.7412      0.99696119
   1003000  -1263.4378      241.13217     -1504.57        317.23469      145.36766      3840.7412      0.99696119
   1004000  -1248.5756      249.21672     -1497.7924      327.87077     -1133.5345      3840.7412      0.99696119
   1005000  -1282.8416      220.37513     -1503.2168      289.92662     -713.75918      3840.7412      0.99696119
   1006000  -1279.8262      228.77148     -1508.5977      300.9729      -27.483041      3840.7412      0.99696119
   1007000  -1264.724       234.67152     -1499.3955      308.73503      1891.0636      3840.7412      0.99696119
   1008000  -1278.1161      203.4191      -1481.5352      267.61918      506.47312      3840.7412      0.99696119
   1009000  -1238.5379      227.25842     -1465.7964      298.98231      1044.5758      3840.7412      0.99696119
   1010000  -1256.9133      240.44177     -1497.355       316.3264       112.42448      3840.7412      0.99696119
   1011000  -1255.6869      203.79425     -1459.4811      268.11274      905.46396      3840.7412      0.99696119
   1012000  -1234.9265      238.54984     -1473.4763      313.83736     -373.47503      3840.7412      0.99696119
   1013000  -1243.8783      230.98896     -1474.8673      303.89024      609.21236      3840.7412      0.99696119
   1014000  -1279.2874      208.84772     -1488.1352      274.7611      -2035.5206      3840.7412      0.99696119
   1015000  -1243.3405      218.52865     -1461.8692      287.49738      837.10143      3840.7412      0.99696119
   1016000  -1240.6885      239.34706     -1480.0355      314.88619     -13.190958      3840.7412      0.99696119
   1017000  -1246.6016      220.87445     -1467.4761      290.58353     -1373.2345      3840.7412      0.99696119
   1018000  -1257.6601      233.29326     -1490.9533      306.92178      647.51327      3840.7412      0.99696119
   1019000  -1277.5334      217.61895     -1495.1523      286.30058      474.16783      3840.7412      0.99696119
   1020000  -1253.1118      230.07629     -1483.1881      302.68952     -691.92764      3840.7412      0.99696119
   1021000  -1280.9225      219.33068     -1500.2531      288.55253     -798.02187      3840.7412      0.99696119
   1022000  -1267.3578      203.69323     -1471.051       267.97983     -2803.0739      3840.7412      0.99696119
   1023000  -1271.9578      219.86195     -1491.8197      289.25148     -72.185558      3840.7412      0.99696119
   1024000  -1263.1299      217.88423     -1481.0141      286.64958      992.88366      3840.7412      0.99696119
   1025000  -1254.3565      224.45131     -1478.8078      295.28927     -2835.7181      3840.7412      0.99696119
   1026000  -1238.022       232.90065     -1470.9227      306.40526      103.42264      3840.7412      0.99696119
   1027000  -1236.2214      225.2732      -1461.4946      296.37055     -709.43393      3840.7412      0.99696119
   1028000  -1261.6635      218.9449      -1480.6084      288.045       -82.904311      3840.7412      0.99696119
   1029000  -1271.8969      222.24901     -1494.1459      292.39191     -1586.7507      3840.7412      0.99696119
   1030000  -1264.6568      236.61285     -1501.2696      311.28905      73.01228       3840.7412      0.99696119
   1031000  -1249.1805      235.60815     -1484.7886      309.96726     -661.26832      3840.7412      0.99696119
   1032000  -1221.9517      249.07419     -1471.0259      327.68325      1136.6988      3840.7412      0.99696119
   1033000  -1253.8971      218.96515     -1472.8623      288.07165      63.356057      3840.7412      0.99696119
   1034000  -1223.8709      225.75698     -1449.6279      297.00702     -1587.9145      3840.7412      0.99696119
   1035000  -1250.7363      244.9337      -1495.67        322.236        1901.0387      3840.7412      0.99696119
   1036000  -1270.0545      231.37248     -1501.4269      304.39479      656.05585      3840.7412      0.99696119
   1037000  -1215.5601      251.68688     -1467.247       331.12052      2169.8129      3840.7412      0.99696119
   1038000  -1235.6562      224.87774     -1460.5339      295.85028     -138.32259      3840.7412      0.99696119
   1039000  -1255.2151      226.58341     -1481.7985      298.09427      841.3921       3840.7412      0.99696119
   1040000  -1273.0162      213.37654     -1486.3928      280.71924      1137.4243      3840.7412      0.99696119
   1041000  -1288.7586      208.1796      -1496.9382      273.88213      656.84207      3840.7412      0.99696119
   1042000  -1278.9007      222.30836     -1501.2091      292.46999     -799.51091      3840.7412      0.99696119
   1043000  -1226.4814      240.15308     -1466.6345      315.94659      362.22298      3840.7412      0.99696119
   1044000  -1256.2104      230.69512     -1486.9056      303.50366     -2016.7184      3840.7412      0.99696119
   1045000  -1241.8612      233.01453     -1474.8757      306.55509      450.6358       3840.7412      0.99696119
   1046000  -1269.3918      218.35615     -1487.748       287.27045      1090.7299      3840.7412      0.99696119
   1047000  -1274.2399      227.61662     -1501.8565      299.45356      628.90324      3840.7412      0.99696119
   1048000  -1230.5024      240.99023     -1471.4926      317.04795      977.14496      3840.7412      0.99696119
   1049000  -1279.8477      217.8207      -1497.6684      286.566        2848.9079      3840.7412      0.99696119
   1050000  -1247.2697      228.15836     -1475.428       300.16628     -684.48056      3840.7412      0.99696119
   1051000  -1271.8302      213.94088     -1485.7711      281.46169      169.66877      3840.7412      0.99696119
   1052000  -1267.8574      225.20453     -1493.062       296.2802      -243.16983      3840.7412      0.99696119
   1053000  -1259.2755      221.00564     -1480.2811      290.75613      306.09409      3840.7412      0.99696119
   1054000  -1265.7436      231.17669     -1496.9203      304.13721      879.24714      3840.7412      0.99696119
   1055000  -1245.454       232.24438     -1477.6984      305.54187     -738.58633      3840.7412      0.99696119
   1056000  -1218.0816      244.50627     -1462.5879      321.67367      923.84351      3840.7412      0.99696119
   1057000  -1245.7803      228.36901     -1474.1493      300.44341      1370.5717      3840.7412      0.99696119
   1058000  -1226.4957      235.61814     -1462.1138      309.98041     -831.82545      3840.7412      0.99696119
   1059000  -1277.8879      217.16529     -1495.0532      285.70375     -877.37277      3840.7412      0.99696119
   1060000  -1255.3511      219.26571     -1474.6168      288.46707     -1.7081658      3840.7412      0.99696119
   1061000  -1224.5333      234.80664     -1459.34        308.91279     -2180.2569      3840.7412      0.99696119
   1062000  -1288.8871      214.46198     -1503.3491      282.14726      43.469296      3840.7412      0.99696119
   1063000  -1235.9157      223.96879     -1459.8844      294.65446     -731.66697      3840.7412      0.99696119
   1064000  -1240.7625      222.97651     -1463.739       293.34901     -1375.5654      3840.7412      0.99696119
   1065000  -1264.2208      227.07595     -1491.2967      298.74226     -39.923858      3840.7412      0.99696119
   1066000  -1291.83        216.43342     -1508.2634      284.74089      1116.2645      3840.7412      0.99696119
   1067000  -1268.0554      234.4704      -1502.5258      308.47044      255.41733      3840.7412      0.99696119
   1068000  -1301.4663      210.24908     -1511.7154      276.60474     -351.60357      3840.7412      0.99696119
   1069000  -1265.5197      228.11523     -1493.6349      300.10953      2599.3479      3840.7412      0.99696119
   1070000  -1237.6351      245.67866     -1483.3137      323.21607      1188.6467      3840.7412      0.99696119
   1071000  -1275.3346      227.65333     -1502.9879      299.50186     -44.703018      3840.7412      0.99696119
   1072000  -1258.8449      228.5309      -1487.3758      300.65639      2203.9645      3840.7412      0.99696119
   1073000  -1237.8366      234.61896     -1472.4556      308.66587      1615.5583      3840.7412      0.99696119
   1074000  -1265.5167      225.63757     -1491.1542      296.84992      27.969879      3840.7412      0.99696119
   1075000  -1266.3863      229.04925     -1495.4355      301.33834      94.370514      3840.7412      0.99696119
   1076000  -1274.0028      209.29351     -1483.2963      275.34759      1829.4864      3840.7412      0.99696119
   1077000  -1259.9747      217.54565     -1477.5204      286.20415     -486.35173      3840.7412      0.99696119
   1078000  -1259.3565      239.47564     -1498.8321      315.05535     -564.27712      3840.7412      0.99696119
   1079000  -1276.3101      221.63272     -1497.9429      291.58111     -860.32754      3840.7412      0.99696119
   1080000  -1277.4811      211.12494     -1488.606       277.75702     -745.91458      3840.7412      0.99696119
   1081000  -1275.6268      233.63886     -1509.2656      307.37645     -247.43281      3840.7412      0.99696119
   1082000  -1304.4348      221.05169     -1525.4865      290.81671     -1977.5926      3840.7412      0.99696119
   1083000  -1275.6089      216.60384     -1492.2128      284.96509     -926.21883      3840.7412      0.99696119
   1084000  -1243.6653      234.14913     -1477.8144      308.04777     -999.06135      3840.7412      0.99696119
   1085000  -1265.7202      221.95805     -1487.6782      292.00912      747.88959      3840.7412      0.99696119
   1086000  -1239.7932      221.17207     -1460.9653      290.97508     -63.467155      3840.7412      0.99696119
   1087000  -1238.072       246.52638     -1484.5983      324.33134      372.22614      3840.7412      0.99696119
   1088000  -1277.1614      221.06584     -1498.2272      290.83532      385.69843      3840.7412      0.99696119
   1089000  -1270.2147      225.82675     -1496.0414      297.09881     -696.70124      3840.7412      0.99696119
   1090000  -1253.0129      228.98702     -1482           301.25647      834.20231      3840.7412      0.99696119
   1091000  -1259.7429      236.0988      -1495.8417      310.61277     -104.64116      3840.7412      0.99696119
   1092000  -1274.7091      233.56963     -1508.2787      307.28538      440.54656      3840.7412      0.99696119
   1093000  -1261.1275      231.18075     -1492.3083      304.14256     -1425.3951      3840.7412      0.99696119
   1094000  -1274.0595      216.88285     -1490.9423      285.33216      616.24897      3840.7412      0.99696119
   1095000  -1273.5514      229.42514     -1502.9766      301.83286      882.51963      3840.7412      0.99696119
   1096000  -1290.1765      209.27277     -1499.4493      275.3203      -582.10028      3840.7412      0.99696119
   1097000  -1251.8549      235.98018     -1487.8351      310.45671     -255.72602      3840.7412      0.99696119
   1098000  -1245.6669      241.0256      -1486.6925      317.09448     -238.9999       3840.7412      0.99696119
   1099000  -1278.7162      223.66236     -1502.3785      294.25133      948.19999      3840.7412      0.99696119
   1100000  -1232.6419      239.21574     -1471.8577      314.71342     -360.48776      3840.7412      0.99696119
   1101000  -1239.7025      214.09923     -1453.8018      281.67003     -580.03821      3840.7412      0.99696119
   1102000  -1238.4906      242.88254     -1481.3732      319.53749      397.10413      3840.7412      0.99696119
   1103000  -1244.166       230.73047     -1474.8965      303.55016      1795.2513      3840.7412      0.99696119
   1104000  -1242.3707      236.85496     -1479.2257      311.60757      1244.3363      3840.7412      0.99696119
   1105000  -1230.1326      235.29645     -1465.429       309.55719     -99.370401      3840.7412      0.99696119
   1106000  -1265.5215      220.79804     -1486.3196      290.48301     -846.77969      3840.7412      0.99696119
   1107000  -1271.6671      213.70345     -1485.3706      281.14933     -1530.1669      3840.7412      0.99696119
   1108000  -1278.511       232.45103     -1510.9621      305.81374      264.04006      3840.7412      0.99696119
   1109000  -1258.1184      240.96598     -1499.0844      317.01606      31.87257       3840.7412      0.99696119
   1110000  -1235.1069      233.86359     -1468.9705      307.67211     -1525.1383      3840.7412      0.99696119
   1111000  -1283.166       234.61197     -1517.778       308.65668     -1010.9727      3840.7412      0.99696119
   1112000  -1270.5767      223.57125     -1494.1479      294.13145     -1579.5401      3840.7412      0.99696119
   1113000  -1244.2327      241.48606     -1485.7187      317.70027      1065.9283      3840.7412      0.99696119
   1114000  -1295.8182      212.6396      -1508.4578      279.74972     -554.16002      3840.7412      0.99696119
   1115000  -1259.7616      220.27687     -1480.0384      289.79735     -402.00796      3840.7412      0.99696119
   1116000  -1271.359       220.71742     -1492.0764      290.37695      386.03797      3840.7412      0.99696119
   1117000  -1245.572       224.15142     -1469.7234      294.89473      625.38857      3840.7412      0.99696119
   1118000  -1279.1751      220.63044     -1499.8055      290.26251      356.44515      3840.7412      0.99696119
   1119000  -1234.4232      231.35272     -1465.7759      304.36879     -1399.3785      3840.7412      0.99696119
   1120000  -1232.5394      234.62392     -1467.1633      308.6724       604.19138      3840.7412      0.99696119
   1121000  -1272.797       216.26461     -1489.0616      284.5188       1223.2961      3840.7412      0.99696119
   1122000  -1232.3466      235.98271     -1468.3293      310.46003      334.9123       3840.7412      0.99696119
   1123000  -1230.6629      212.43815     -1443.1011      279.48469      618.94235      3840.7412      0.99696119
   1124000  -1203.7214      241.10507     -1444.8265      317.19903     -573.24527      3840.7412      0.99696119
   1125000  -1250.6122      234.56385     -1485.1761      308.59337      967.63238      3840.7412      0.99696119
   1126000  -1231.0242      251.65302     -1482.6772      331.07598     -755.62527      3840.7412      0.99696119
   1127000  -1265.4361      226.40341     -1491.8395      297.85746      1137.168       3840.7412      0.99696119
   1128000  -1222.0989      235.99543     -1458.0944      310.47677     -39.685826      3840.7412      0.99696119
   1129000  -1221.4139      228.05133     -1449.4653      300.02548      1813.3076      3840.7412      0.99696119
   1130000  -1276.8336      213.73802     -1490.5716      281.19481      1999.7837      3840.7412      0.99696119
   1131000  -1232.5246      233.22123     -1465.7459      306.82702      294.18398      3840.7412      0.99696119
   1132000  -1255.0075      221.40651     -1476.414       291.28351      82.291346      3840.7412      0.99696119
   1133000  -1227.2316      248.92309     -1476.1547      327.48446     -300.29965      3840.7412      0.99696119
   1134000  -1222.1053      227.82195     -1449.9273      299.7237       1539.3943      3840.7412      0.99696119
   1135000  -1202.4187      249.38513     -1451.8038      328.09232      30.769616      3840.7412      0.99696119
   1136000  -1257.5273      212.57501     -1470.1023      279.66475     -665.95981      3840.7412      0.99696119
   1137000  -1256.0063      239.00565     -1495.012       314.43702      483.40605      3840.7412      0.99696119
   1138000  -1269.2939      231.49856     -1500.7925      304.56066      75.58268       3840.7412      0.99696119
   1139000  -1258.8351      222.10646     -1480.9416      292.20437      1190.3919      3840.7412      0.99696119
   1140000  -1233.6929      232.92216     -1466.6151      306.43356     -543.95473      3840.7412      0.99696119
   1141000  -1247.5424      211.10578     -1458.6482      277.73182      362.16667      3840.7412      0.99696119
   1142000  -1211.7965      241.13542     -1452.9319      317.23896      470.13156      3840.7412      0.99696119
   1143000  -1205.3138      241.32315     -1446.6369      317.48594     -271.2835       3840.7412      0.99696119
   1144000  -1247.2472      216.09201     -1463.3393      284.29174     -423.09222      3840.7412      0.99696119
   1145000  -1284.2988      216.06332     -1500.3621      284.25399      1066.2585      3840.7412      0.99696119
   1146000  -1272.6133      220.86251     -1493.4758      290.56783     -510.38444      3840.7412      0.99696119
   1147000  -1293.2821      195.63929     -1488.9214      257.38404      760.1831       3840.7412      0.99696119
   1148000  -1231.8156      229.50123     -1461.3169      301.93296     -297.2354       3840.7412      0.99696119
   1149000  -1235.6394      231.18984     -1466.8292      304.15452      1225.8474      3840.7412      0.99696119
   1150000  -1244.562       214.64485     -1459.2069      282.38784     -632.64852      3840.7412      0.99696119
   1151000  -1248.0738      200.29843     -1448.3723      263.51362     -1105.4269      3840.7412      0.99696119
   1152000  -1274.6442      221.61221     -1496.2564      291.55413     -1177.0323      3840.7412      0.99696119
   1153000  -1258.4289      219.18872     -1477.6176      288.36578      1643.9644      3840.7412      0.99696119
   1154000  -1284.639       224.71707     -1509.3561      295.6389      -1411.5634      3840.7412      0.99696119
   1155000  -1212.8975      224.51206     -1437.4096      295.36919     -16.782714      3840.7412      0.99696119
   1156000  -1239.6975      238.80285     -1478.5004      314.17023      2899.4677      3840.7412      0.99696119
   1157000  -1271.166       212.00955     -1483.1755      278.92083     -500.88038      3840.7412      0.99696119
   1158000  -1302.8087      207.14812     -1509.9569      272.5251       329.64757      3840.7412      0.99696119
   1159000  -1246.894       206.57889     -1453.4729      271.77622      1475.5437      3840.7412      0.99696119
   1160000  -1242.9186      222.78868     -1465.7073      293.1019       127.66954      3840.7412      0.99696119
   1161000  -1193.1681      254.53409     -1447.7022      334.86632      1495.859       3840.7412      0.99696119
   1162000  -1303.2157      217.11633     -1520.3321      285.63933      829.8217       3840.7412      0.99696119
   1163000  -1262.7974      231.48592     -1494.2833      304.54404      24.224932      3840.7412      0.99696119
   1164000  -1256.502       231.7979      -1488.2999      304.95447     -182.48584      3840.7412      0.99696119
   1165000  -1260.8621      238.95771     -1499.8198      314.37396     -77.433698      3840.7412      0.99696119
   1166000  -1242.2987      225.79998     -1468.0986      297.06358      207.39574      3840.7412      0.99696119
   1167000  -1276.2294      216.50769     -1492.7371      284.8386       801.38357      3840.7412      0.99696119
   1168000  -1272.3791      223.85767     -1496.2368      294.50828      1924.142       3840.7412      0.99696119
   1169000  -1248.3666      223.14557     -1471.5122      293.57142      1499.8878      3840.7412      0.99696119
   1170000  -1284.6714      224.25708     -1508.9285      295.03373      247.72224      3840.7412      0.99696119
   1171000  -1233.7473      246.43816     -1480.1855      324.21528      20.063286      3840.7412      0.99696119
   1172000  -1294.4123      208.36042     -1502.7727      274.12002     -339.72284      3840.7412      0.99696119
   1173000  -1247.8148      251.31504     -1499.1299      330.63132     -868.65967      3840.7412      0.99696119
   1174000  -1245.3738      230.99699     -1476.3708      303.9008       199.28981      3840.7412      0.99696119
   1175000  -1272.8262      218.53993     -1491.3661      287.51222     -1548.1095      3840.7412      0.99696119
   1176000  -1250.0247      212.04603     -1462.0707      278.96882      100.80043      3840.7412      0.99696119
   1177000  -1242.4246      246.25848     -1488.6831      323.97889      546.13068      3840.7412      0.99696119
   1178000  -1260.7957      228.23231     -1489.028       300.26356     -290.21194      3840.7412      0.99696119
   1179000  -1266.922       208.70984     -1475.6318      274.57971      99.414575      3840.7412      0.99696119
   1180000  -1256.6547      229.54103     -1486.1957      301.98533      929.06415      3840.7412      0.99696119
   1181000  -1293.3585      220.95199     -1514.3105      290.68555     -34.229345      3840.7412      0.99696119
   1182000  -1262.0355      234.49635     -1496.5319      308.50458      3703.2926      3840.7412      0.99696119
   1183000  -1275.1051      228.72526     -1503.8304      300.91209     -99.048734      3840.7412      0.99696119
   1184000  -1260.5662      216.95017     -1477.5164      285.42073     -639.89262      3840.7412      0.99696119
   1185000  -1240.4815      237.52355     -1478.0051      312.48717     -150.8695       3840.7412      0.99696119
   1186000  -1252.1186      233.97376     -1486.0924      307.81705      1010.9168      3840.7412      0.99696119
   1187000  -1217.0923      249.49974     -1466.5921      328.2431      -1633.5189      3840.7412      0.99696119
   1188000  -1313.2533      204.84333     -1518.0967      269.49291     -576.45362      3840.7412      0.99696119
   1189000  -1252.9818      225.64375     -1478.6256      296.85805     -738.07559      3840.7412      0.99696119
   1190000  -1261.084       232.07146     -1493.1555      305.31437      118.31944      3840.7412      0.99696119
   1191000  -1269.5579      225.2606      -1494.8185      296.35397      2128.6924      3840.7412      0.99696119
   1192000  -1259.1682      216.33336     -1475.5016      284.60925     -117.32594      3840.7412      0.99696119
   1193000  -1270.3943      211.2536      -1481.648       277.9263      -333.95896      3840.7412      0.99696119
   1194000  -1247.2905      229.40471     -1476.6952      301.80599     -753.79076      3840.7412      0.99696119
   1195000  -1281.608       224.47342     -1506.0814      295.31836      845.49975      3840.7412      0.99696119
   1196000  -1235.1598      232.97972     -1468.1395      306.50929      2961.1798      3840.7412      0.99696119
   1197000  -1292.3103      223.76763     -1516.0779      294.38982      1707.9525      3840.7412      0.99696119
   1198000  -1266.3906      222.62682     -1489.0174      292.88896      692.50585      3840.7412      0.99696119
   1199000  -1259.0488      240.86757     -1499.9164      316.88658      1311.5908      3840.7412      0.99696119
   1200000  -1273.5074      221.82476     -1495.3321      291.83376     -776.94907      3840.7412      0.99696119
   1201000  -1257.4253      226.34096     -1483.7662      297.7753       789.94557      3840.7412      0.99696119
   1202000  -1251.3815      213.54277     -1464.9243      280.93794     -334.9202       3840.7412      0.99696119
   1203000  -1252.7988      220.81052     -1473.6093      290.49942     -368.97162      3840.7412      0.99696119
   1204000  -1276.1973      237.60679     -1513.8041      312.59668      1432.6722      3840.7412      0.99696119
   1205000  -1278.8334      225.13883     -1503.9722      296.19377      1152.3115      3840.7412      0.99696119
   1206000  -1263.5224      230.54831     -1494.0707      303.31052     -550.42039      3840.7412      0.99696119
   1207000  -1238.2994      231.45565     -1469.755       304.50421      239.03607      3840.7412      0.99696119
   1208000  -1264.2937      226.97169     -1491.2654      298.60509     -23.985575      3840.7412      0.99696119
   1209000  -1266.0501      225.99825     -1492.0483      297.32443      481.0836       3840.7412      0.99696119
   1210000  -1227.527       220.42915     -1447.9561      289.99769      3032.643       3840.7412      0.99696119
   1211000  -1249.6532      222.04602     -1471.6992      292.12485     -1056.7828      3840.7412      0.99696119
   1212000  -1225.6631      245.69082     -1471.3539      323.23208     -1294.0485      3840.7412      0.99696119
   1213000  -1224.0481      244.82929     -1468.8774      322.09864     -115.35434      3840.7412      0.99696119
   1214000  -1264.8225      223.63702     -1488.4595      294.21798     -883.60902      3840.7412      0.99696119
   1215000  -1204.3008      236.59263     -1440.8934      311.26245      857.1516       3840.7412      0.99696119
   1216000  -1247.7906      222.35108     -1470.1416      292.5262       1077.5891      3840.7412      0.99696119
   1217000  -1243.3041      219.44576     -1462.7499      288.70395      147.64729      3840.7412      0.99696119
   1218000  -1237.561       235.29657     -1472.8576      309.55735     -1425.9309      3840.7412      0.99696119
   1219000  -1237.6741      229.33134     -1467.0055      301.70946      3238.8295      3840.7412      0.99696119
   1220000  -1251.4054      233.70492     -1485.1103      307.46337      218.9867       3840.7412      0.99696119
   1221000  -1261.37        223.57905     -1484.9491      294.14172      710.24422      3840.7412      0.99696119
   1222000  -1228.1555      241.37087     -1469.5264      317.54873      2890.7803      3840.7412      0.99696119
   1223000  -1240.7603      212.87498     -1453.6353      280.0594       1794.5057      3840.7412      0.99696119
   1224000  -1249.5655      233.1057      -1482.6712      306.67503      1830.9931      3840.7412      0.99696119
   1225000  -1246.1797      226.01371     -1472.1934      297.34477      3484.0387      3840.7412      0.99696119
   1226000  -1249.719       236.49356     -1486.2125      311.13211     -983.72692      3840.7412      0.99696119
   1227000  -1249.0558      228.63431     -1477.6901      300.79244     -491.50167      3840.7412      0.99696119
   1228000  -1271.1362      213.31531     -1484.4516      280.63869     -640.10556      3840.7412      0.99696119
   1229000  -1261.6013      216.04775     -1477.6491      284.23351      903.65953      3840.7412      0.99696119
   1230000  -1258.851       239.1421      -1497.9931      314.61655      1066.2276      3840.7412      0.99696119
   1231000  -1279.0002      216.48001     -1495.4802      284.80219      2232.632       3840.7412      0.99696119
   1232000  -1267.0258      236.62706     -1503.6528      311.30775      941.21536      3840.7412      0.99696119
   1233000  -1286.5903      233.1085      -1519.6988      306.67871      1050.1058      3840.7412      0.99696119
   1234000  -1282.3655      217.97033     -1500.3358      286.76286      182.98487      3840.7412      0.99696119
   1235000  -1232.8547      228.33588     -1461.1906      300.39983      162.79403      3840.7412      0.99696119
   1236000  -1252.6629      230.96581     -1483.6287      303.85977      419.74401      3840.7412      0.99696119
   1237000  -1283.0096      229.62501     -1512.6346      302.09582     -1747.5015      3840.7412      0.99696119
   1238000  -1310.0981      211.37984     -1521.478       278.09238      1746.4018      3840.7412      0.99696119
   1239000  -1238.9343      237.37908     -1476.3134      312.29711      71.940878      3840.7412      0.99696119
   1240000  -1270.5864      239.05362     -1509.64        314.50013     -410.49492      3840.7412      0.99696119
   1241000  -1268.15        238.87703     -1507.027       314.26782      1997.8079      3840.7412      0.99696119
   1242000  -1296.9441      217.31765     -1514.2617      285.90419     -794.62299      3840.7412      0.99696119
   1243000  -1220.6983      239.34894     -1460.0472      314.88866      1144.517       3840.7412      0.99696119
   1244000  -1238.5082      249.54732     -1488.0555      328.3057       1007.4804      3840.7412      0.99696119
   1245000  -1266.9096      212.61213     -1479.5218      279.71358      339.87981      3840.7412      0.99696119
   1246000  -1244.5291      229.65584     -1474.185       302.13637     -950.53808      3840.7412      0.99696119
   1247000  -1204.8454      226.52133     -1431.3667      298.01259     -371.60996      3840.7412      0.99696119
   1248000  -1235.9658      228.00334     -1463.9691      299.96233      742.22036      3840.7412      0.99696119
   1249000  -1253.3827      222.78331     -1476.166       293.09483      498.47818      3840.7412      0.99696119
   1250000  -1240.7248      241.74341     -1482.4682      318.03884     -121.38658      3840.7412      0.99696119
   1251000  -1238.0317      224.0587      -1462.0904      294.77274      188.4075       3840.7412      0.99696119
   1252000  -1257.5322      216.34501     -1473.8772      284.62457      362.70503      3840.7412      0.99696119
   1253000  -1274.8427      222.70798     -1497.5507      292.99573     -653.64269      3840.7412      0.99696119
   1254000  -1258.1104      226.84366     -1484.9541      298.43666     -1192.6114      3840.7412      0.99696119
   1255000  -1243.6764      227.29049     -1470.9669      299.02451      486.75382      3840.7412      0.99696119
   1256000  -1218.0964      265.99771     -1484.0941      349.94792      1013.1568      3840.7412      0.99696119
   1257000  -1274.3877      216.16563     -1490.5533      284.38858     -1081.31        3840.7412      0.99696119
   1258000  -1222.9654      241.38034     -1464.3458      317.56118      128.73263      3840.7412      0.99696119
   1259000  -1206.8172      252.18008     -1458.9972      331.76938      514.26338      3840.7412      0.99696119
   1260000  -1258.158       226.37388     -1484.5318      297.81861     -800.20369      3840.7412      0.99696119
   1261000  -1274.2763      214.18275     -1488.459       281.7799       1502.2749      3840.7412      0.99696119
   1262000  -1293.2625      208.29278     -1501.5553      274.03103     -63.133813      3840.7412      0.99696119
   1263000  -1265.5497      232.77025     -1498.32        306.2337       603.68629      3840.7412      0.99696119
   1264000  -1246.0485      242.04262     -1488.0911      318.43248      1411.8057      3840.7412      0.99696119
   1265000  -1243.5573      240.35491     -1483.9123      316.21212      3382.8896      3840.7412      0.99696119
   1266000  -1228.8795      228.36462     -1457.2441      300.43764      1301.9104      3840.7412      0.99696119
   1267000  -1276.9451      225.99215     -1502.9372      297.31641      1045.1905      3840.7412      0.99696119
   1268000  -1301.0178      202.39197     -1503.4097      266.26788     -837.90558      3840.7412      0.99696119
   1269000  -1258.8953      216.10328     -1474.9986      284.30656     -144.79873      3840.7412      0.99696119
   1270000  -1246.1441      225.32968     -1471.4738      296.44486     -1716.0248      3840.7412      0.99696119
   1271000  -1259.2577      232.58209     -1491.8398      305.98616     -10.918217      3840.7412      0.99696119
   1272000  -1269.8004      221.59368     -1491.3941      291.52976      1352.4458      3840.7412      0.99696119
   1273000  -1277.3853      226.83716     -1504.2225      298.42811     -662.99859      3840.7412      0.99696119
   1274000  -1250.3768      246.15417     -1496.531       323.84166      419.1518       3840.7412      0.99696119
   1275000  -1260.7799      224.37989     -1485.1598      295.1953       97.875745      3840.7412      0.99696119
   1276000  -1238.4627      213.19791     -1451.6606      280.48424      1737.218       3840.7412      0.99696119
   1277000  -1240.5802      226.07541     -1466.6556      297.42594      1637.0259      3840.7412      0.99696119
   1278000  -1254.2791      248.81254     -1503.0916      327.33902     -545.15095      3840.7412      0.99696119
   1279000  -1234.9533      232.57257     -1467.5259      305.97364     -243.24036      3840.7412      0.99696119
   1280000  -1269.14        226.72411     -1495.8641      298.27937      1595.7301      3840.7412      0.99696119
   1281000  -1237.2633      228.20552     -1465.4689      300.22832      320.88469      3840.7412      0.99696119
   1282000  -1263.9447      217.30871     -1481.2534      285.89242     -1124.7693      3840.7412      0.99696119
   1283000  -1273.7162      222.04305     -1495.7592      292.12095      1265.2559      3840.7412      0.99696119
   1284000  -1249.9637      206.25064     -1456.2143      271.34437      588.33647      3840.7412      0.99696119
   1285000  -1275.7651      221.39002     -1497.1551      291.26181     -14.626967      3840.7412      0.99696119
   1286000  -1259.6314      214.35745     -1473.9888      282.00973      970.06326      3840.7412      0.99696119
   1287000  -1274.0306      216.32265     -1490.3532      284.59516     -47.135155      3840.7412      0.99696119
   1288000  -1221.0565      242.25473     -1463.3112      318.71153     -742.53657      3840.7412      0.99696119
   1289000  -1218.3529      213.15642     -1431.5093      280.42965     -1428.3636      3840.7412      0.99696119
   1290000  -1230.3659      230.38468     -1460.7506      303.09524      22.39585       3840.7412      0.99696119
   1291000  -1221.2551      228.57429     -1449.8294      300.71348      433.05659      3840.7412      0.99696119
   1292000  -1235.5474      248.18582     -1483.7332      326.5145      -646.65413      3840.7412      0.99696119
   1293000  -1254.0925      230.54139     -1484.6339      303.30141      241.94756      3840.7412      0.99696119
   1294000  -1248.8927      221.20487     -1470.0975      291.01823     -242.89663      3840.7412      0.99696119
   1295000  -1265.3169      221.26625     -1486.5832      291.09899     -208.93608      3840.7412      0.99696119
   1296000  -1247.3514      230.94946     -1478.3009      303.83827      954.41525      3840.7412      0.99696119
   1297000  -1263.7812      221.07482     -1484.856       290.84713     -1468.0662      3840.7412      0.99696119
   1298000  -1274.2693      219.46673     -1493.7361      288.73153      1559.1705      3840.7412      0.99696119
   1299000  -1229.4723      242.27156     -1471.7438      318.73368      2983.7426      3840.7412      0.99696119
   1300000  -1265.7833      230.50981     -1496.2931      303.25985      592.25324      3840.7412      0.99696119
   1301000  -1229.064       233.88449     -1462.9485      307.69961      1153.005       3840.7412      0.99696119
   1302000  -1247.8162      221.67577     -1469.4919      291.63775      356.235        3840.7412      0.99696119
   1303000  -1256.696       229.51119     -1486.2072      301.94607      1369.8159      3840.7412      0.99696119
   1304000  -1267.2273      229.48004     -1496.7074      301.90509      2270.1017      3840.7412      0.99696119
   1305000  -1250.2447      231.8746      -1482.1193      305.05539      62.548438      3840.7412      0.99696119
   1306000  -1258.7843      247.00489     -1505.7891      324.96087      3258.4268      3840.7412      0.99696119
   1307000  -1250.1661      224.15827     -1474.3243      294.90374     -739.40917      3840.7412      0.99696119
   1308000  -1235.271       233.74722     -1469.0182      307.51901      1295.4822      3840.7412      0.99696119
   1309000  -1261.7985      221.80515     -1483.6036      291.80797      2283.2506      3840.7412      0.99696119
   1310000  -1296.1271      188.93218     -1485.0593      248.56012     -2341.3024      3840.7412      0.99696119
   1311000  -1228.9392      259.59596     -1488.5351      341.52574      245.39052      3840.7412      0.99696119
   1312000  -1264.3622      239.14277     -1503.505       314.61743      2081.1421      3840.7412      0.99696119
   1313000  -1300.0291      227.65046     -1527.6796      299.49809     -631.09619      3840.7412      0.99696119
   1314000  -1247.1793      212.70107     -1459.8804      279.8306      -1208.8315      3840.7412      0.99696119
   1315000  -1264.5755      244.4212      -1508.9967      321.56175      1906.7123      3840.7412      0.99696119
   1316000  -1229.7038      219.94824     -1449.6521      289.36501      796.78312      3840.7412      0.99696119
   1317000  -1233.8679      230.31606     -1464.184       303.00496     -861.5979       3840.7412      0.99696119
   1318000  -1276.2711      215.44063     -1491.7117      283.43478      1171.0948      3840.7412      0.99696119
   1319000  -1234.7839      247.09842     -1481.8823      325.08392      1275.0471      3840.7412      0.99696119
   1320000  -1259.935       220.01692     -1479.952       289.45537      1987.6856      3840.7412      0.99696119
   1321000  -1240.4636      224.74158     -1465.2052      295.67115      1103.0105      3840.7412      0.99696119
   1322000  -1246.429       219.64039     -1466.0694      288.95999     -577.17815      3840.7412      0.99696119
   1323000  -1210.7821      227.44355     -1438.2256      299.22587     -867.16915      3840.7412      0.99696119
   1324000  -1267.2951      223.97132     -1491.2664      294.65779     -2726.1653      3840.7412      0.99696119
   1325000  -1264.6804      220.07438     -1484.7548      289.53095      697.28291      3840.7412      0.99696119
   1326000  -1255.7913      233.69916     -1489.4904      307.45579      945.03091      3840.7412      0.99696119
   1327000  -1286.7672      223.03154     -1509.7987      293.42141      421.64148      3840.7412      0.99696119
   1328000  -1242.9451      238.03748     -1480.9825      313.16331      986.11531      3840.7412      0.99696119
   1329000  -1276.8282      231.25942     -1508.0877      304.24605     -209.48773      3840.7412      0.99696119
   1330000  -1235.0779      242.86738     -1477.9453      319.51755     -1259.6858      3840.7412      0.99696119
   1331000  -1267.6932      194.64176     -1462.335       256.07167     -989.11983      3840.7412      0.99696119
   1332000  -1252.1015      228.95566     -1481.0572      301.21521     -325.46501      3840.7412      0.99696119
   1333000  -1247.5439      223.52322     -1471.0672      294.06827      3000.1139      3840.7412      0.99696119
   1334000  -1235.5921      239.8907      -1475.4828      315.6014       1456.0246      3840.7412      0.99696119
   1335000  -1247.4882      218.94299     -1466.4311      288.0425       2423.7244      3840.7412      0.99696119
   1336000  -1251.9122      216.42634     -1468.3386      284.73157     -1079.1476      3840.7412      0.99696119
   1337000  -1263.2902      235.49367     -1498.7838      309.81664      113.02369      3840.7412      0.99696119
   1338000  -1259.7668      219.63341     -1479.4002      288.95081     -383.24122      3840.7412      0.99696119
   1339000  -1232.1859      236.40796     -1468.5939      311.0195       736.9027       3840.7412      0.99696119
   1340000  -1272.3205      208.16215     -1480.4826      273.85917      659.36588      3840.7412      0.99696119
   1341000  -1242.9221      229.2655      -1472.1876      301.62284      1345.1767      3840.7412      0.99696119
   1342000  -1271.8541      220.30617     -1492.1602      289.8359       507.4369       3840.7412      0.99696119
   1343000  -1279.3494      229.41112     -1508.7605      301.81442     -821.29084      3840.7412      0.99696119
   1344000  -1275.9794      214.1769      -1490.1563      281.7722      -610.03332      3840.7412      0.99696119
   1345000  -1290.3375      228.00883     -1518.3463      299.96956      602.30254      3840.7412      0.99696119
   1346000  -1288.2957      223.60255     -1511.8983      294.17263      1326.0504      3840.7412      0.99696119
   1347000  -1264.8364      221.04114     -1485.8775      290.80283     -302.96823      3840.7412      0.99696119
   1348000  -1264.3825      222.17685     -1486.5593      292.29697      1313.9013      3840.7412      0.99696119
   1349000  -1255.9048      228.11725     -1484.0221      300.1122       828.61546      3840.7412      0.99696119
   1350000  -1276.6391      218.42699     -1495.0661      287.36364     -424.64171      3840.7412      0.99696119
   1351000  -1255.1052      205.84265     -1460.9479      270.80761      1598.2335      3840.7412      0.99696119
   1352000  -1247.7828      219.04226     -1466.825       288.17309     -350.87238      3840.7412      0.99696119
   1353000  -1244.1624      240.13353     -1484.296       315.92088      83.92467       3840.7412      0.99696119
   1354000  -1269.074       215.87659     -1484.9505      284.00832      1198.7753      3840.7412      0.99696119
   1355000  -1247.4398      227.08695     -1474.5268      298.75673     -761.89527      3840.7412      0.99696119
   1356000  -1238.605       234.4887      -1473.0937      308.49451      794.13726      3840.7412      0.99696119
   1357000  -1267.9458      209.35599     -1477.3018      275.42979      152.07379      3840.7412      0.99696119
   1358000  -1277.5462      233.27626     -1510.8224      306.89942      1368.1236      3840.7412      0.99696119
   1359000  -1274.9256      221.75971     -1496.6853      291.74818     -1483.248       3840.7412      0.99696119
   1360000  -1253.3884      235.69913     -1489.0875      310.08695      1226.2395      3840.7412      0.99696119
   1361000  -1210.7543      258.5717      -1469.326       340.17822      2186.9879      3840.7412      0.99696119
   1362000  -1241.3986      211.52046     -1452.9191      278.27737      1274.6135      3840.7412      0.99696119
   1363000  -1299.8373      225.39833     -1525.2356      296.53518      38.003768      3840.7412      0.99696119
   1364000  -1270.4545      225.43552     -1495.8901      296.5841      -615.28896      3840.7412      0.99696119
   1365000  -1229.0126      248.57433     -1477.587       327.02563     -754.34236      3840.7412      0.99696119
   1366000  -1292.3596      228.76069     -1521.1203      300.95871      337.88321      3840.7412      0.99696119
   1367000  -1235.8484      241.71327     -1477.5617      317.99919      278.10573      3840.7412      0.99696119
   1368000  -1254.5577      213.13642     -1467.6941      280.40334      478.95745      3840.7412      0.99696119
   1369000  -1267.3836      229.78581     -1497.1694      302.30737      318.4639       3840.7412      0.99696119
   1370000  -1270.023       216.76436     -1486.7873      285.17628      1429.4083      3840.7412      0.99696119
   1371000  -1262.0576      222.43487     -1484.4925      292.63643      218.17147      3840.7412      0.99696119
   1372000  -1246.813       220.77533     -1467.5883      290.45313     -1759.7559      3840.7412      0.99696119
   1373000  -1269.7617      224.21785     -1493.9796      294.98212      281.95942      3840.7412      0.99696119
   1374000  -1263.3886      214.10501     -1477.4937      281.67763      284.86053      3840.7412      0.99696119
   1375000  -1259.651       233.39982     -1493.0508      307.06197      615.65573      3840.7412      0.99696119
   1376000  -1255.9608      231.86633     -1487.8271      305.04451      882.07947      3840.7412      0.99696119
   1377000  -1259.6358      225.02174     -1484.6575      296.03973      384.56252      3840.7412      0.99696119
   1378000  -1247.4218      229.32929     -1476.7511      301.70676     -1622.3161      3840.7412      0.99696119
   1379000  -1215.9581      261.10416     -1477.0623      343.50994      874.53548      3840.7412      0.99696119
   1380000  -1277.9531      201.24018     -1479.1933      264.75258      713.15625      3840.7412      0.99696119
   1381000  -1273.7789      220.89783     -1494.6768      290.61429     -722.14416      3840.7412      0.99696119
   1382000  -1262.5954      206.02599     -1468.6214      271.04883     -739.88889      3840.7412      0.99696119
   1383000  -1235.5712      229.61288     -1465.184       302.07985      1571.1501      3840.7412      0.99696119
   1384000  -1242.9126      238.95307     -1481.8657      314.36786      45.924026      3840.7412      0.99696119
   1385000  -1247.4068      216.08373     -1463.4906      284.28084     -45.365327      3840.7412      0.99696119
   1386000  -1278.3451      214.42584     -1492.7709      282.09971      1426.6718      3840.7412      0.99696119
   1387000  -1278.5357      245.98243     -1524.5181      323.61571      626.20006      3840.7412      0.99696119
   1388000  -1255.9204      226.79507     -1482.7155      298.37273      450.66784      3840.7412      0.99696119
   1389000  -1225.8828      231.15953     -1457.0423      304.11464     -1085.0803      3840.7412      0.99696119
   1390000  -1269.3502      222.3702      -1491.7204      292.55135      403.61411      3840.7412      0.99696119
   1391000  -1251.4885      217.08596     -1468.5744      285.59937     -192.69085      3840.7412      0.99696119
   1392000  -1237.7536      240.84709     -1478.6007      316.85964     -387.75875      3840.7412      0.99696119
   1393000  -1243.2216      233.03497     -1476.2565      306.58198     -655.97885      3840.7412      0.99696119
   1394000  -1279.7445      219.57025     -1499.3147      288.86772      288.8066       3840.7412      0.99696119
   1395000  -1235.0144      219.85704     -1454.8714      289.24502      361.30487      3840.7412      0.99696119
   1396000  -1227.3183      231.04027     -1458.3586      303.95773      554.65557      3840.7412      0.99696119
   1397000  -1234.1716      236.2311      -1470.4027      310.78682      142.03873      3840.7412      0.99696119
   1398000  -1246.4         229.39003     -1475.7901      301.78667      855.96932      3840.7412      0.99696119
   1399000  -1266.7476      216.57492     -1483.3225      284.92705     -498.20001      3840.7412      0.99696119
   1400000  -1255.1101      225.22795     -1480.3381      296.31102     -890.32455      3840.7412      0.99696119
   1401000  -1291.7317      215.10703     -1506.8387      282.99588      1263.5467      3840.7412      0.99696119
   1402000  -1232.8108      244.50499     -1477.3158      321.67199     -883.10818      3840.7412      0.99696119
   1403000  -1243.3509      235.73365     -1479.0845      310.13237      376.12385      3840.7412      0.99696119
   1404000  -1249.5776      227.54194     -1477.1196      299.35532      2553.1753      3840.7412      0.99696119
   1405000  -1257.2701      210.51518     -1467.7853      276.95482      681.19782      3840.7412      0.99696119
   1406000  -1243.2706      238.56276     -1481.8334      313.85436     -364.79136      3840.7412      0.99696119
   1407000  -1245.3791      228.31888     -1473.698       300.37746     -446.52921      3840.7412      0.99696119
   1408000  -1231.854       243.87262     -1475.7266      320.84004     -1027.4189      3840.7412      0.99696119
   1409000  -1228.2836      228.74969     -1457.0333      300.94424      1449.9571      3840.7412      0.99696119
   1410000  -1245.3897      238.40599     -1483.7957      313.64812      1691.2168      3840.7412      0.99696119
   1411000  -1252.0099      226.8275      -1478.8374      298.41539      553.93704      3840.7412      0.99696119
   1412000  -1269.8171      227.37431     -1497.1914      299.13478     -1753.2275      3840.7412      0.99696119
   1413000  -1258.1017      223.46256     -1481.5642      293.98846      1749.7393      3840.7412      0.99696119
   1414000  -1256.1564      214.10597     -1470.2624      281.67889     -1510.0923      3840.7412      0.99696119
   1415000  -1249.6802      231.53424     -1481.2144      304.60761     -132.59095      3840.7412      0.99696119
   1416000  -1263.1417      224.65103     -1487.7927      295.55203      1259.1046      3840.7412      0.99696119
   1417000  -1234.1258      232.54971     -1466.6755      305.94356      1973.7416      3840.7412      0.99696119
   1418000  -1253.1201      232.87125     -1485.9914      306.36658     -79.767911      3840.7412      0.99696119
   1419000  -1210.6902      253.04155     -1463.7317      332.90274      1650.8758      3840.7412      0.99696119
   1420000  -1248.0683      232.53698     -1480.6053      305.92681     -421.194        3840.7412      0.99696119
   1421000  -1243.1732      229.42607     -1472.5993      301.83409      863.76056      3840.7412      0.99696119
   1422000  -1241.0611      234.05265     -1475.1138      307.92084     -993.14072      3840.7412      0.99696119
   1423000  -1250.7512      219.22269     -1469.9739      288.41047      90.319826      3840.7412      0.99696119
   1424000  -1217.1328      236.00808     -1453.1409      310.49342      534.31382      3840.7412      0.99696119
   1425000  -1245.7524      244.63678     -1490.3892      321.84537     -949.99042      3840.7412      0.99696119
   1426000  -1281.6693      236.28867     -1517.958       310.86256      482.33509      3840.7412      0.99696119
   1427000  -1268.6547      218.30674     -1486.9614      287.20544      518.10193      3840.7412      0.99696119
   1428000  -1279.8652      226.74281     -1506.608       298.30398     -46.864899      3840.7412      0.99696119
   1429000  -1261.2491      222.4576      -1483.7067      292.66633     -1054.4897      3840.7412      0.99696119
   1430000  -1258.9902      220.09442     -1479.0846      289.55732      38.537057      3840.7412      0.99696119
   1431000  -1236.2484      233.55142     -1469.7999      307.26142     -739.9072       3840.7412      0.99696119
   1432000  -1270.6702      219.56298     -1490.2332      288.85815      462.72017      3840.7412      0.99696119
   1433000  -1241.5271      238.90279     -1480.4299      314.30171      881.18849      3840.7412      0.99696119
   1434000  -1297.4509      199.31685     -1496.7677      262.22224      151.262        3840.7412      0.99696119
   1435000  -1271.7743      225.95083     -1497.7251      297.26205     -954.99014      3840.7412      0.99696119
   1436000  -1234.2453      225.16898     -1459.4143      296.23343     -574.09932      3840.7412      0.99696119
   1437000  -1259.9972      220.13638     -1480.1336      289.61253      1097.2825      3840.7412      0.99696119
   1438000  -1239.7218      231.04506     -1470.7668      303.96404      1003.6059      3840.7412      0.99696119
   1439000  -1272.5616      217.34346     -1489.905       285.93814     -86.622154      3840.7412      0.99696119
   1440000  -1277.8694      214.5276      -1492.397       282.23359      675.41394      3840.7412      0.99696119
   1441000  -1260.0119      210.52298     -1470.5348      276.96508     -526.47531      3840.7412      0.99696119
   1442000  -1271.8455      229.19206     -1501.0375      301.52622     -157.66086      3840.7412      0.99696119
   1443000  -1239.0991      225.06744     -1464.1665      296.09985     -271.78859      3840.7412      0.99696119
   1444000  -1266.073       222.69527     -1488.7683      292.97901      636.96006      3840.7412      0.99696119
   1445000  -1269.6312      231.70311     -1501.3343      304.82978     -2775.6394      3840.7412      0.99696119
   1446000  -1293.4831      218.73855     -1512.2216      287.77353     -104.42604      3840.7412      0.99696119
   1447000  -1291.8378      234.34707     -1526.1849      308.30818     -681.67573      3840.7412      0.99696119
   1448000  -1224.018       230.62296     -1454.641       303.40872     -113.02702      3840.7412      0.99696119
   1449000  -1272.6021      204.28247     -1476.8845      268.75505     -391.6193       3840.7412      0.99696119
   1450000  -1248.6854      232.00534     -1480.6907      305.22738      690.84265      3840.7412      0.99696119
   1451000  -1238.2342      220.4251      -1458.6593      289.99237      1356.6412      3840.7412      0.99696119
   1452000  -1259.4341      198.61668     -1458.0508      261.3011       1485.5345      3840.7412      0.99696119
   1453000  -1247.6053      228.32121     -1475.9265      300.38052      558.28194      3840.7412      0.99696119
   1454000  -1253.192       228.26185     -1481.4538      300.30243      846.6978       3840.7412      0.99696119
   1455000  -1247.6462      224.62907     -1472.2753      295.52313      345.12981      3840.7412      0.99696119
   1456000  -1267.1043      222.79551     -1489.8999      293.11089      1706.749       3840.7412      0.99696119
   1457000  -1230.3665      253.00094     -1483.3674      332.8493      -118.3233       3840.7412      0.99696119
   1458000  -1222.658       245.51804     -1468.1761      323.00476      421.71615      3840.7412      0.99696119
   1459000  -1274.0214      210.3779      -1484.3993      276.77422     -1211.1611      3840.7412      0.99696119
   1460000  -1253.2216      224.93128     -1478.1529      295.92071      495.16968      3840.7412      0.99696119
   1461000  -1266.7569      226.72118     -1493.4781      298.27552      2485.3244      3840.7412      0.99696119
   1462000  -1248.153       233.09943     -1481.2524      306.66678      1088.0255      3840.7412      0.99696119
   1463000  -1274.2448      209.14773     -1483.3925      275.1558       663.68905      3840.7412      0.99696119
   1464000  -1257.2695      226.31585     -1483.5854      297.74227      20.735821      3840.7412      0.99696119
   1465000  -1255.6449      236.54141     -1492.1864      311.19506     -758.98481      3840.7412      0.99696119
   1466000  -1275.4675      216.97149     -1492.439       285.44878     -1528.7375      3840.7412      0.99696119
   1467000  -1268.5801      229.03428     -1497.6144      301.31865      1461.4017      3840.7412      0.99696119
   1468000  -1242.692       240.12967     -1482.8217      315.9158      -2025.0322      3840.7412      0.99696119
   1469000  -1288.6731      222.15184     -1510.8249      292.26407     -1253.6872      3840.7412      0.99696119
   1470000  -1280.2226      206.18269     -1486.4053      271.25498     -1176.2992      3840.7412      0.99696119
   1471000  -1228.2224      251.11056     -1479.333       330.36232      656.05889      3840.7412      0.99696119
   1472000  -1261.3897      237.70106     -1499.0907      312.72071      1927.3237      3840.7412      0.99696119
   1473000  -1226.4422      241.71203     -1468.1542      317.99756      513.12442      3840.7412      0.99696119
   1474000  -1252.9993      235.83386     -1488.8331      310.26421      292.00652      3840.7412      0.99696119
   1475000  -1214.9576      229.09376     -1444.0513      301.3969       1010.2164      3840.7412      0.99696119
   1476000  -1248.3763      218.52114     -1466.8974      287.48751      1255.481       3840.7412      0.99696119
   1477000  -1302.6758      200.67988     -1503.3557      264.01546     -32.293722      3840.7412      0.99696119
   1478000  -1254.0281      216.04116     -1470.0692      284.22483     -658.19147      3840.7412      0.99696119
   1479000  -1294.0012      209.58046     -1503.5817      275.72511     -343.72069      3840.7412      0.99696119
   1480000  -1254.3716      233.97931     -1488.3509      307.82436      681.27224      3840.7412      0.99696119
   1481000  -1267.735       218.66826     -1486.4032      287.68105      1337.1055      3840.7412      0.99696119
   1482000  -1227.9118      235.81627     -1463.7281      310.24106     -28.679615      3840.7412      0.99696119
   1483000  -1272.4571      225.05785     -1497.5149      296.08724     -461.19151      3840.7412      0.99696119
   1484000  -1228.5598      231.64972     -1460.2095      304.75953      167.98364      3840.7412      0.99696119
   1485000  -1239.8332      234.30659     -1474.1398      308.25492      535.79518      3840.7412      0.99696119
   1486000  -1265.1311      229.96895     -1495.1         302.5483      -983.39723      3840.7412      0.99696119
   1487000  -1239.8813      231.68702     -1471.5683      304.8086      -604.77754      3840.7412      0.99696119
   1488000  -1238.3708      239.9617      -1478.3325      315.69481      572.26444      3840.7412      0.99696119
   1489000  -1274.3345      222.79389     -1497.1284      293.10875      511.78859      3840.7412      0.99696119
   1490000  -1267.9904      217.66042     -1485.6508      286.35514      1677.8264      3840.7412      0.99696119
   1491000  -1286.3749      205.98768     -1492.3626      270.99843     -1566.3012      3840.7412      0.99696119
   1492000  -1223.8843      239.0502      -1462.9345      314.49564      734.77363      3840.7412      0.99696119
   1493000  -1231.3858      239.81022     -1471.196       315.49552      573.12334      3840.7412      0.99696119
   1494000  -1219.301       234.23968     -1453.5407      308.1669       1061.6484      3840.7412      0.99696119
   1495000  -1238.2638      224.92418     -1463.188       295.91137     -1794.5694      3840.7412      0.99696119
   1496000  -1244.8398      235.52796     -1480.3678      309.86176      819.62576      3840.7412      0.99696119
   1497000  -1265.546       218.84226     -1484.3883      287.90997      1006.7883      3840.7412      0.99696119
   1498000  -1239.9543      216.98472     -1456.9391      285.46619      210.31755      3840.7412      0.99696119
   1499000  -1262.2879      208.20071     -1470.4886      273.9099       590.72138      3840.7412      0.99696119
   1500000  -1239.0497      246.34341     -1485.3931      324.09062     -426.40668      3840.7412      0.99696119
   1501000  -1241.216       228.5677      -1469.7837      300.70481      167.29742      3840.7412      0.99696119
   1502000  -1200.4706      256.16327     -1456.6339      337.00968      1818.5361      3840.7412      0.99696119
   1503000  -1282.0113      233.35296     -1515.3643      307.00032     -610.30062      3840.7412      0.99696119
   1504000  -1256.7633      229.84752     -1486.6109      302.38855     -683.24654      3840.7412      0.99696119
   1505000  -1256.6245      244.20108     -1500.8255      321.27216      2101.9168      3840.7412      0.99696119
   1506000  -1256.3521      246.74662     -1503.0987      324.62109      3026.8469      3840.7412      0.99696119
   1507000  -1250.9823      238.59251     -1489.5748      313.8935      -471.68821      3840.7412      0.99696119
   1508000  -1252.052       225.19867     -1477.2506      296.2725      -387.25768      3840.7412      0.99696119
   1509000  -1274.9898      215.9191      -1490.9089      284.06424      1241.7001      3840.7412      0.99696119
   1510000  -1234.1967      229.97516     -1464.1719      302.55648     -1096.7531      3840.7412      0.99696119
   1511000  -1255.1781      235.68704     -1490.8652      310.07105      58.638227      3840.7412      0.99696119
   1512000  -1267.1577      225.10698     -1492.2647      296.15187     -2098.0918      3840.7412      0.99696119
   1513000  -1208.9542      234.0832      -1443.0374      307.96103      1007.9337      3840.7412      0.99696119
   1514000  -1260.0661      211.05514     -1471.1213      277.6652       15.948317      3840.7412      0.99696119
   1515000  -1252.6703      227.2415      -1479.9118      298.96005      563.30541      3840.7412      0.99696119
   1516000  -1234.3269      239.32132     -1473.6482      314.85232      254.28187      3840.7412      0.99696119
   1517000  -1257.3593      231.16224     -1488.5215      304.1182      -145.09582      3840.7412      0.99696119
   1518000  -1262.9154      227.06895     -1489.9844      298.73305      490.53848      3840.7412      0.99696119
   1519000  -1222.11        248.28276     -1470.3928      326.64204      979.66929      3840.7412      0.99696119
   1520000  -1281.5881      230.14399     -1511.732       302.77858      713.51499      3840.7412      0.99696119
   1521000  -1246.3495      229.1876      -1475.5371      301.52035     -1183.1824      3840.7412      0.99696119
   1522000  -1298.0123      207.16174     -1505.174       272.54302     -181.99342      3840.7412      0.99696119
   1523000  -1255.6879      239.08259     -1494.7705      314.53825      503.9847       3840.7412      0.99696119
   1524000  -1240.1316      224.56035     -1464.6919      295.43272     -310.11768      3840.7412      0.99696119
   1525000  -1298.3708      227.7663      -1526.1371      299.65048     -240.6047       3840.7412      0.99696119
   1526000  -1266.0769      237.92259     -1503.9995      313.01215     -614.05178      3840.7412      0.99696119
   1527000  -1236.6892      225.03312     -1461.7223      296.0547       957.73079      3840.7412      0.99696119
   1528000  -1245.2625      244.5117      -1489.7742      321.68081      1366.8554      3840.7412      0.99696119
   1529000  -1266.7457      213.28425     -1480.03        280.59782      1260.517       3840.7412      0.99696119
   1530000  -1261.9148      236.86862     -1498.7834      311.62554      256.84327      3840.7412      0.99696119
   1531000  -1261.7616      217.30059     -1479.0622      285.88174     -1070.3941      3840.7412      0.99696119
   1532000  -1256.0928      213.9229      -1470.0157      281.43804     -1658.6419      3840.7412      0.99696119
   1533000  -1293.2676      215.44133     -1508.7089      283.4357       99.861309      3840.7412      0.99696119
   1534000  -1230.5031      245.55625     -1476.0593      323.05503      303.05809      3840.7412      0.99696119
   1535000  -1294.7658      211.15393     -1505.9197      277.79517     -281.39016      3840.7412      0.99696119
   1536000  -1309.7437      214.32435     -1524.0681      281.96619     -327.3687       3840.7412      0.99696119
   1537000  -1229.414       231.65285     -1461.0669      304.76365     -111.95598      3840.7412      0.99696119
   1538000  -1261.7539      204.25977     -1466.0137      268.72517     -432.40965      3840.7412      0.99696119
   1539000  -1248.755       234.53989     -1483.2949      308.56185      104.04145      3840.7412      0.99696119
   1540000  -1296.5048      223.20382     -1519.7086      293.64806     -390.59721      3840.7412      0.99696119
   1541000  -1254.088       222.17216     -1476.2602      292.29081     -570.04148      3840.7412      0.99696119
   1542000  -1201.9558      257.91224     -1459.868       339.31063     -789.82924      3840.7412      0.99696119
   1543000  -1266.3436      216.6547      -1482.9983      285.03201      158.27289      3840.7412      0.99696119
   1544000  -1278.3444      231.1125      -1509.4569      304.05276      161.48236      3840.7412      0.99696119
   1545000  -1253.8767      238.05087     -1491.9276      313.18091      278.37711      3840.7412      0.99696119
   1546000  -1241.8102      237.93603     -1479.7462      313.02984     -318.99394      3840.7412      0.99696119
   1547000  -1274.5115      215.73774     -1490.2492      283.82565     -2438.5377      3840.7412      0.99696119
   1548000  -1261.0714      220.44697     -1481.5184      290.02114      1145.1925      3840.7412      0.99696119
   1549000  -1272.9935      222.35608     -1495.3496      292.53277      1094.912       3840.7412      0.99696119
   1550000  -1257.2368      230.93481     -1488.1716      303.81899     -566.80532      3840.7412      0.99696119
   1551000  -1262.6992      219.18211     -1481.8813      288.35708      695.04038      3840.7412      0.99696119
   1552000  -1259.1612      210.93118     -1470.0924      277.50211     -334.04513      3840.7412      0.99696119
   1553000  -1232.9777      245.01262     -1477.9904      322.33983      1500.3832      3840.7412      0.99696119
   1554000  -1275.3013      221.63206     -1496.9334      291.58025      3526.0889      3840.7412      0.99696119
   1555000  -1282.7942      223.03172     -1505.8259      293.42164      1216.1448      3840.7412      0.99696119
   1556000  -1276.0605      217.74097     -1493.8014      286.46111     -756.52478      3840.7412      0.99696119
   1557000  -1281.6627      221.14        -1502.8027      290.93289      946.56218      3840.7412      0.99696119
   1558000  -1282.4903      246.14247     -1528.6328      323.82627      1621.785       3840.7412      0.99696119
   1559000  -1273.1506      210.2303      -1483.3809      276.58003      1227.0407      3840.7412      0.99696119
   1560000  -1245.9327      241.37885     -1487.3115      317.55922     -1009.2796      3840.7412      0.99696119
   1561000  -1272.476       229.7606      -1502.2366      302.2742      -1811.5165      3840.7412      0.99696119
   1562000  -1253.8717      218.33551     -1472.2072      287.2433      -85.480087      3840.7412      0.99696119
   1563000  -1278.5971      220.40083     -1498.998       289.96044      1399.7624      3840.7412      0.99696119
   1564000  -1283.296       214.04001     -1497.336       281.59211     -602.20811      3840.7412      0.99696119
   1565000  -1243.4272      221.34254     -1464.7698      291.19935     -431.64219      3840.7412      0.99696119
   1566000  -1267.2065      227.50979     -1494.7163      299.31302     -1551.3817      3840.7412      0.99696119
   1567000  -1266.3154      227.69829     -1494.0137      299.56101     -292.07563      3840.7412      0.99696119
   1568000  -1282.7135      214.21553     -1496.9291      281.82302     -1598.9551      3840.7412      0.99696119
   1569000  -1256.2963      244.57051     -1500.8668      321.75818      3037.7001      3840.7412      0.99696119
   1570000  -1236.4582      217.94756     -1454.4058      286.7329       349.98164      3840.7412      0.99696119
   1571000  -1271.5473      224.22415     -1495.7715      294.99041     -2259.1098      3840.7412      0.99696119
   1572000  -1228.106       238.86276     -1466.9688      314.24904     -415.07528      3840.7412      0.99696119
   1573000  -1242.2472      256.20141     -1498.4486      337.05986      1401.717       3840.7412      0.99696119
   1574000  -1290.8764      228.43188     -1519.3082      300.52612      94.928125      3840.7412      0.99696119
   1575000  -1255.0799      244.21856     -1499.2984      321.29516      3099.6535      3840.7412      0.99696119
   1576000  -1262.8896      226.45674     -1489.3463      297.92762     -1226.5052      3840.7412      0.99696119
   1577000  -1253.8913      213.5633      -1467.4546      280.96494     -739.8782       3840.7412      0.99696119
   1578000  -1247.5177      230.27765     -1477.7953      302.95442     -400.78719      3840.7412      0.99696119
   1579000  -1271.2466      228.3177      -1499.5643      300.37591      1420.7381      3840.7412      0.99696119
   1580000  -1219.9972      252.48902     -1472.4862      332.17582      793.9284       3840.7412      0.99696119
   1581000  -1276.9351      210.91244     -1487.8476      277.47746      1889.0767      3840.7412      0.99696119
   1582000  -1233.3021      231.0858      -1464.3879      304.01764      1579.2014      3840.7412      0.99696119
   1583000  -1270.8203      215.46135     -1486.2817      283.46203      2056.8295      3840.7412      0.99696119
   1584000  -1267.6022      217.67454     -1485.2768      286.37372      2829.2537      3840.7412      0.99696119
   1585000  -1284.0476      223.24307     -1507.2907      293.6997      -243.95836      3840.7412      0.99696119
   1586000  -1250.5436      231.14924     -1481.6929      304.1011       2818.0535      3840.7412      0.99696119
   1587000  -1257.5592      218.64368     -1476.2029      287.64872     -33.691075      3840.7412      0.99696119
   1588000  -1251.7989      244.81073     -1496.6096      322.07422      2038.152       3840.7412      0.99696119
   1589000  -1291.5642      233.42701     -1524.9912      307.09774     -251.05251      3840.7412      0.99696119
   1590000  -1248.2973      222.7612      -1471.0585      293.06575      433.56729      3840.7412      0.99696119
   1591000  -1228.8742      251.53927     -1480.4135      330.92632     -2007.0415      3840.7412      0.99696119
   1592000  -1277.6029      218.89198     -1496.4949      287.97539     -64.05267       3840.7412      0.99696119
   1593000  -1230.1894      231.5061      -1461.6955      304.57059      1607.6776      3840.7412      0.99696119
   1594000  -1266.9063      221.93967     -1488.846       291.98494      932.61567      3840.7412      0.99696119
   1595000  -1221.4087      239.9862      -1461.3949      315.72705      2171.3272      3840.7412      0.99696119
   1596000  -1245.8114      233.61889     -1479.4302      307.35018      1343.4631      3840.7412      0.99696119
   1597000  -1254.1783      230.34425     -1484.5225      303.04204     -537.58752      3840.7412      0.99696119
   1598000  -1233.9475      237.39163     -1471.3391      312.31362     -230.17593      3840.7412      0.99696119
   1599000  -1264.9533      223.84916     -1488.8025      294.49708      857.28799      3840.7412      0.99696119
   1600000  -1229.4115      239.25661     -1468.6681      314.76719     -283.29955      3840.7412      0.99696119
   1601000  -1245.6272      204.42804     -1450.0552      268.94656     -990.19451      3840.7412      0.99696119
   1602000  -1246.1873      214.80415     -1460.9915      282.59742      726.18673      3840.7412      0.99696119
   1603000  -1265.9287      217.73775     -1483.6664      286.45688      254.39265      3840.7412      0.99696119
   1604000  -1238.9927      239.35728     -1478.35        314.89964      644.84536      3840.7412      0.99696119
   1605000  -1247.5193      219.28349     -1466.8028      288.49046     -2913.6241      3840.7412      0.99696119
   1606000  -1304.3043      205.88745     -1510.1917      270.86656     -300.6339       3840.7412      0.99696119
   1607000  -1253.1314      218.97498     -1472.1064      288.08458      671.00038      3840.7412      0.99696119
   1608000  -1235.7817      232.92945     -1468.7112      306.44315      798.51324      3840.7412      0.99696119
   1609000  -1263.1481      216.70059     -1479.8487      285.09238     -1390.3629      3840.7412      0.99696119
   1610000  -1280.4844      224.09556     -1504.5799      294.82124     -1975.141       3840.7412      0.99696119
   1611000  -1266.6516      223.08973     -1489.7414      293.49797     -1954.4575      3840.7412      0.99696119
   1612000  -1271.9104      224.64761     -1496.558       295.54752      669.83678      3840.7412      0.99696119
   1613000  -1287.0377      202.76997     -1489.8077      266.76519     -68.500674      3840.7412      0.99696119
   1614000  -1249.1127      243.71003     -1492.8227      320.62614      712.91336      3840.7412      0.99696119
   1615000  -1270.9478      226.84557     -1497.7933      298.43916      1225.2683      3840.7412      0.99696119
   1616000  -1225.3473      246.85878     -1472.2061      324.76865     -1017.6769      3840.7412      0.99696119
   1617000  -1296.2574      210.81061     -1507.068       277.3435      -447.29459      3840.7412      0.99696119
   1618000  -1254.5282      216.21102     -1470.7392      284.4483       783.60261      3840.7412      0.99696119
   1619000  -1279.0747      226.82037     -1505.8951      298.40602     -1684.3732      3840.7412      0.99696119
   1620000  -1285.4525      231.4471      -1516.8996      304.49296     -187.65913      3840.7412      0.99696119
   1621000  -1262.1512      227.47711     -1489.6283      299.27002      1057.1765      3840.7412      0.99696119
   1622000  -1301.1779      214.18477     -1515.3627      281.78256     -270.90492      3840.7412      0.99696119
   1623000  -1289.3327      211.47289     -1500.8056      278.21479     -889.77413      3840.7412      0.99696119
   1624000  -1272.1663      239.7256      -1511.8919      315.3842       970.11884      3840.7412      0.99696119
   1625000  -1262.4413      217.24191     -1479.6832      285.80455      294.81629      3840.7412      0.99696119
   1626000  -1271.6047      222.84814     -1494.4529      293.18013      1288.7413      3840.7412      0.99696119
   1627000  -1273.6617      219.03753     -1492.6992      288.16688      1230.9565      3840.7412      0.99696119
   1628000  -1278.3154      213.04871     -1491.3642      280.28795      438.18278      3840.7412      0.99696119
   1629000  -1294.9815      217.70695     -1512.6884      286.41636      26.381865      3840.7412      0.99696119
   1630000  -1289.3124      224.24526     -1513.5577      295.01818      1066.0887      3840.7412      0.99696119
   1631000  -1228.0559      218.53235     -1446.5883      287.50226      21.777621      3840.7412      0.99696119
   1632000  -1295.7419      200.72041     -1496.4624      264.06878     -1215.7915      3840.7412      0.99696119
   1633000  -1253.0118      234.83859     -1487.8503      308.95482      1773.4349      3840.7412      0.99696119
   1634000  -1265.6425      223.44977     -1489.0923      293.97164      1579.5383      3840.7412      0.99696119
   1635000  -1234.0656      237.01586     -1471.0815      311.81925     -130.37694      3840.7412      0.99696119
   1636000  -1261.8154      229.37667     -1491.1921      301.76909      773.61532      3840.7412      0.99696119
   1637000  -1246.7133      234.3062      -1481.0195      308.2544       528.77541      3840.7412      0.99696119
   1638000  -1270.2011      226.57112     -1496.7722      298.07811     -1520.8019      3840.7412      0.99696119
   1639000  -1254.1171      224.52004     -1478.6371      295.37968      1031.8981      3840.7412      0.99696119
   1640000  -1280.1834      225.04702     -1505.2304      296.07298      111.16188      3840.7412      0.99696119
   1641000  -1286.8084      215.68427     -1502.4927      283.7553      -767.73747      3840.7412      0.99696119
   1642000  -1244.1469      251.08821     -1495.2351      330.3329      -57.864789      3840.7412      0.99696119
   1643000  -1289.4922      205.92925     -1495.4214      270.92155     -830.49927      3840.7412      0.99696119
   1644000  -1240.2963      227.30938     -1467.6056      299.04936     -957.91358      3840.7412      0.99696119
   1645000  -1208.3515      243.67432     -1452.0259      320.57915     -1511.0193      3840.7412      0.99696119
   1646000  -1240.4137      220.40907     -1460.8228      289.97128      1695.1813      3840.7412      0.99696119
   1647000  -1260.809       208.07887     -1468.8879      273.74961     -1371.4398      3840.7412      0.99696119
   1648000  -1218.3094      250.256       -1468.5654      329.23804      268.55223      3840.7412      0.99696119
   1649000  -1266.3868      208.85905     -1475.2458      274.77601     -1607.264       3840.7412      0.99696119
   1650000  -1267.7078      218.49503     -1486.2028      287.45315     -1300.1803      3840.7412      0.99696119
   1651000  -1310.1606      202.91809     -1513.0787      266.96005     -1771.241       3840.7412      0.99696119
   1652000  -1231.8436      243.72633     -1475.57        320.64758      244.98917      3840.7412      0.99696119
   1653000  -1249.8991      226.74102     -1476.6401      298.30162      1802.5825      3840.7412      0.99696119
   1654000  -1260.2363      226.5982      -1486.8345      298.11373      65.964104      3840.7412      0.99696119
   1655000  -1283.9738      227.98956     -1511.9634      299.94421     -952.73423      3840.7412      0.99696119
   1656000  -1278.7624      225.30048     -1504.0629      296.40643      1013.6779      3840.7412      0.99696119
   1657000  -1261.0591      225.3164      -1486.3755      296.42739     -30.693528      3840.7412      0.99696119
   1658000  -1236.5966      236.391       -1472.9876      310.99719     -2483.9         3840.7412      0.99696119
   1659000  -1240.7615      226.81191     -1467.5734      298.39489      1097.4093      3840.7412      0.99696119
   1660000  -1250.4052      228.76962     -1479.1749      300.97046      195.95268      3840.7412      0.99696119
   1661000  -1276.3529      229.78096     -1506.1338      302.30098      793.16698      3840.7412      0.99696119
   1662000  -1281.7509      224.60575     -1506.3567      295.49245      1985.072       3840.7412      0.99696119
   1663000  -1276.3015      216.77314     -1493.0746      285.18782     -577.80001      3840.7412      0.99696119
   1664000  -1257.5398      236.96246     -1494.5023      311.749        112.59724      3840.7412      0.99696119
   1665000  -1285.4657      210.00666     -1495.4724      276.28581      1102.1129      3840.7412      0.99696119
   1666000  -1261.7928      250.92082     -1512.7136      330.11269      691.32174      3840.7412      0.99696119
   1667000  -1263.8276      222.35745     -1486.185       292.53457     -628.81703      3840.7412      0.99696119
   1668000  -1283.5926      221.41822     -1505.0108      291.29892      343.09151      3840.7412      0.99696119
   1669000  -1239.6375      219.05993     -1458.6974      288.19634      1035.7494      3840.7412      0.99696119
   1670000  -1293.1217      211.21246     -1504.3341      277.87217      673.40666      3840.7412      0.99696119
   1671000  -1267.9149      223.34054     -1491.2555      293.82793     -778.57492      3840.7412      0.99696119
   1672000  -1252.7024      231.47109     -1484.1735      304.52452      679.37287      3840.7412      0.99696119
   1673000  -1287.6961      217.64802     -1505.3441      286.33883     -1370.8895      3840.7412      0.99696119
   1674000  -1269.6232      236.03874     -1505.6619      310.53375      647.94254      3840.7412      0.99696119
   1675000  -1248.0276      244.05934     -1492.0869      321.08569     -123.31331      3840.7412      0.99696119
   1676000  -1257.8132      234.72977     -1492.543       308.81166     -2293.2145      3840.7412      0.99696119
   1677000  -1238.3252      223.46876     -1461.7939      293.99662     -339.17376      3840.7412      0.99696119
   1678000  -1280.3154      213.21497     -1493.5304      280.50668     -1132.7982      3840.7412      0.99696119
   1679000  -1251.1688      228.26317     -1479.4319      300.30416      2136.2548      3840.7412      0.99696119
   1680000  -1267.4944      210.40425     -1477.8986      276.80889     -448.06717      3840.7412      0.99696119
   1681000  -1265.1694      220.93344     -1486.1028      290.66114      1026.1814      3840.7412      0.99696119
   1682000  -1277.5024      226.23158     -1503.734       297.6314       718.31938      3840.7412      0.99696119
   1683000  -1229.9086      251.28124     -1481.1899      330.58686      217.69676      3840.7412      0.99696119
   1684000  -1308.0735      210.05673     -1518.1302      276.35168      391.5031       3840.7412      0.99696119
   1685000  -1236.6272      241.14702     -1477.7743      317.25423      2414.4147      3840.7412      0.99696119
   1686000  -1235.6382      215.32072     -1450.9589      283.27702     -874.5519       3840.7412      0.99696119
   1687000  -1261.8117      204.71284     -1466.5245      269.32124     -77.934441      3840.7412      0.99696119
   1688000  -1258.1077      235.54771     -1493.6554      309.88774      509.23002      3840.7412      0.99696119
   1689000  -1257.4153      217.24105     -1474.6564      285.80341      835.75563      3840.7412      0.99696119
   1690000  -1242.6419      241.49196     -1484.1339      317.70803      625.38154      3840.7412      0.99696119
   1691000  -1277.9776      229.69807     -1507.6757      302.19193     -802.48926      3840.7412      0.99696119
   1692000  -1230.4173      232.50363     -1462.9209      305.88293      471.10624      3840.7412      0.99696119
   1693000  -1252.9661      234.30479     -1487.2709      308.25255      1082.1565      3840.7412      0.99696119
   1694000  -1303.8662      206.31728     -1510.1835      271.43205      301.92586      3840.7412      0.99696119
   1695000  -1282.2763      226.44624     -1508.7225      297.9138      -1125.5324      3840.7412      0.99696119
   1696000  -1271.5323      211.3435      -1482.8758      278.04457      494.73931      3840.7412      0.99696119
   1697000  -1242.3733      250.32581     -1492.6991      329.32989      1059.8566      3840.7412      0.99696119
   1698000  -1279.3986      219.27505     -1498.6737      288.47935      876.04635      3840.7412      0.99696119
   1699000  -1235.3898      230.13907     -1465.5288      302.77211      2119.8244      3840.7412      0.99696119
   1700000  -1255.9969      235.83958     -1491.8364      310.27174      365.52237      3840.7412      0.99696119
   1701000  -1264.8907      249.19529     -1514.086       327.84257     -692.19202      3840.7412      0.99696119
   1702000  -1272.1162      226.48268     -1498.5989      297.96174     -149.77533      3840.7412      0.99696119
   1703000  -1247.094       226.25244     -1473.3464      297.65885      167.78744      3840.7412      0.99696119
   1704000  -1251.7691      209.62413     -1461.3932      275.78256      470.91115      3840.7412      0.99696119
   1705000  -1257.3263      226.74988     -1484.0761      298.31328     -557.22455      3840.7412      0.99696119
   1706000  -1258.0954      234.73729     -1492.8327      308.82156      644.85217      3840.7412      0.99696119
   1707000  -1226.5764      226.38911     -1452.9655      297.83865     -799.5974       3840.7412      0.99696119
   1708000  -1249.0024      222.37213     -1471.3746      292.55389      1826.8036      3840.7412      0.99696119
   1709000  -1259.0388      214.50883     -1473.5477      282.20888     -649.42546      3840.7412      0.99696119
   1710000  -1269.3725      228.40966     -1497.7822      300.4969       992.7191       3840.7412      0.99696119
   1711000  -1267.4924      222.43294     -1489.9253      292.63389     -1187.9895      3840.7412      0.99696119
   1712000  -1263.2097      225.23168     -1488.4413      296.31592      1691.0394      3840.7412      0.99696119
   1713000  -1241.1013      232.97566     -1474.077       306.50394      962.22277      3840.7412      0.99696119
   1714000  -1238.0217      238.61379     -1476.6355      313.92149      278.68014      3840.7412      0.99696119
   1715000  -1275.8276      214.81631     -1490.6439      282.61341     -733.61063      3840.7412      0.99696119
   1716000  -1263.9758      213.05565     -1477.0315      280.29708     -168.34525      3840.7412      0.99696119
   1717000  -1283.8775      211.19483     -1495.0723      277.84897      190.5532       3840.7412      0.99696119
   1718000  -1247.7275      234.53843     -1482.2659      308.55994     -221.07912      3840.7412      0.99696119
   1719000  -1279.3636      215.18868     -1494.5522      283.1033      -207.75837      3840.7412      0.99696119
   1720000  -1236.1749      222.35635     -1458.5312      292.53313     -1795.3541      3840.7412      0.99696119
   1721000  -1270.1908      221.09611     -1491.2869      290.87515      587.95582      3840.7412      0.99696119
   1722000  -1248.851       232.05528     -1480.9063      305.29309     -751.096        3840.7412      0.99696119
   1723000  -1268.0422      225.43977     -1493.482       296.58969      61.948512      3840.7412      0.99696119
   1724000  -1272.7018      221.03271     -1493.7345      290.79173     -1288.9783      3840.7412      0.99696119
   1725000  -1268.9101      220.00769     -1488.9178      289.44322     -256.59944      3840.7412      0.99696119
   1726000  -1275.0891      215.15841     -1490.2475      283.06349     -1396.1154      3840.7412      0.99696119
   1727000  -1261.6627      207.70232     -1469.3651      273.25422      1263.1473      3840.7412      0.99696119
   1728000  -1246.0471      225.75337     -1471.8004      297.00226     -942.63498      3840.7412      0.99696119
   1729000  -1222.0916      223.51636     -1445.6079      294.05924      1159.9898      3840.7412      0.99696119
   1730000  -1258.0051      221.12219     -1479.1273      290.90947      109.61929      3840.7412      0.99696119
   1731000  -1260.7652      238.07819     -1498.8434      313.21686     -464.24312      3840.7412      0.99696119
   1732000  -1293.4591      209.17264     -1502.6317      275.18858     -1143.1202      3840.7412      0.99696119
   1733000  -1236.1452      220.69673     -1456.8419      290.34972     -302.21633      3840.7412      0.99696119
   1734000  -1243.4495      227.02187     -1470.4714      298.67111     -1156.2519      3840.7412      0.99696119
   1735000  -1215.7391      244.11657     -1459.8556      321.16099     -85.863389      3840.7412      0.99696119
   1736000  -1240.7112      220.11253     -1460.8237      289.58114     -556.48549      3840.7412      0.99696119
   1737000  -1286.1532      212.78198     -1498.9352      279.93704      1191.7634      3840.7412      0.99696119
   1738000  -1248.3901      231.99781     -1480.3879      305.21748      156.73566      3840.7412      0.99696119
   1739000  -1228.4206      235.10006     -1463.5207      309.29881     -1229.0035      3840.7412      0.99696119
   1740000  -1272.6989      224.84175     -1497.5406      295.80293      281.09716      3840.7412      0.99696119
   1741000  -1271.4527      218.68518     -1490.1379      287.70332     -1011.72        3840.7412      0.99696119
   1742000  -1257.2495      218.44834     -1475.6978      287.39173     -974.78256      3840.7412      0.99696119
   1743000  -1259.6816      236.51707     -1496.1987      311.16304     -290.00338      3840.7412      0.99696119
   1744000  -1237.418       227.71164     -1465.1296      299.57858      444.66015      3840.7412      0.99696119
   1745000  -1250.3954      258.40576     -1508.8012      339.95992      1992.896       3840.7412      0.99696119
   1746000  -1259.6018      232.439       -1492.0408      305.79792      951.45823      3840.7412      0.99696119
   1747000  -1246.4875      219.32471     -1465.8122      288.54468      536.58927      3840.7412      0.99696119
   1748000  -1252.2724      236.95853     -1489.2309      311.74382     -198.90589      3840.7412      0.99696119
   1749000  -1272.763       221.78645     -1494.5495      291.78337      275.97879      3840.7412      0.99696119
   1750000  -1234.1842      234.16771     -1468.3519      308.07221      792.89286      3840.7412      0.99696119
   1751000  -1242.3032      241.72136     -1484.0246      318.00983     -828.91007      3840.7412      0.99696119
   1752000  -1287.9591      226.6698      -1514.6289      298.20792      687.66987      3840.7412      0.99696119
   1753000  -1265.4769      209.58529     -1475.0622      275.73145     -1276.93        3840.7412      0.99696119
   1754000  -1211.896       253.08451     -1464.9806      332.95925     -568.09502      3840.7412      0.99696119
   1755000  -1239.3819      225.99134     -1465.3732      297.31533     -2413.2772      3840.7412      0.99696119
   1756000  -1278.1767      214.38092     -1492.5576      282.04061     -353.35193      3840.7412      0.99696119
   1757000  -1281.5393      217.61016     -1499.1494      286.28901      807.94555      3840.7412      0.99696119
   1758000  -1255.3223      226.96064     -1482.2829      298.59055      240.66183      3840.7412      0.99696119
   1759000  -1261.0697      233.05741     -1494.1271      306.61149     -113.4379       3840.7412      0.99696119
   1760000  -1237.6226      228.56113     -1466.1837      300.69617     -194.26442      3840.7412      0.99696119
   1761000  -1288.3114      223.17174     -1511.4832      293.60585     -122.78965      3840.7412      0.99696119
   1762000  -1233.065       247.08727     -1480.1522      325.06924      2100.1906      3840.7412      0.99696119
   1763000  -1252.4865      235.17629     -1487.6628      309.3991      -744.86798      3840.7412      0.99696119
   1764000  -1256.4449      250.37166     -1506.8166      329.39021      849.36474      3840.7412      0.99696119
   1765000  -1298.6468      221.86065     -1520.5074      291.88099     -649.61152      3840.7412      0.99696119
   1766000  -1275.8066      248.0159      -1523.8225      326.29095      356.92226      3840.7412      0.99696119
   1767000  -1245.5509      221.3426      -1466.8935      291.19944      2072.873       3840.7412      0.99696119
   1768000  -1245.3673      222.94848     -1468.3158      293.31214      670.86108      3840.7412      0.99696119
   1769000  -1254.8276      218.41907     -1473.2467      287.35322      971.42917      3840.7412      0.99696119
   1770000  -1248.7675      215.27067     -1464.0382      283.21117     -76.35562       3840.7412      0.99696119
   1771000  -1231.0024      224.27181     -1455.2743      295.05312      1556.0411      3840.7412      0.99696119
   1772000  -1259.0801      228.49644     -1487.5765      300.61106     -32.788078      3840.7412      0.99696119
   1773000  -1226.5696      239.06181     -1465.6314      314.51092      1064.083       3840.7412      0.99696119
   1774000  -1232.9218      242.2538      -1475.1756      318.71031     -473.35283      3840.7412      0.99696119
   1775000  -1265.356       221.98273     -1487.3387      292.04159     -792.49342      3840.7412      0.99696119
   1776000  -1259.8698      234.80341     -1494.6732      308.90854     -244.35342      3840.7412      0.99696119
   1777000  -1269.2577      216.03161     -1485.2893      284.21227     -226.56265      3840.7412      0.99696119
   1778000  -1277.9611      222.86699     -1500.828       293.20493      496.09372      3840.7412      0.99696119
   1779000  -1268.3562      231.98522     -1500.3414      305.20092      2729.9858      3840.7412      0.99696119
   1780000  -1239.8421      239.28857     -1479.1306      314.80924      324.14986      3840.7412      0.99696119
   1781000  -1243.6935      226.10478     -1469.7983      297.46458      1685.421       3840.7412      0.99696119
   1782000  -1248.237       225.9056      -1474.1426      297.20254     -278.07014      3840.7412      0.99696119
   1783000  -1264.765       231.76369     -1496.5287      304.90947      2027.6299      3840.7412      0.99696119
   1784000  -1259.8839      221.18222     -1481.0661      290.98843      478.05773      3840.7412      0.99696119
   1785000  -1277.4492      226.97575     -1504.425       298.61043     -510.96269      3840.7412      0.99696119
   1786000  -1243.6315      240.10209     -1483.7336      315.87951      1378.98        3840.7412      0.99696119
   1787000  -1273.3231      241.69305     -1515.0161      317.97259     -331.33246      3840.7412      0.99696119
   1788000  -1268.0751      223.85754     -1491.9326      294.5081      -734.89018      3840.7412      0.99696119
   1789000  -1280.9376      240.52353     -1521.4611      316.43397      1259.7489      3840.7412      0.99696119
   1790000  -1266.4707      217.92286     -1484.3935      286.7004      -687.4532       3840.7412      0.99696119
   1791000  -1288.6562      217.00451     -1505.6607      285.49222      690.02665      3840.7412      0.99696119
   1792000  -1254.612       228.03539     -1482.6473      300.0045       1503.465       3840.7412      0.99696119
   1793000  -1229.4693      216.23539     -1445.7047      284.48036      1375.7101      3840.7412      0.99696119
   1794000  -1246.8909      226.30061     -1473.1915      297.72222      2341.4027      3840.7412      0.99696119
   1795000  -1267.6772      224.57092     -1492.2482      295.44662     -1350.3294      3840.7412      0.99696119
   1796000  -1232.1797      237.59929     -1469.779       312.58682      407.83873      3840.7412      0.99696119
   1797000  -1258.8918      228.66826     -1487.5601      300.83711      2084.3823      3840.7412      0.99696119
   1798000  -1224.4934      225.61466     -1450.1081      296.81978      3093.1936      3840.7412      0.99696119
   1799000  -1253.3996      235.78988     -1489.1895      310.20635     -1146.3448      3840.7412      0.99696119
   1800000  -1219.7251      245.76164     -1465.4867      323.32524     -22.522006      3840.7412      0.99696119
   1801000  -1245.1842      230.0615      -1475.2457      302.67007      333.39668      3840.7412      0.99696119
   1802000  -1242.7795      250.79289     -1493.5724      329.94438      1279.7897      3840.7412      0.99696119
   1803000  -1286.722       217.17656     -1503.8986      285.71857      109.80344      3840.7412      0.99696119
   1804000  -1255.2776      226.86655     -1482.1441      298.46677      823.70485      3840.7412      0.99696119
   1805000  -1242.3669      230.28954     -1472.6565      302.97007     -1021.9827      3840.7412      0.99696119
   1806000  -1231.1672      232.97262     -1464.1399      306.49995      714.35569      3840.7412      0.99696119
   1807000  -1244.152       221.87841     -1466.0305      291.90435     -444.52983      3840.7412      0.99696119
   1808000  -1294.1604      212.81363     -1506.974       279.97868      1531.3822      3840.7412      0.99696119
   1809000  -1255.6734      240.21648     -1495.8899      316.03001      1219.9347      3840.7412      0.99696119
   1810000  -1249.9769      239.16654     -1489.1434      314.64869     -376.67173      3840.7412      0.99696119
   1811000  -1239.4155      227.07149     -1466.4869      298.73639      2366.0889      3840.7412      0.99696119
   1812000  -1243.6855      214.84608     -1458.5316      282.65258      523.4905       3840.7412      0.99696119
   1813000  -1258.1825      214.72867     -1472.9111      282.49812      1455.0798      3840.7412      0.99696119
   1814000  -1232.1262      243.24818     -1475.3744      320.01852      3245.0765      3840.7412      0.99696119
   1815000  -1266.2686      226.43188     -1492.7005      297.89491     -459.5694       3840.7412      0.99696119
   1816000  -1253.8247      226.45262     -1480.2773      297.92221      1137.3032      3840.7412      0.99696119
   1817000  -1283.935       202.52244     -1486.4575      266.43954     -395.23901      3840.7412      0.99696119
   1818000  -1245.4541      230.01113     -1475.4653      302.6038      -423.59694      3840.7412      0.99696119
   1819000  -1290.5995      220.09048     -1510.69        289.55214      2105.8264      3840.7412      0.99696119
   1820000  -1266.6891      224.032       -1490.7211      294.73763      197.90498      3840.7412      0.99696119
   1821000  -1234.1457      229.18609     -1463.3318      301.51836      503.45316      3840.7412      0.99696119
   1822000  -1250.8028      224.9179      -1475.7207      295.90312     -538.64825      3840.7412      0.99696119
   1823000  -1255.6848      237.46877     -1493.1536      312.41511      1414.423       3840.7412      0.99696119
   1824000  -1263.2772      229.05945     -1492.3367      301.35176      1112.1718      3840.7412      0.99696119
   1825000  -1258.3079      220.67075     -1478.9786      290.31554      220.77984      3840.7412      0.99696119
   1826000  -1272.4236      215.23045     -1487.654       283.15826      1484.0867      3840.7412      0.99696119
   1827000  -1248.4326      228.22471     -1476.6573      300.25358     -978.4879       3840.7412      0.99696119
   1828000  -1312.9051      212.25431     -1525.1594      279.24283     -2436.9854      3840.7412      0.99696119
   1829000  -1282.2319      220.34789     -1502.5798      289.89079      3129.6618      3840.7412      0.99696119
   1830000  -1263.0876      228.51429     -1491.6019      300.63455      972.81699      3840.7412      0.99696119
   1831000  -1239.2604      231.8683      -1471.1287      305.0471       81.205528      3840.7412      0.99696119
   1832000  -1231.0915      233.7342      -1464.8257      307.50189      1165.9775      3840.7412      0.99696119
   1833000  -1259.5572      231.32763     -1490.8849      304.33579     -452.46187      3840.7412      0.99696119
   1834000  -1231.4131      226.39379     -1457.8069      297.8448       957.79865      3840.7412      0.99696119
   1835000  -1278.3534      221.29304     -1499.6464      291.13423      103.33717      3840.7412      0.99696119
   1836000  -1223.1677      230.23173     -1453.3995      302.89402      1173.5282      3840.7412      0.99696119
   1837000  -1193.3224      247.61103     -1440.9334      325.75831     -1717.6434      3840.7412      0.99696119
   1838000  -1229.5672      224.69939     -1454.2666      295.61564     -1431.4578      3840.7412      0.99696119
   1839000  -1244.9415      233.25494     -1478.1965      306.87136     -606.29498      3840.7412      0.99696119
   1840000  -1295.8403      219.99333     -1515.8336      289.42432      591.72743      3840.7412      0.99696119
   1841000  -1270.6615      206.12396     -1476.7855      271.17772     -715.92976      3840.7412      0.99696119
   1842000  -1248.3874      228.02427     -1476.4116      299.98987     -170.05349      3840.7412      0.99696119
   1843000  -1256.5718      228.62732     -1485.1992      300.78325     -667.43835      3840.7412      0.99696119
   1844000  -1277.8394      222.95126     -1500.7907      293.3158       274.52513      3840.7412      0.99696119
   1845000  -1253.0873      237.13659     -1490.2238      311.97808     -258.56471      3840.7412      0.99696119
   1846000  -1244.8541      224.26141     -1469.1155      295.03943      142.07075      3840.7412      0.99696119
   1847000  -1209.5222      226.58422     -1436.1064      298.09533      159.15144      3840.7412      0.99696119
   1848000  -1241.8311      213.34158     -1455.1727      280.67325     -544.56251      3840.7412      0.99696119
   1849000  -1258.3794      212.19575     -1470.5752      279.1658      -1257.6266      3840.7412      0.99696119
   1850000  -1244.8842      234.55        -1479.4342      308.57516      439.59082      3840.7412      0.99696119
   1851000  -1276.7044      206.45816     -1483.1625      271.61738     -170.35482      3840.7412      0.99696119
   1852000  -1237.1988      222.23648     -1459.4353      292.37543      2413.0754      3840.7412      0.99696119
   1853000  -1253.7042      222.40074     -1476.105       292.59153     -945.19335      3840.7412      0.99696119
   1854000  -1281.7775      216.41072     -1498.1882      284.71103      1114.4084      3840.7412      0.99696119
   1855000  -1269.075       233.92279     -1502.9978      307.74999     -2008.6426      3840.7412      0.99696119
   1856000  -1218.6182      251.11344     -1469.7316      330.3661       992.83863      3840.7412      0.99696119
   1857000  -1285.2865      199.8806      -1485.1671      262.96392     -300.22801      3840.7412      0.99696119
   1858000  -1248.6954      214.39062     -1463.086       282.05337     -38.003614      3840.7412      0.99696119
   1859000  -1275.686       221.73339     -1497.4194      291.71356      1191.1277      3840.7412      0.99696119
   1860000  -1263.6167      226.84601     -1490.4627      298.43975     -130.89386      3840.7412      0.99696119
   1861000  -1250.5143      229.27267     -1479.787       301.63228     -433.8101       3840.7412      0.99696119
   1862000  -1264.2134      220.13102     -1484.3444      289.60548     -1995.488       3840.7412      0.99696119
   1863000  -1217.9654      251.06473     -1469.0301      330.30202      153.13552      3840.7412      0.99696119
   1864000  -1249.1822      224.37589     -1473.5581      295.19005      1357.2137      3840.7412      0.99696119
   1865000  -1268.5305      234.53303     -1503.0635      308.55283      559.12748      3840.7412      0.99696119
   1866000  -1248.4714      233.96034     -1482.4318      307.79939     -1245.8475      3840.7412      0.99696119
   1867000  -1272.8964      228.27517     -1501.1715      300.31996      699.57395      3840.7412      0.99696119
   1868000  -1271.1534      223.40964     -1494.563       293.91884     -551.24964      3840.7412      0.99696119
   1869000  -1248.5919      216.67519     -1465.2671      285.05896      274.83483      3840.7412      0.99696119
   1870000  -1235.8941      230.3407      -1466.2348      303.03738      772.45769      3840.7412      0.99696119
   1871000  -1242.0978      238.99296     -1481.0908      314.42033      1870.6082      3840.7412      0.99696119
   1872000  -1247.3499      233.97861     -1481.3285      307.82344      328.39037      3840.7412      0.99696119
   1873000  -1252.9876      238.32609     -1491.3137      313.543       -710.53149      3840.7412      0.99696119
   1874000  -1221.5828      223.8378      -1445.4206      294.48213      839.13521      3840.7412      0.99696119
   1875000  -1259.8517      217.38813     -1477.2398      285.99692      186.2465       3840.7412      0.99696119
   1876000  -1242.8164      226.60083     -1469.4172      298.11719     -348.12981      3840.7412      0.99696119
   1877000  -1239.0082      241.87361     -1480.8818      318.21013     -916.62101      3840.7412      0.99696119
   1878000  -1214.6211      245.87462     -1460.4957      323.47389      567.13107      3840.7412      0.99696119
   1879000  -1243.1193      239.62986     -1482.7491      315.25824      993.43331      3840.7412      0.99696119
   1880000  -1235.5655      236.58744     -1472.1529      311.25562      216.66845      3840.7412      0.99696119
   1881000  -1255.4         216.15387     -1471.5539      284.37311     -1882.6973      3840.7412      0.99696119
   1882000  -1205.9973      230.28916     -1436.2865      302.96957     -598.56861      3840.7412      0.99696119
   1883000  -1265.704       219.57458     -1485.2785      288.87342      954.40585      3840.7412      0.99696119
   1884000  -1284.3334      227.92857     -1512.2619      299.86397     -1377.4309      3840.7412      0.99696119
   1885000  -1295.473       222.63525     -1518.1083      292.90005      1349.717       3840.7412      0.99696119
   1886000  -1247.556       238.8405      -1486.3965      314.21976      1270.6473      3840.7412      0.99696119
   1887000  -1230.5167      223.90277     -1454.4194      294.56761      1788.1651      3840.7412      0.99696119
   1888000  -1226.2802      224.51664     -1450.7969      295.37522      285.4983       3840.7412      0.99696119
   1889000  -1271.1511      200.42544     -1471.5765      263.68071     -2118.4         3840.7412      0.99696119
   1890000  -1227.9391      232.5917      -1460.5308      305.99881      376.0877       3840.7412      0.99696119
   1891000  -1257.7745      229.85372     -1487.6282      302.3967       256.43424      3840.7412      0.99696119
   1892000  -1272.2196      228.20521     -1500.4248      300.22792      21.979773      3840.7412      0.99696119
   1893000  -1250.4727      226.2274      -1476.7001      297.6259      -1107.6287      3840.7412      0.99696119
   1894000  -1225.2337      237.64995     -1462.8837      312.65347     -284.52809      3840.7412      0.99696119
   1895000  -1250.9191      229.72295     -1480.642       302.22466     -280.96386      3840.7412      0.99696119
   1896000  -1264.2811      217.46255     -1481.7436      286.09482     -795.97215      3840.7412      0.99696119
   1897000  -1250.7241      235.01836     -1485.7425      309.19134      1025.786       3840.7412      0.99696119
   1898000  -1266.2949      224.78667     -1491.0816      295.73047     -377.38578      3840.7412      0.99696119
   1899000  -1246.8244      254.11214     -1500.9365      334.3112       360.72916      3840.7412      0.99696119
   1900000  -1274.813       224.97999     -1499.793       295.9848       174.21529      3840.7412      0.99696119
   1901000  -1268.6388      230.73512     -1499.3739      303.55627     -42.665919      3840.7412      0.99696119
   1902000  -1297.7114      218.25495     -1515.9664      287.13731     -2668.8061      3840.7412      0.99696119
   1903000  -1257.8437      229.24091     -1487.0846      301.59049      1208.4678      3840.7412      0.99696119
   1904000  -1272.9711      223.36159     -1496.3327      293.85563      1199.0572      3840.7412      0.99696119
   1905000  -1212.9326      239.09367     -1452.0263      314.55284      2238.3583      3840.7412      0.99696119
   1906000  -1265.6876      218.00585     -1483.6934      286.80959     -1267.3429      3840.7412      0.99696119
   1907000  -1255.4583      241.4613      -1496.9196      317.6677       789.13381      3840.7412      0.99696119
   1908000  -1244.5609      234.94136     -1479.5023      309.09003     -709.446        3840.7412      0.99696119
   1909000  -1224.1055      226.62726     -1450.7328      298.15196     -231.86428      3840.7412      0.99696119
   1910000  -1267.9172      236.48615     -1504.4034      311.12236      1954.6537      3840.7412      0.99696119
   1911000  -1279.2952      239.85101     -1519.1462      315.54919      63.770952      3840.7412      0.99696119
   1912000  -1236.8226      218.95689     -1455.7795      288.06078     -217.36181      3840.7412      0.99696119
   1913000  -1231.8797      236.86083     -1468.7405      311.6153       414.99495      3840.7412      0.99696119
   1914000  -1242.9765      231.11657     -1474.0931      304.05812      495.14772      3840.7412      0.99696119
   1915000  -1246.8558      235.02206     -1481.8779      309.1962       1046.123       3840.7412      0.99696119
   1916000  -1247.4632      238.34794     -1485.8111      313.57175     -266.39476      3840.7412      0.99696119
   1917000  -1235.8927      223.23252     -1459.1253      293.68582      43.31624       3840.7412      0.99696119
   1918000  -1276.4665      212.33958     -1488.8061      279.35501     -813.99612      3840.7412      0.99696119
   1919000  -1247.909       238.69499     -1486.6039      314.02832      109.5638       3840.7412      0.99696119
   1920000  -1244.2909      247.30387     -1491.5948      325.3542      -279.58647      3840.7412      0.99696119
   1921000  -1261.8873      221.4301      -1483.3174      291.31454      838.18886      3840.7412      0.99696119
   1922000  -1262.8098      215.33892     -1478.1487      283.30096     -1482.133       3840.7412      0.99696119
   1923000  -1260.7324      223.03516     -1483.7676      293.42618     -431.97411      3840.7412      0.99696119
   1924000  -1239.7666      232.31909     -1472.0856      305.64016      377.28552      3840.7412      0.99696119
   1925000  -1230.8579      252.80486     -1483.6627      332.59134      3691.2068      3840.7412      0.99696119
   1926000  -1223.7557      246.29185     -1470.0476      324.02279      844.72105      3840.7412      0.99696119
   1927000  -1231.8538      215.68466     -1447.5385      283.75582      963.9723       3840.7412      0.99696119
   1928000  -1273.3157      222.64667     -1495.9624      292.91507     -837.00458      3840.7412      0.99696119
   1929000  -1268.9628      224.41081     -1493.3736      295.23598     -1486.1942      3840.7412      0.99696119
   1930000  -1225.1657      228.71784     -1453.8835      300.90234     -343.86742      3840.7412      0.99696119
   1931000  -1276.6368      229.27062     -1505.9074      301.62957      58.739296      3840.7412      0.99696119
   1932000  -1278.8251      225.82454     -1504.6496      297.09589      927.05706      3840.7412      0.99696119
   1933000  -1303.6345      219.81534     -1523.4498      289.19017     -421.22809      3840.7412      0.99696119
   1934000  -1252.0274      226.61271     -1478.6402      298.13281      559.67658      3840.7412      0.99696119
   1935000  -1249.3138      223.29012     -1472.604       293.76161      575.62142      3840.7412      0.99696119
   1936000  -1232.9477      241.72693     -1474.6746      318.01716      853.49194      3840.7412      0.99696119
   1937000  -1256.915       227.15928     -1484.0743      298.85188     -1526.6132      3840.7412      0.99696119
   1938000  -1289.4844      205.51133     -1494.9958      270.37173     -2758.1151      3840.7412      0.99696119
   1939000  -1267.3111      219.86612     -1487.1772      289.25697      1469.9139      3840.7412      0.99696119
   1940000  -1260.116       205.23269     -1465.3486      270.00516     -711.40637      3840.7412      0.99696119
   1941000  -1244.8453      219.11656     -1463.9619      288.27084      177.34925      3840.7412      0.99696119
   1942000  -1237.6585      220.95817     -1458.6166      290.69367     -567.3622       3840.7412      0.99696119
   1943000  -1266.9323      218.73782     -1485.6701      287.77257      1324.8194      3840.7412      0.99696119
   1944000  -1225.2523      229.70859     -1454.9609      302.20577     -1536.423       3840.7412      0.99696119
   1945000  -1257.1865      220.06665     -1477.2532      289.52079     -1176.2088      3840.7412      0.99696119
   1946000  -1249.2068      217.62939     -1466.8362      286.31431      1044.3634      3840.7412      0.99696119
   1947000  -1234.2593      218.26823     -1452.5276      287.15478      820.53603      3840.7412      0.99696119
   1948000  -1237.3561      225.06679     -1462.4229      296.09899     -213.80842      3840.7412      0.99696119
   1949000  -1204.4681      233.64233     -1438.1104      307.38101      539.0783       3840.7412      0.99696119
   1950000  -1263.1139      197.88494     -1460.9988      260.33841     -1229.4165      3840.7412      0.99696119
   1951000  -1259.8812      211.06542     -1470.9467      277.67873     -1434.6292      3840.7412      0.99696119
   1952000  -1252.9483      232.22193     -1485.1702      305.51234      66.434194      3840.7412      0.99696119
   1953000  -1249.5066      229.71984     -1479.2265      302.22057      1825.7871      3840.7412      0.99696119
   1954000  -1253.5345      227.31792     -1480.8524      299.0606       1407.5022      3840.7412      0.99696119
   1955000  -1285.5551      219.3859      -1504.941       288.62518     -163.9827       3840.7412      0.99696119
   1956000  -1271.7199      230.64217     -1502.3621      303.43399      1115.2459      3840.7412      0.99696119
   1957000  -1254.3309      245.83625     -1500.1671      323.4234       172.28683      3840.7412      0.99696119
   1958000  -1239.0358      244.84631     -1483.8821      322.12103     -189.16907      3840.7412      0.99696119
   1959000  -1280.4491      227.73414     -1508.1833      299.60818     -1317.1887      3840.7412      0.99696119
   1960000  -1253.4619      226.47111     -1479.933       297.94653      1461.74        3840.7412      0.99696119
   1961000  -1272.081       221.89551     -1493.9765      291.92685      644.99889      3840.7412      0.99696119
   1962000  -1286.0582      229.07676     -1515.135       301.37454     -492.93917      3840.7412      0.99696119
   1963000  -1212.463       247.99438     -1460.4574      326.26265      2905.5364      3840.7412      0.99696119
   1964000  -1235.5896      240.02821     -1475.6178      315.78231     -192.21516      3840.7412      0.99696119
   1965000  -1282.1616      217.89861     -1500.0602      286.6685       1299.5637      3840.7412      0.99696119
   1966000  -1269.1977      229.86843     -1499.0661      302.41606      1515.2707      3840.7412      0.99696119
   1967000  -1262.7396      213.89364     -1476.6332      281.39955      404.9725       3840.7412      0.99696119
   1968000  -1271.2151      235.97496     -1507.1901      310.44984      763.57921      3840.7412      0.99696119
   1969000  -1247.3286      216.09265     -1463.4213      284.29258     -824.72947      3840.7412      0.99696119
   1970000  -1225.5673      231.89666     -1457.464       305.08441      378.89434      3840.7412      0.99696119
   1971000  -1264.3809      210.91828     -1475.2992      277.48515      1228.6239      3840.7412      0.99696119
   1972000  -1225.5273      229.69671     -1455.224       302.19014      402.339        3840.7412      0.99696119
   1973000  -1228.9937      245.48266     -1474.4763      322.95822      634.74496      3840.7412      0.99696119
   1974000  -1246.0746      229.72465     -1475.7992      302.2269       146.90523      3840.7412      0.99696119
   1975000  -1230.1926      237.03859     -1467.2312      311.84916      1335.5248      3840.7412      0.99696119
   1976000  -1281.8859      219.52983     -1501.4158      288.81454     -686.26439      3840.7412      0.99696119
   1977000  -1259.6307      229.32207     -1488.9528      301.69726      385.54667      3840.7412      0.99696119
   1978000  -1217.4928      225.60321     -1443.096       296.80471      616.41356      3840.7412      0.99696119
   1979000  -1254.383       252.50218     -1506.8851      332.19313      257.00927      3840.7412      0.99696119
   1980000  -1271.0876      219.98027     -1491.0679      289.40714      468.44231      3840.7412      0.99696119
   1981000  -1266.143       227.34633     -1493.4893      299.09798     -701.86848      3840.7412      0.99696119
   1982000  -1302.9082      217.06954     -1519.9777      285.57777     -542.49941      3840.7412      0.99696119
   1983000  -1272.7047      224.2262      -1496.9309      294.99311      219.607        3840.7412      0.99696119
   1984000  -1235.6604      234.64063     -1470.301       308.69438     -666.91707      3840.7412      0.99696119
   1985000  -1224.7451      256.22021     -1480.9653      337.08458     -206.90216      3840.7412      0.99696119
   1986000  -1285.7624      216.21306     -1501.9754      284.45099      886.17829      3840.7412      0.99696119
   1987000  -1280.8734      237.34078     -1518.2142      312.24672     -1128.8486      3840.7412      0.99696119
   1988000  -1275.2172      227.46745     -1502.6846      299.25732     -543.61975      3840.7412      0.99696119
   1989000  -1248.3941      224.81801     -1473.2121      295.77169     -1298.9375      3840.7412      0.99696119
   1990000  -1243.6461      235.4192      -1479.0653      309.71868     -93.749508      3840.7412      0.99696119
   1991000  -1267.7881      232.57414     -1500.3623      305.97571      730.39877      3840.7412      0.99696119
   1992000  -1217.2887      244.97438     -1462.2631      322.28952      117.30989      3840.7412      0.99696119
   1993000  -1249.4357      219.77996     -1469.2156      289.14361      302.73315      3840.7412      0.99696119
   1994000  -1259.0993      220.54687     -1479.6462      290.15257      304.05858      3840.7412      0.99696119
   1995000  -1246.4367      218.79847     -1465.2352      287.85236      856.51326      3840.7412      0.99696119
   1996000  -1283.9168      215.63167     -1499.5484      283.6861       1491.6115      3840.7412      0.99696119
   1997000  -1293.6019      205.81206     -1499.414       270.76738      254.06479      3840.7412      0.99696119
   1998000  -1261.0504      242.87272     -1503.9231      319.52457     -235.58712      3840.7412      0.99696119
   1999000  -1201.6763      229.05234     -1430.7286      301.3424      -411.34095      3840.7412      0.99696119
   2000000  -1238.2935      244.51275     -1482.8062      321.68219      973.20492      3840.7412      0.99696119
   2001000  -1231.5895      228.53934     -1460.1288      300.6675       147.40154      3840.7412      0.99696119
   2002000  -1209.8862      248.8025      -1458.6887      327.32581     -2471.9567      3840.7412      0.99696119
   2003000  -1232.3228      232.66328     -1464.9861      306.09298     -656.24554      3840.7412      0.99696119
   2004000  -1267.9129      224.28301     -1492.1959      295.06785      320.32794      3840.7412      0.99696119
   2005000  -1238.0055      234.17972     -1472.1852      308.08801     -1743.5448      3840.7412      0.99696119
   2006000  -1249.4729      231.60234     -1481.0753      304.6972      -986.77523      3840.7412      0.99696119
   2007000  -1214.3009      234.74619     -1449.0471      308.83326     -219.40583      3840.7412      0.99696119
   2008000  -1269.2371      230.58163     -1499.8187      303.35435      266.85629      3840.7412      0.99696119
   2009000  -1231.7577      235.17686     -1466.9346      309.39986     -170.79345      3840.7412      0.99696119
   2010000  -1237.1771      242.54873     -1479.7258      319.09832      1237.8495      3840.7412      0.99696119
   2011000  -1223.3747      232.92666     -1456.3013      306.43949      1682.8661      3840.7412      0.99696119
   2012000  -1239.8639      232.63698     -1472.5009      306.05837     -107.5649       3840.7412      0.99696119
   2013000  -1272.3309      204.47202     -1476.803       269.00441      138.06644      3840.7412      0.99696119
   2014000  -1221.0649      237.61418     -1458.6791      312.60641     -979.1031       3840.7412      0.99696119
   2015000  -1276.0878      234.98231     -1511.0701      309.1439       169.06865      3840.7412      0.99696119
   2016000  -1236.5715      220.78066     -1457.3522      290.46014      357.52032      3840.7412      0.99696119
   2017000  -1287.7696      223.34563     -1511.1152      293.83463      1573.1628      3840.7412      0.99696119
   2018000  -1245.4483      240.17364     -1485.622       315.97364     -622.69497      3840.7412      0.99696119
   2019000  -1267.3234      239.79168     -1507.1151      315.47114      2108.6428      3840.7412      0.99696119
   2020000  -1280.2018      238.37161     -1518.5734      313.60288      458.65975      3840.7412      0.99696119
   2021000  -1252.6669      203.84551     -1456.5124      268.18017     -1785.0725      3840.7412      0.99696119
   2022000  -1289.7125      225.11666     -1514.8291      296.1646       2353.7268      3840.7412      0.99696119
   2023000  -1262.5548      223.1597      -1485.7145      293.59002      1653.5267      3840.7412      0.99696119
   2024000  -1289.2224      211.65226     -1500.8746      278.45077      1414.3031      3840.7412      0.99696119
   2025000  -1252.2893      226.7084      -1478.9977      298.25871      29.106346      3840.7412      0.99696119
   2026000  -1250.1609      212.23076     -1462.3917      279.21185     -1475.9207      3840.7412      0.99696119
   2027000  -1233.3013      212.72036     -1446.0217      279.85597     -1495.2058      3840.7412      0.99696119
   2028000  -1201.7494      246.40075     -1448.1501      324.16605     -1903.9569      3840.7412      0.99696119
   2029000  -1250.7398      222.22722     -1472.967       292.36324     -1555.2907      3840.7412      0.99696119
   2030000  -1282.7197      221.84727     -1504.567       291.86338     -1848.0331      3840.7412      0.99696119
   2031000  -1265.3044      207.32765     -1472.632       272.7613      -1102.144       3840.7412      0.99696119
   2032000  -1268.1477      221.44013     -1489.5879      291.32774      533.14432      3840.7412      0.99696119
   2033000  -1284.4038      218.98634     -1503.3901      288.09953      836.67111      3840.7412      0.99696119
   2034000  -1237.6376      222.67097     -1460.3085      292.94704      934.9483       3840.7412      0.99696119
   2035000  -1253.9047      209.21312     -1463.1178      275.24183      1822.7089      3840.7412      0.99696119
   2036000  -1248.8336      248.41972     -1497.2533      326.82222     -243.94112      3840.7412      0.99696119
   2037000  -1245.3623      234.82531     -1480.1876      308.93736     -117.52738      3840.7412      0.99696119
   2038000  -1244.7984      230.30711     -1475.1055      302.99319      264.19052      3840.7412      0.99696119
   2039000  -1275.6183      235.09906     -1510.7174      309.2975       539.84678      3840.7412      0.99696119
   2040000  -1246.1514      229.99096     -1476.1423      302.57725      605.44639      3840.7412      0.99696119
   2041000  -1250.2982      215.43265     -1465.7308      283.42428     -1689.9661      3840.7412      0.99696119
   2042000  -1246.5487      236.62706     -1483.1758      311.30774     -241.37486      3840.7412      0.99696119
   2043000  -1232.3516      235.50254     -1467.8542      309.82833      582.86508      3840.7412      0.99696119
   2044000  -1262.5919      219.51511     -1482.107       288.79518     -1414.9609      3840.7412      0.99696119
   2045000  -1273.9048      208.18446     -1482.0892      273.88852     -1934.5969      3840.7412      0.99696119
   2046000  -1286.3623      213.19238     -1499.5547      280.47696     -1190.256       3840.7412      0.99696119
   2047000  -1253.9412      218.3616      -1472.3028      287.27762      2702.5344      3840.7412      0.99696119
   2048000  -1212.7851      220.30314     -1433.0882      289.83192      2535.431       3840.7412      0.99696119
   2049000  -1253.3602      220.48715     -1473.8474      290.074        1242.7039      3840.7412      0.99696119
   2050000  -1261.3658      202.83538     -1464.2012      266.85124      534.18057      3840.7412      0.99696119
   2051000  -1256.3688      224.50771     -1480.8765      295.36346      194.67835      3840.7412      0.99696119
   2052000  -1242.9332      226.81015     -1469.7433      298.39257     -1853.0542      3840.7412      0.99696119
   2053000  -1273.9291      228.99402     -1502.9231      301.26568      54.612202      3840.7412      0.99696119
   2054000  -1284.6668      217.54271     -1502.2095      286.20027      257.22031      3840.7412      0.99696119
   2055000  -1292.2283      219.94265     -1512.171       289.35766      680.13381      3840.7412      0.99696119
   2056000  -1294.1748      219.93113     -1514.106       289.34249      1179.0189      3840.7412      0.99696119
   2057000  -1299.7984      211.35449     -1511.1529      278.05903     -971.44488      3840.7412      0.99696119
   2058000  -1277.633       237.66025     -1515.2933      312.66701      460.27757      3840.7412      0.99696119
   2059000  -1290.4935      215.23756     -1505.7311      283.16761     -885.69878      3840.7412      0.99696119
   2060000  -1245.4148      211.50469     -1456.9195      278.25663      1839.3984      3840.7412      0.99696119
   2061000  -1260.734       209.91997     -1470.6539      276.17177      491.14198      3840.7412      0.99696119
   2062000  -1219.0747      235.3177      -1454.3924      309.58515      343.20408      3840.7412      0.99696119
   2063000  -1253.1874      211.08973     -1464.2771      277.71071      295.19966      3840.7412      0.99696119
   2064000  -1265.1531      231.4921      -1496.6452      304.55217      2256.1024      3840.7412      0.99696119
   2065000  -1276.8189      228.11038     -1504.9293      300.10316      1761.838       3840.7412      0.99696119
   2066000  -1257.8915      233.43696     -1491.3284      307.11084     -984.39352      3840.7412      0.99696119
   2067000  -1217.0914      232.28714     -1449.3786      305.59812     -47.791884      3840.7412      0.99696119
   2068000  -1267.7554      223.17959     -1490.935       293.61618      81.104023      3840.7412      0.99696119
   2069000  -1274.5971      239.17905     -1513.7762      314.66516      1601.4809      3840.7412      0.99696119
   2070000  -1257.8493      228.01675     -1485.8661      299.97998      769.06946      3840.7412      0.99696119
   2071000  -1301.2165      229.53119     -1530.7477      301.97239     -618.78614      3840.7412      0.99696119
   2072000  -1252.9765      232.69527     -1485.6718      306.13506      717.3332       3840.7412      0.99696119
   2073000  -1296.0451      206.15515     -1502.2002      271.21875     -93.0031        3840.7412      0.99696119
   2074000  -1269.8105      218.74026     -1488.5507      287.77578     -186.43719      3840.7412      0.99696119
   2075000  -1249.897       233.9611      -1483.8581      307.80039     -231.21911      3840.7412      0.99696119
   2076000  -1269.2932      228.21737     -1497.5106      300.24391      1728.8517      3840.7412      0.99696119
   2077000  -1271.8399      212.00707     -1483.847       278.91756     -206.36705      3840.7412      0.99696119
   2078000  -1272.534       247.25436     -1519.7884      325.28907      514.71923      3840.7412      0.99696119
   2079000  -1243.5796      231.00441     -1474.584       303.91056      380.86751      3840.7412      0.99696119
   2080000  -1264.6965      217.97067     -1482.6672      286.7633       1118.0482      3840.7412      0.99696119
   2081000  -1247.3671      233.33757     -1480.7047      306.98007     -1819.1385      3840.7412      0.99696119
   2082000  -1246.0633      239.71221     -1485.7755      315.36658      353.4673       3840.7412      0.99696119
   2083000  -1265.982       237.30651     -1503.2885      312.20164      458.76685      3840.7412      0.99696119
   2084000  -1266.2459      216.92392     -1483.1698      285.3862       332.7894       3840.7412      0.99696119
   2085000  -1243.0071      243.50639     -1486.5135      320.35823     -2059.4534      3840.7412      0.99696119
   2086000  -1251.8568      242.8793      -1494.736       319.53322     -1228.6876      3840.7412      0.99696119
   2087000  -1254.6949      212.85127     -1467.5461      280.02819      553.3055       3840.7412      0.99696119
   2088000  -1281.4887      226.1019      -1507.5906      297.46079      215.88466      3840.7412      0.99696119
   2089000  -1260.9796      244.14075     -1505.1204      321.1928      -1476.1993      3840.7412      0.99696119
   2090000  -1264.3069      245.82914     -1510.136       323.41404      1374.0385      3840.7412      0.99696119
   2091000  -1280.9212      222.34795     -1503.2691      292.52207      2931.2254      3840.7412      0.99696119
   2092000  -1259.36        224.31752     -1483.6775      295.11325      1756.0583      3840.7412      0.99696119
   2093000  -1261.8538      222.4867      -1484.3405      292.70462     -445.39545      3840.7412      0.99696119
   2094000  -1276.1161      211.98697     -1488.103       278.89111      2842.6752      3840.7412      0.99696119
   2095000  -1225.7209      226.33909     -1452.06        297.77284      1448.0576      3840.7412      0.99696119
   2096000  -1267.266       214.18392     -1481.4499      281.78144      1386.5141      3840.7412      0.99696119
   2097000  -1275.0385      214.01807     -1489.0566      281.56324     -2309.6725      3840.7412      0.99696119
   2098000  -1238.6875      235.31882     -1474.0063      309.58661     -954.37759      3840.7412      0.99696119
   2099000  -1258.583       225.68525     -1484.2682      296.91265      2427.0192      3840.7412      0.99696119
   2100000  -1272.8988      231.63925     -1504.538       304.74575      416.78661      3840.7412      0.99696119
   2101000  -1267.3776      221.4149      -1488.7925      291.29455     -893.60292      3840.7412      0.99696119
   2102000  -1250.5719      236.23896     -1486.8108      310.79716      1125.3188      3840.7412      0.99696119
   2103000  -1243.333       230.92918     -1474.2621      303.81158      580.43145      3840.7412      0.99696119
   2104000  -1291.054       225.07633     -1516.1304      296.11154      1130.2786      3840.7412      0.99696119
   2105000  -1245.1795      231.41822     -1476.5977      304.45497      1102.3551      3840.7412      0.99696119
   2106000  -1236.6886      224.13667     -1460.8253      294.87533      1857.5965      3840.7412      0.99696119
   2107000  -1250.8937      226.62905     -1477.5228      298.15431     -725.41076      3840.7412      0.99696119
   2108000  -1285.4554      229.22393     -1514.6794      301.56815     -340.98597      3840.7412      0.99696119
   2109000  -1235.7407      221.01969     -1456.7604      290.77461     -333.51168      3840.7412      0.99696119
   2110000  -1279.4937      220.27462     -1499.7683      289.79439     -914.35403      3840.7412      0.99696119
   2111000  -1243.7468      222.36766     -1466.1145      292.54801      1257.7574      3840.7412      0.99696119
   2112000  -1303.4835      209.46307     -1512.9466      275.57067     -1427.2806      3840.7412      0.99696119
   2113000  -1248.375       227.26504     -1475.6401      298.99102     -130.47011      3840.7412      0.99696119
   2114000  -1286.6553      223.23195     -1509.8873      293.68507      485.88044      3840.7412      0.99696119
   2115000  -1273.5822      222.78561     -1496.3678      293.09787      84.209441      3840.7412      0.99696119
   2116000  -1258.7263      221.33535     -1480.0616      291.1899       2100.2121      3840.7412      0.99696119
   2117000  -1269.9739      223.15685     -1493.1307      293.58627      695.31809      3840.7412      0.99696119
   2118000  -1270.2245      225.90854     -1496.133       297.20641     -277.3742       3840.7412      0.99696119
   2119000  -1254.9909      228.18733     -1483.1783      300.2044       223.52528      3840.7412      0.99696119
   2120000  -1241.1018      224.74351     -1465.8453      295.67369      1152.7364      3840.7412      0.99696119
   2121000  -1260.5981      211.05112     -1471.6493      277.65991      480.83334      3840.7412      0.99696119
   2122000  -1231.2208      228.44574     -1459.6665      300.54436      436.52845      3840.7412      0.99696119
   2123000  -1169.9955      267.24735     -1437.2428      351.59195      2737.5678      3840.7412      0.99696119
   2124000  -1239.8722      228.42084     -1468.2931      300.5116       149.08913      3840.7412      0.99696119
   2125000  -1250.7791      230.13109     -1480.9102      302.76162     -491.56566      3840.7412      0.99696119
   2126000  -1270.9292      238.80046     -1509.7296      314.16708      40.472621      3840.7412      0.99696119
   2127000  -1280.0967      216.57198     -1496.6686      284.92318      1614.016       3840.7412      0.99696119
   2128000  -1257.7601      228.6147      -1486.3748      300.76664     -1053.815       3840.7412      0.99696119
   2129000  -1248.6486      211.9839      -1460.6325      278.88708      1022.8573      3840.7412      0.99696119
   2130000  -1271.3555      224.38233     -1495.7378      295.19852     -1389.5826      3840.7412      0.99696119
   2131000  -1282.4876      220.67277     -1503.1604      290.3182      -198.59787      3840.7412      0.99696119
   2132000  -1247.6821      220.9806      -1468.6627      290.72318     -10.49428       3840.7412      0.99696119
   2133000  -1293.2659      209.77157     -1503.0375      275.97652     -13.501319      3840.7412      0.99696119
   2134000  -1220.0151      251.22426     -1471.2393      330.5119       791.82213      3840.7412      0.99696119
   2135000  -1245.6092      228.38187     -1473.9911      300.46033      3051.6506      3840.7412      0.99696119
   2136000  -1257.8062      239.9076      -1497.7138      315.62364      1125.9585      3840.7412      0.99696119
   2137000  -1282.1234      225.62496     -1507.7484      296.83332      2210.1861      3840.7412      0.99696119
   2138000  -1255.9789      230.29401     -1486.2729      302.97595      1323.2401      3840.7412      0.99696119
   2139000  -1257.9528      224.7909      -1482.7437      295.73603     -2135.1858      3840.7412      0.99696119
   2140000  -1280.4778      222.93676     -1503.4145      293.29671     -746.67253      3840.7412      0.99696119
   2141000  -1245.689       233.66461     -1479.3537      307.41033      1630.0853      3840.7412      0.99696119
   2142000  -1252.1155      231.08376     -1483.1993      304.01496      367.55455      3840.7412      0.99696119
   2143000  -1266.0297      216.89218     -1482.9219      285.34444     -3164.4365      3840.7412      0.99696119
   2144000  -1249.366       229.87672     -1479.2427      302.42696     -1368.5848      3840.7412      0.99696119
   2145000  -1285.2887      231.45162     -1516.7403      304.4989      -317.82496      3840.7412      0.99696119
   2146000  -1270.2092      224.12559     -1494.3348      294.86075     -967.5564       3840.7412      0.99696119
   2147000  -1272.6114      240.33338     -1512.9448      316.1838      -841.88409      3840.7412      0.99696119
   2148000  -1261.9507      230.73387     -1492.6846      303.55464     -266.92894      3840.7412      0.99696119
   2149000  -1286.9839      226.18307     -1513.1669      297.56758     -765.14254      3840.7412      0.99696119
   2150000  -1272.5636      234.05742     -1506.6211      307.92712     -1636.4352      3840.7412      0.99696119
   2151000  -1281.0356      220.48956     -1501.5252      290.07717     -494.80502      3840.7412      0.99696119
   2152000  -1261.5204      240.42522     -1501.9457      316.30462      1813.5407      3840.7412      0.99696119
   2153000  -1249.6024      247.3831      -1496.9855      325.45845      61.264664      3840.7412      0.99696119
   2154000  -1269.5634      225.75574     -1495.3191      297.00538      245.09055      3840.7412      0.99696119
   2155000  -1244.4276      230.88938     -1475.317       303.75923     -1004.7071      3840.7412      0.99696119
   2156000  -1232.8452      227.45124     -1460.2965      299.23599      2534.3345      3840.7412      0.99696119
   2157000  -1228.049       249.63931     -1477.6883      328.42672     -215.21852      3840.7412      0.99696119
   2158000  -1246.7076      240.954       -1487.6616      317.00029      722.63358      3840.7412      0.99696119
   2159000  -1249.0272      222.92864     -1471.9559      293.28604      429.75656      3840.7412      0.99696119
   2160000  -1239.4995      239.56942     -1479.0689      315.17873      268.94562      3840.7412      0.99696119
   2161000  -1275.7851      222.97177     -1498.7569      293.34278      1476.9783      3840.7412      0.99696119
   2162000  -1242.6452      250.84569     -1493.4909      330.01385     -1325.624       3840.7412      0.99696119
   2163000  -1274.7324      220.85777     -1495.5902      290.56159     -921.56269      3840.7412      0.99696119
   2164000  -1290.7367      198.5324      -1489.2691      261.19021     -218.68138      3840.7412      0.99696119
   2165000  -1248.0987      221.49503     -1469.5938      291.39997      227.95905      3840.7412      0.99696119
   2166000  -1278.0274      214.54249     -1492.5699      282.25318      713.24827      3840.7412      0.99696119
   2167000  -1241.4         224.91357     -1466.3136      295.89742      3189.2907      3840.7412      0.99696119
   2168000  -1245.7652      242.17332     -1487.9385      318.60444      897.07314      3840.7412      0.99696119
   2169000  -1294.3152      206.71854     -1501.0337      271.95994      2079.8491      3840.7412      0.99696119
   2170000  -1259.4672      226.15693     -1485.6241      297.53319     -841.61334      3840.7412      0.99696119
   2171000  -1265.3616      228.66065     -1494.0223      300.82709     -561.48714      3840.7412      0.99696119
   2172000  -1304.1357      212.95954     -1517.0953      280.17064      1042.6455      3840.7412      0.99696119
   2173000  -1238.5883      234.9852      -1473.5735      309.14771     -504.84714      3840.7412      0.99696119
   2174000  -1240.271       234.9208      -1475.1918      309.06299      676.11123      3840.7412      0.99696119
   2175000  -1279.2427      220.32811     -1499.5708      289.86477      1259.7472      3840.7412      0.99696119
   2176000  -1234.7707      222.05471     -1456.8254      292.13628      497.45219      3840.7412      0.99696119
   2177000  -1237.3269      231.26172     -1468.5887      304.24908     -614.23621      3840.7412      0.99696119
   2178000  -1221.8148      244.01991     -1465.8347      321.03381     -1060.5856      3840.7412      0.99696119
   2179000  -1265.561       214.9027      -1480.4637      282.72706     -516.67619      3840.7412      0.99696119
   2180000  -1272.2749      217.8608      -1490.1357      286.61876      1018.5064      3840.7412      0.99696119
   2181000  -1230.0812      231.32888     -1461.4101      304.33743      2148.6486      3840.7412      0.99696119
   2182000  -1258.6877      236.77195     -1495.4596      311.49836      1605.3519      3840.7412      0.99696119
   2183000  -1261.5206      210.61591     -1472.1365      277.08735     -918.6131       3840.7412      0.99696119
   2184000  -1229.6987      230.35652     -1460.0552      303.05819      1409.7105      3840.7412      0.99696119
   2185000  -1239.4318      232.5965      -1472.0283      306.00512     -525.46237      3840.7412      0.99696119
   2186000  -1279.1981      207.50009     -1486.6982      272.98816      312.05161      3840.7412      0.99696119
   2187000  -1235.8792      218.51031     -1454.3895      287.47326      3532.7691      3840.7412      0.99696119
   2188000  -1269.523       219.72609     -1489.249       289.07274      324.10078      3840.7412      0.99696119
   2189000  -1243.2881      214.0363      -1457.3244      281.58722      74.584068      3840.7412      0.99696119
   2190000  -1247.6027      228.78095     -1476.3836      300.98536      1696.5092      3840.7412      0.99696119
   2191000  -1262.1572      232.51231     -1494.6695      305.89436      342.66186      3840.7412      0.99696119
   2192000  -1234.2943      232.7236      -1467.0179      306.17234      940.35703      3840.7412      0.99696119
   2193000  -1245.2979      223.18606     -1468.484       293.6247      -408.92092      3840.7412      0.99696119
   2194000  -1258.2434      216.46946     -1474.7129      284.78831     -896.39259      3840.7412      0.99696119
   2195000  -1227.5622      235.7141      -1463.2763      310.10665     -874.82867      3840.7412      0.99696119
   2196000  -1256.6882      219.52523     -1476.2134      288.80849     -281.65554      3840.7412      0.99696119
   2197000  -1207.0714      238.93122     -1446.0026      314.33911     -752.54252      3840.7412      0.99696119
   2198000  -1282.5041      218.22011     -1500.7242      287.09147      1535.9118      3840.7412      0.99696119
   2199000  -1285.2035      209.76631     -1494.9698      275.96961     -1736.1055      3840.7412      0.99696119
   2200000  -1265.9446      218.24707     -1484.1917      287.12693     -486.92911      3840.7412      0.99696119
   2201000  -1290.2984      222.74726     -1513.0457      293.04741     -264.98119      3840.7412      0.99696119
   2202000  -1266.0229      225.30814     -1491.3311      296.41651     -1634.6828      3840.7412      0.99696119
   2203000  -1230.9491      222.73348     -1453.6826      293.02928      565.56728      3840.7412      0.99696119
   2204000  -1266.1993      224.41764     -1490.6169      295.24497      572.7845       3840.7412      0.99696119
   2205000  -1236.9408      233.31923     -1470.26        306.95594      2029.6521      3840.7412      0.99696119
   2206000  -1232.7259      249.07951     -1481.8054      327.69025      429.95876      3840.7412      0.99696119
   2207000  -1227.8181      253.09332     -1480.9114      332.97084      1724.2952      3840.7412      0.99696119
   2208000  -1253.3383      224.05298     -1477.3913      294.76522     -913.39758      3840.7412      0.99696119
   2209000  -1281.8589      220.40351     -1502.2624      289.96396     -516.38788      3840.7412      0.99696119
   2210000  -1229.9509      248.58458     -1478.5355      327.03911     -592.67935      3840.7412      0.99696119
   2211000  -1267.445       219.46509     -1486.9101      288.72937      270.42001      3840.7412      0.99696119
   2212000  -1267.6963      215.4238      -1483.1201      283.41263      592.45468      3840.7412      0.99696119
   2213000  -1268.7388      244.82518     -1513.564       322.09324      253.87725      3840.7412      0.99696119
   2214000  -1265.284       231.08116     -1496.3651      304.01153     -144.94657      3840.7412      0.99696119
   2215000  -1256.7395      237.80536     -1494.5448      312.85792      1272.6926      3840.7412      0.99696119
   2216000  -1259.592       209.67502     -1469.2671      275.8495      -1227.5567      3840.7412      0.99696119
   2217000  -1245.7582      232.78012     -1478.5383      306.24669     -1481.3694      3840.7412      0.99696119
   2218000  -1231.3847      230.71575     -1462.1004      303.5308       1329.0886      3840.7412      0.99696119
   2219000  -1258.6812      231.10282     -1489.784       304.04003      1183.972       3840.7412      0.99696119
   2220000  -1263.3887      218.30199     -1481.6907      287.19919      125.11106      3840.7412      0.99696119
   2221000  -1236.9209      229.60856     -1466.5295      302.07417      188.0371       3840.7412      0.99696119
   2222000  -1238.0543      221.0949      -1459.1492      290.87356      1010.1684      3840.7412      0.99696119
   2223000  -1260.7848      227.24463     -1488.0294      298.96417     -128.3695       3840.7412      0.99696119
   2224000  -1302.6022      220.82235     -1523.4246      290.51499      392.39015      3840.7412      0.99696119
   2225000  -1246.3609      236.34214     -1482.703       310.9329       814.80278      3840.7412      0.99696119
   2226000  -1288.9798      212.91871     -1501.8985      280.11692      59.305271      3840.7412      0.99696119
   2227000  -1258.5273      228.7338      -1487.2611      300.92333     -781.26422      3840.7412      0.99696119
   2228000  -1261.9346      220.19144     -1482.126       289.68496     -1512.8836      3840.7412      0.99696119
   2229000  -1266.288       221.46171     -1487.7497      291.35614     -1086.0205      3840.7412      0.99696119
   2230000  -1256.8525      208.3749      -1465.2275      274.13907      863.9742       3840.7412      0.99696119
   2231000  -1249.4474      223.58583     -1473.0332      294.15064     -1637.1516      3840.7412      0.99696119
   2232000  -1227.8308      232.55019     -1460.381       305.94419     -564.12344      3840.7412      0.99696119
   2233000  -1295.0911      224.71717     -1519.8083      295.63904      75.559518      3840.7412      0.99696119
   2234000  -1253.161       228.82565     -1481.9867      301.04417      70.360978      3840.7412      0.99696119
   2235000  -1269.6797      222.32297     -1492.0027      292.48921     -83.293805      3840.7412      0.99696119
   2236000  -1268.8752      222.91106     -1491.7862      293.26291     -1383.2012      3840.7412      0.99696119
   2237000  -1228.7736      238.73463     -1467.5082      314.08047      619.29143      3840.7412      0.99696119
   2238000  -1268.7687      220.51797     -1489.2866      290.11454     -1206.3862      3840.7412      0.99696119
   2239000  -1280.565       231.09718     -1511.6622      304.03261     -740.97377      3840.7412      0.99696119
   2240000  -1258.7596      230.2461      -1489.0057      302.91293     -750.57453      3840.7412      0.99696119
   2241000  -1276.703       230.66079     -1507.3638      303.4585       1030.8048      3840.7412      0.99696119
   2242000  -1266.2773      231.64152     -1497.9188      304.74874     -222.24675      3840.7412      0.99696119
   2243000  -1235.9186      223.77046     -1459.6891      294.39353      1826.474       3840.7412      0.99696119
   2244000  -1299.801       214.89433     -1514.6953      282.71605      170.33011      3840.7412      0.99696119
   2245000  -1251.0622      212.84759     -1463.9098      280.02336     -1504.6861      3840.7412      0.99696119
   2246000  -1265.0873      218.60579     -1483.6931      287.59887      177.94001      3840.7412      0.99696119
   2247000  -1242.1646      231.22305     -1473.3876      304.1982      -1229.2302      3840.7412      0.99696119
   2248000  -1248.4254      224.64185     -1473.0672      295.53994     -1326.1767      3840.7412      0.99696119
   2249000  -1253.7288      220.15761     -1473.8864      289.64045      1542.8098      3840.7412      0.99696119
   2250000  -1264.7764      221.17517     -1485.9516      290.97916      1165.7574      3840.7412      0.99696119
   2251000  -1250.274       226.98493     -1477.2589      298.62251      2360.2439      3840.7412      0.99696119
   2252000  -1252.1068      215.41426     -1467.521       283.40007      1420.5369      3840.7412      0.99696119
   2253000  -1249.4469      234.3566      -1483.8035      308.32071      355.93445      3840.7412      0.99696119
   2254000  -1246.5334      233.5435      -1480.0769      307.251       -730.21621      3840.7412      0.99696119
   2255000  -1239.5494      250.12638     -1489.6757      329.06751      815.58483      3840.7412      0.99696119
   2256000  -1271.1812      214.60269     -1485.7839      282.33237     -1230.8398      3840.7412      0.99696119
   2257000  -1258.4233      208.76781     -1467.1911      274.65597      601.66606      3840.7412      0.99696119
   2258000  -1226.6339      245.4869      -1472.1208      322.9638      -437.25376      3840.7412      0.99696119
   2259000  -1227.8172      216.59697     -1444.4142      284.95606      1862.8347      3840.7412      0.99696119
   2260000  -1208.0839      233.13258     -1441.2165      306.71039      118.56351      3840.7412      0.99696119
   2261000  -1239.6319      230.81171     -1470.4436      303.65704      1814.1144      3840.7412      0.99696119
   2262000  -1297.2219      220.64732     -1517.8692      290.28472      62.996817      3840.7412      0.99696119
   2263000  -1268.0461      222.39624     -1490.4424      292.5856       582.43108      3840.7412      0.99696119
   2264000  -1255.1302      224.25087     -1479.3811      295.02557     -103.92696      3840.7412      0.99696119
   2265000  -1266.4053      233.38289     -1499.7882      307.03969     -2426.8113      3840.7412      0.99696119
   2266000  -1297.1757      209.41768     -1506.5933      275.51095      1466.28        3840.7412      0.99696119
   2267000  -1252.0486      214.65802     -1466.7066      282.40517      974.2815       3840.7412      0.99696119
   2268000  -1251.9528      223.18638     -1475.1392      293.62511     -1955.8561      3840.7412      0.99696119
   2269000  -1283.2582      218.39498     -1501.6532      287.32152     -2011.7834      3840.7412      0.99696119
   2270000  -1230.4986      227.39652     -1457.8951      299.164        379.10362      3840.7412      0.99696119
   2271000  -1257.6385      240.25904     -1497.8975      316.08599      1266.319       3840.7412      0.99696119
   2272000  -1252.1048      222.32662     -1474.4314      292.49402      502.07165      3840.7412      0.99696119
   2273000  -1241.1142      233.5286      -1474.6428      307.23139      402.7193       3840.7412      0.99696119
   2274000  -1252.659       224.4512      -1477.1102      295.28913     -1001.9527      3840.7412      0.99696119
   2275000  -1320.414       204.90528     -1525.3192      269.57441      1455.7326      3840.7412      0.99696119
   2276000  -1248.8025      245.2911      -1494.0936      322.7062       2868.8235      3840.7412      0.99696119
   2277000  -1273.82        206.72307     -1480.543       271.96591      764.97025      3840.7412      0.99696119
   2278000  -1261.681       219.47203     -1481.153       288.7385      -13.252894      3840.7412      0.99696119
   2279000  -1231.1865      217.78794     -1448.9744      286.52291     -728.73214      3840.7412      0.99696119
   2280000  -1230.3059      228.00572     -1458.3116      299.96546     -862.15987      3840.7412      0.99696119
   2281000  -1273.4264      224.80636     -1498.2328      295.75637      1572.2649      3840.7412      0.99696119
   2282000  -1228.3627      236.17705     -1464.5398      310.71571      637.69017      3840.7412      0.99696119
   2283000  -1251.2556      220.2354      -1471.491       289.7428       1497.8594      3840.7412      0.99696119
   2284000  -1254.3389      230.65351     -1484.9924      303.44892      2419.6107      3840.7412      0.99696119
   2285000  -1235.6362      249.83635     -1485.4726      328.68596      899.15139      3840.7412      0.99696119
   2286000  -1271.4213      227.41642     -1498.8377      299.19018      1815.6009      3840.7412      0.99696119
   2287000  -1273.1632      229.40664     -1502.5698      301.80852      1337.8313      3840.7412      0.99696119
   2288000  -1248.297       225.88691     -1474.1839      297.17795     -228.60714      3840.7412      0.99696119
   2289000  -1254.3832      239.19451     -1493.5777      314.68549      2030.8665      3840.7412      0.99696119
   2290000  -1268.3298      234.11493     -1502.4447      308.00277     -1006.1607      3840.7412      0.99696119
   2291000  -1246.2721      231.2416      -1477.5137      304.22261      1250.8965      3840.7412      0.99696119
   2292000  -1277.7492      213.93216     -1491.6813      281.45022      690.89369      3840.7412      0.99696119
   2293000  -1259.7105      226.14199     -1485.8525      297.51353     -361.40849      3840.7412      0.99696119
   2294000  -1278.015       230.66435     -1508.6793      303.46317     -20.764778      3840.7412      0.99696119
   2295000  -1252.0815      233.84418     -1485.9257      307.64657      1304.5792      3840.7412      0.99696119
   2296000  -1257.0345      235.57981     -1492.6144      309.92997      475.93386      3840.7412      0.99696119
   2297000  -1314.3977      215.94663     -1530.3443      284.10047     -1525.9342      3840.7412      0.99696119
   2298000  -1286.419       204.95615     -1491.3752      269.64134      371.57847      3840.7412      0.99696119
   2299000  -1275.2399      226.54087     -1501.7808      298.0383       2164.8766      3840.7412      0.99696119
   2300000  -1287.0961      218.29038     -1505.3865      287.18391     -1092.9453      3840.7412      0.99696119
   2301000  -1285.9343      200.61499     -1486.5492      263.93008      303.05034      3840.7412      0.99696119
   2302000  -1238.2081      224.37736     -1462.5855      295.19198      960.52078      3840.7412      0.99696119
   2303000  -1229.1711      244.71987     -1473.891       321.95468      2574.2305      3840.7412      0.99696119
   2304000  -1251.2239      211.83769     -1463.0616      278.69473      1594.387       3840.7412      0.99696119
   2305000  -1239.0407      238.22005     -1477.2608      313.40349     -741.81628      3840.7412      0.99696119
   2306000  -1290.6974      215.97647     -1506.6739      284.13972     -865.5821       3840.7412      0.99696119
   2307000  -1248.5073      227.03906     -1475.5463      298.69373      2.7949081      3840.7412      0.99696119
   2308000  -1265.4975      225.34366     -1490.8412      296.46325      1812.7528      3840.7412      0.99696119
   2309000  -1245.8454      244.76138     -1490.6068      322.0093       81.803477      3840.7412      0.99696119
   2310000  -1263.189       227.5068      -1490.6958      299.30909      594.02256      3840.7412      0.99696119
   2311000  -1248.3035      231.3578      -1479.6613      304.37548      750.88311      3840.7412      0.99696119
   2312000  -1277.8267      217.19835     -1495.025       285.74724     -1118.6954      3840.7412      0.99696119
   2313000  -1236.1624      244.11702     -1480.2795      321.16158      1153.046       3840.7412      0.99696119
   2314000  -1247.6348      223.05961     -1470.6944      293.45834     -815.94271      3840.7412      0.99696119
   2315000  -1262.8144      228.15069     -1490.965       300.15619      1095.2404      3840.7412      0.99696119
   2316000  -1273.3192      231.06073     -1504.3799      303.98465      1299.7232      3840.7412      0.99696119
   2317000  -1238.3794      230.19343     -1468.5728      302.84363      1182.093       3840.7412      0.99696119
   2318000  -1254.6558      224.10531     -1478.7611      294.83407     -424.70392      3840.7412      0.99696119
   2319000  -1222.0787      221.71661     -1443.7953      291.69148      330.35468      3840.7412      0.99696119
   2320000  -1254.086       211.03815     -1465.1242      277.64284      480.07429      3840.7412      0.99696119
   2321000  -1251.2507      234.83854     -1486.0893      308.95476      274.63708      3840.7412      0.99696119
   2322000  -1268.576       241.31428     -1509.8903      317.47428      1719.3339      3840.7412      0.99696119
   2323000  -1261.3726      242.63752     -1504.0101      319.21513     -251.75765      3840.7412      0.99696119
   2324000  -1249.9675      226.82396     -1476.7914      298.41074     -69.641082      3840.7412      0.99696119
   2325000  -1248.3124      231.88189     -1480.1943      305.06497      325.96821      3840.7412      0.99696119
   2326000  -1274.2168      218.6752      -1492.892       287.69019      386.24554      3840.7412      0.99696119
   2327000  -1287.4299      212.05604     -1499.486       278.98199      435.07767      3840.7412      0.99696119
   2328000  -1286.8302      201.87831     -1488.7085      265.59211      94.209337      3840.7412      0.99696119
   2329000  -1230.2513      251.45299     -1481.7043      330.81281      642.57045      3840.7412      0.99696119
   2330000  -1265.3091      235.03533     -1500.3445      309.21366      1825.0189      3840.7412      0.99696119
   2331000  -1311.2548      222.45048     -1533.7053      292.65696      940.22662      3840.7412      0.99696119
   2332000  -1232.8536      243.81827     -1476.6719      320.76854      1399.0937      3840.7412      0.99696119
   2333000  -1270.9064      220.5214      -1491.4278      290.11906      1468.0362      3840.7412      0.99696119
   2334000  -1264.9029      225.92348     -1490.8263      297.22606      946.97194      3840.7412      0.99696119
   2335000  -1260.2794      241.9782      -1502.2576      318.34774     -294.93898      3840.7412      0.99696119
   2336000  -1236.3721      240.15328     -1476.5254      315.94686     -137.28357      3840.7412      0.99696119
   2337000  -1274.4915      214.12572     -1488.6172      281.70487      2240.7106      3840.7412      0.99696119
   2338000  -1264.7388      234.4335      -1499.1723      308.42189      2191.2378      3840.7412      0.99696119
   2339000  -1272.3497      221.94965     -1494.2994      291.99807     -37.779819      3840.7412      0.99696119
   2340000  -1259.9504      228.35191     -1488.3023      300.42091      1889.9298      3840.7412      0.99696119
   2341000  -1270.5233      221.84667     -1492.37        291.86259      1289.1041      3840.7412      0.99696119
   2342000  -1275.0144      224.48163     -1499.496       295.32915      830.72524      3840.7412      0.99696119
   2343000  -1298.2832      213.27669     -1511.5599      280.58788      1154.9649      3840.7412      0.99696119
   2344000  -1248.4473      250.07608     -1498.5234      329.00134      1478.2413      3840.7412      0.99696119
   2345000  -1255.734       219.78046     -1475.5144      289.14428     -7.3882804      3840.7412      0.99696119
   2346000  -1286.9713      212.87249     -1499.8438      280.05611      2.9257591      3840.7412      0.99696119
   2347000  -1268.0879      230.6704      -1498.7583      303.47113     -892.06276      3840.7412      0.99696119
   2348000  -1273.4769      225.31349     -1498.7904      296.42356      480.88923      3840.7412      0.99696119
   2349000  -1219.5827      245.80081     -1465.3835      323.37677     -709.26756      3840.7412      0.99696119
   2350000  -1259.1988      236.22405     -1495.4229      310.77755     -1099.4552      3840.7412      0.99696119
   2351000  -1250.4263      229.76956     -1480.1958      302.28599      1378.1463      3840.7412      0.99696119
   2352000  -1252.9137      229.83796     -1482.7516      302.37597      288.11371      3840.7412      0.99696119
   2353000  -1258.769       224.88059     -1483.6495      295.85403     -1133.5327      3840.7412      0.99696119
   2354000  -1245.8448      229.06556     -1474.9104      301.35979      1401.0509      3840.7412      0.99696119
   2355000  -1262.6391      218.91942     -1481.5585      288.01149     -688.27886      3840.7412      0.99696119
   2356000  -1237.1319      222.48263     -1459.6145      292.69926     -602.6861       3840.7412      0.99696119
   2357000  -1250.7901      234.02058     -1484.8107      307.87865      1255.9608      3840.7412      0.99696119
   2358000  -1242.8526      242.14832     -1485.0009      318.57155      2730.6639      3840.7412      0.99696119
   2359000  -1304.9535      217.04412     -1521.9976      285.54433     -2677.526       3840.7412      0.99696119
   2360000  -1254.3605      230.16785     -1484.5283      302.80997      1411.7535      3840.7412      0.99696119
   2361000  -1254.3855      243.95434     -1498.3399      320.94756      781.77839      3840.7412      0.99696119
   2362000  -1274.2157      222.3063      -1496.522       292.46728      1578.8417      3840.7412      0.99696119
   2363000  -1269.9902      211.05975     -1481.0499      277.67127      232.53617      3840.7412      0.99696119
   2364000  -1241.1439      236.84514     -1477.9891      311.59465     -649.76089      3840.7412      0.99696119
   2365000  -1266.707       233.05503     -1499.7621      306.60837      884.16339      3840.7412      0.99696119
   2366000  -1264.9724      230.37413     -1495.3466      303.08135     -354.8412       3840.7412      0.99696119
   2367000  -1255.0847      241.59778     -1496.6825      317.84725     -240.34262      3840.7412      0.99696119
   2368000  -1244.8028      229.82999     -1474.6328      302.36548     -1827.1355      3840.7412      0.99696119
   2369000  -1281.0359      223.23462     -1504.2706      293.68858     -1718.4964      3840.7412      0.99696119
   2370000  -1268.3555      217.23357     -1485.589       285.79358     -563.27791      3840.7412      0.99696119
   2371000  -1263.9458      206.90563     -1470.8514      272.20609     -1306.4908      3840.7412      0.99696119
   2372000  -1202.5623      246.94677     -1449.5091      324.88441      405.95206      3840.7412      0.99696119
   2373000  -1265.1609      227.39447     -1492.5554      299.1613       1297.7554      3840.7412      0.99696119
   2374000  -1281.9506      209.34474     -1491.2954      275.41499      340.70069      3840.7412      0.99696119
   2375000  -1225.372       236.14462     -1461.5166      310.67304     -440.14475      3840.7412      0.99696119
   2376000  -1263.5681      228.73598     -1492.3041      300.9262       321.93898      3840.7412      0.99696119
   2377000  -1275.4991      222.24678     -1497.7459      292.38898     -686.82737      3840.7412      0.99696119
   2378000  -1249.1619      227.01841     -1476.1803      298.66655      1004.599       3840.7412      0.99696119
   2379000  -1262.1804      215.62982     -1477.8102      283.68368      1603.4019      3840.7412      0.99696119
   2380000  -1252.3467      229.05631     -1481.4031      301.34763     -217.07314      3840.7412      0.99696119
   2381000  -1219.8308      254.16717     -1473.998       334.3836       397.66484      3840.7412      0.99696119
   2382000  -1275.3509      221.0489      -1496.3998      290.81303      409.38577      3840.7412      0.99696119
   2383000  -1232.8928      237.50115     -1470.394       312.4577       555.62089      3840.7412      0.99696119
   2384000  -1248.3848      223.14448     -1471.5293      293.56999     -219.60988      3840.7412      0.99696119
   2385000  -1246.0796      208.26074     -1454.3403      273.98887      2203.162       3840.7412      0.99696119
   2386000  -1240.9172      231.76258     -1472.6797      304.90801      866.13819      3840.7412      0.99696119
   2387000  -1250.1051      236.46961     -1486.5747      311.1006       1932.8343      3840.7412      0.99696119
   2388000  -1274.0077      227.34491     -1501.3526      299.09611      104.1839       3840.7412      0.99696119
   2389000  -1236.1929      233.21252     -1469.4054      306.81555     -768.47515      3840.7412      0.99696119
   2390000  -1267.5579      223.1026      -1490.6605      293.5149       1399.6111      3840.7412      0.99696119
   2391000  -1262.3976      228.79681     -1491.1945      301.00623      2723.7543      3840.7412      0.99696119
   2392000  -1253.1341      236.94505     -1490.0791      311.72609      1815.4625      3840.7412      0.99696119
   2393000  -1218.4897      232.72092     -1451.2106      306.16881     -353.53164      3840.7412      0.99696119
   2394000  -1258.9668      219.33176     -1478.2985      288.55396      675.18584      3840.7412      0.99696119
   2395000  -1274.8886      215.3926      -1490.2812      283.37158     -1057.9401      3840.7412      0.99696119
   2396000  -1233.5466      215.49858     -1449.0452      283.51101      57.890065      3840.7412      0.99696119
   2397000  -1271.7212      223.07759     -1494.7988      293.482       -796.90193      3840.7412      0.99696119
   2398000  -1256.5214      223.42731     -1479.9487      293.94209     -281.88123      3840.7412      0.99696119
   2399000  -1272.9956      225.11783     -1498.1135      296.16614      1696.5103      3840.7412      0.99696119
   2400000  -1259.3377      218.18691     -1477.5246      287.04779     -505.45171      3840.7412      0.99696119
   2401000  -1252.9056      238.14303     -1491.0486      313.30217      310.4104       3840.7412      0.99696119
   2402000  -1308.0248      216.20386     -1524.2286      284.43888      259.99075      3840.7412      0.99696119
   2403000  -1256.8292      230.13272     -1486.9619      302.76376     -309.13597      3840.7412      0.99696119
   2404000  -1269.2785      212.22555     -1481.5041      279.205        33.147865      3840.7412      0.99696119
   2405000  -1290.6869      206.90321     -1497.5901      272.20289     -634.43431      3840.7412      0.99696119
   2406000  -1263.196       217.30422     -1480.5002      285.88652     -1369.2943      3840.7412      0.99696119
   2407000  -1245.4922      238.14956     -1483.6418      313.31075      1021.6151      3840.7412      0.99696119
   2408000  -1229.4048      236.02016     -1465.425       310.50931     -74.643777      3840.7412      0.99696119
   2409000  -1250.0122      217.27203     -1467.2842      285.84417      1966.175       3840.7412      0.99696119
   2410000  -1260.6434      234.21364     -1494.857       308.13263      720.9509       3840.7412      0.99696119
   2411000  -1260.4935      224.63756     -1485.1311      295.53429     -591.18153      3840.7412      0.99696119
   2412000  -1258.3422      221.46092     -1479.8031      291.35509     -147.95848      3840.7412      0.99696119
   2413000  -1233.5521      246.93054     -1480.4826      324.86305     -2537.7108      3840.7412      0.99696119
   2414000  -1217.221       216.52378     -1433.7448      284.85977     -1224.6476      3840.7412      0.99696119
   2415000  -1245.0118      228.12232     -1473.1341      300.11887      200.84428      3840.7412      0.99696119
   2416000  -1286.4192      218.4683      -1504.8875      287.41799      2060.7739      3840.7412      0.99696119
   2417000  -1268.0259      238.04103     -1506.0669      313.16797      1926.4631      3840.7412      0.99696119
   2418000  -1267.5181      224.66176     -1492.1799      295.56613     -685.02133      3840.7412      0.99696119
   2419000  -1252.5651      231.85206     -1484.4172      305.02573     -408.24128      3840.7412      0.99696119
   2420000  -1249.6332      232.90622     -1482.5394      306.4126       1186.5387      3840.7412      0.99696119
   2421000  -1262.9773      201.71845     -1464.6958      265.38181     -1113.0804      3840.7412      0.99696119
   2422000  -1294.7878      204.09476     -1498.8825      268.50809     -1238.4185      3840.7412      0.99696119
   2423000  -1273.6985      215.50504     -1489.2035      283.51951      331.57793      3840.7412      0.99696119
   2424000  -1264.6625      210.9117      -1475.5742      277.47649     -352.47541      3840.7412      0.99696119
   2425000  -1257.5437      227.93485     -1485.4786      299.87223     -99.019332      3840.7412      0.99696119
   2426000  -1244.4408      227.74839     -1472.1892      299.62692      933.41037      3840.7412      0.99696119
   2427000  -1272.0285      206.22965     -1478.2582      271.31676     -353.35255      3840.7412      0.99696119
   2428000  -1271.5694      222.59993     -1494.1694      292.85359     -417.96741      3840.7412      0.99696119
   2429000  -1234.083       232.98031     -1467.0633      306.51006      774.55734      3840.7412      0.99696119
   2430000  -1236.5447      234.00669     -1470.5514      307.86037     -390.96798      3840.7412      0.99696119
   2431000  -1226.2876      236.4395      -1462.7271      311.061        883.8228       3840.7412      0.99696119
   2432000  -1285.9901      219.15724     -1505.1473      288.32436     -668.66649      3840.7412      0.99696119
   2433000  -1261.9106      221.83545     -1483.7461      291.84783      1881.8828      3840.7412      0.99696119
   2434000  -1247.1373      203.58522     -1450.7225      267.83773      711.57723      3840.7412      0.99696119
   2435000  -1222.3939      245.76502     -1468.1589      323.32969     -884.29977      3840.7412      0.99696119
   2436000  -1253.8622      229.39608     -1483.2583      301.79464      539.56577      3840.7412      0.99696119
   2437000  -1231.2498      250.03362     -1481.2834      328.94548     -4.8750847      3840.7412      0.99696119
   2438000  -1268.4781      231.10547     -1499.5836      304.04352      306.96766      3840.7412      0.99696119
   2439000  -1248.6692      235.23073     -1483.8999      309.47072      1774.0529      3840.7412      0.99696119
   2440000  -1238.2325      232.77032     -1471.0028      306.2338       304.4714       3840.7412      0.99696119
   2441000  -1214.1069      251.38401     -1465.4909      330.72206     -251.43302      3840.7412      0.99696119
   2442000  -1236.9107      228.01286     -1464.9235      299.97486      1440.6965      3840.7412      0.99696119
   2443000  -1282.8392      200.65407     -1483.4932      263.9815       611.47863      3840.7412      0.99696119
   2444000  -1276.4205      227.62806     -1504.0486      299.46862      909.23506      3840.7412      0.99696119
   2445000  -1262.3633      236.59841     -1498.9617      311.27005     -585.0159       3840.7412      0.99696119
   2446000  -1233.4251      223.41215     -1456.8372      293.92214     -1106.6295      3840.7412      0.99696119
   2447000  -1260.152       230.33134     -1490.4834      303.02507      1212.6768      3840.7412      0.99696119
   2448000  -1213.3813      242.51159     -1455.8929      319.04947     -780.91044      3840.7412      0.99696119
   2449000  -1253.6775      230.38634     -1484.0639      303.09742      2191.2518      3840.7412      0.99696119
   2450000  -1289.4437      228.08734     -1517.5311      300.07285     -875.23134      3840.7412      0.99696119
   2451000  -1264.0156      230.19163     -1494.2072      302.84126     -74.884451      3840.7412      0.99696119
   2452000  -1266.6808      230.27394     -1496.9548      302.94955      2360.4172      3840.7412      0.99696119
   2453000  -1233.3015      237.01285     -1470.3143      311.81529      200.15744      3840.7412      0.99696119
   2454000  -1270.3075      223.79582     -1494.1033      294.4269       1010.1978      3840.7412      0.99696119
   2455000  -1265.8199      216.07603     -1481.8959      284.27071      1565.5119      3840.7412      0.99696119
   2456000  -1288.5142      216.27605     -1504.7903      284.53385      1345.1988      3840.7412      0.99696119
   2457000  -1232.4007      215.64944     -1448.0502      283.70949      1016.6781      3840.7412      0.99696119
   2458000  -1253.1652      244.05716     -1497.2223      321.08282      357.31156      3840.7412      0.99696119
   2459000  -1212.5889      230.80849     -1443.3974      303.65281      1098.5728      3840.7412      0.99696119
   2460000  -1265.0766      214.71095     -1479.7875      282.47481     -1470.7038      3840.7412      0.99696119
   2461000  -1241.1974      222.65985     -1463.8573      292.93242      403.73148      3840.7412      0.99696119
   2462000  -1249.659       226.14157     -1475.8006      297.51299      424.5863       3840.7412      0.99696119
   2463000  -1258.4899      238.19447     -1496.6844      313.36984     -2100.6964      3840.7412      0.99696119
   2464000  -1240.8476      223.77586     -1464.6234      294.40064      2043.4348      3840.7412      0.99696119
   2465000  -1296.8112      223.85935     -1520.6706      294.51048     -1253.1245      3840.7412      0.99696119
   2466000  -1264.4124      208.03098     -1472.4434      273.6866       217.15009      3840.7412      0.99696119
   2467000  -1288.2587      208.70343     -1496.9621      274.57128     -1566.4141      3840.7412      0.99696119
   2468000  -1247.9105      239.93208     -1487.8426      315.65585     -752.70137      3840.7412      0.99696119
   2469000  -1288.1177      220.10195     -1508.2197      289.56722      737.55075      3840.7412      0.99696119
   2470000  -1300.3232      228.95469     -1529.2779      301.21394      366.57438      3840.7412      0.99696119
   2471000  -1278.5475      240.84472     -1519.3922      316.85652     -1104.2259      3840.7412      0.99696119
   2472000  -1251.1986      218.23002     -1469.4286      287.10451      573.21176      3840.7412      0.99696119
   2473000  -1269.3993      229.79444     -1499.1938      302.31871      235.72544      3840.7412      0.99696119
   2474000  -1249.2172      218.43368     -1467.6509      287.37245      193.20425      3840.7412      0.99696119
   2475000  -1254.5057      228.17166     -1482.6774      300.18378     -839.5628       3840.7412      0.99696119
   2476000  -1239.9034      243.86218     -1483.7656      320.8263       2030.7727      3840.7412      0.99696119
   2477000  -1265.9121      231.36524     -1497.2773      304.38527     -669.00795      3840.7412      0.99696119
   2478000  -1285.8041      213.62715     -1499.4313      281.04895      521.48079      3840.7412      0.99696119
   2479000  -1292.6301      201.11545     -1493.7455      264.58849      178.42665      3840.7412      0.99696119
   2480000  -1273.1296      229.33327     -1502.4628      301.712        1713.9738      3840.7412      0.99696119
   2481000  -1255.7833      217.71583     -1473.4992      286.42804      1466.0981      3840.7412      0.99696119
   2482000  -1265.9166      222.43459     -1488.3512      292.63606     -36.035046      3840.7412      0.99696119
   2483000  -1243.5342      239.01976     -1482.554       314.4556      -179.67747      3840.7412      0.99696119
   2484000  -1243.6996      234.63558     -1478.3352      308.68775      448.03412      3840.7412      0.99696119
   2485000  -1266.328       233.98439     -1500.3124      307.83104      97.244144      3840.7412      0.99696119
   2486000  -1267.8692      221.17635     -1489.0456      290.98072     -335.93858      3840.7412      0.99696119
   2487000  -1214.3207      242.81667     -1457.1374      319.45082      1020.8221      3840.7412      0.99696119
   2488000  -1252.0305      227.26493     -1479.2954      298.99088      1388.2132      3840.7412      0.99696119
   2489000  -1235.3739      232.91368     -1468.2876      306.42241      271.67433      3840.7412      0.99696119
   2490000  -1250.9102      248.11563     -1499.0258      326.42216      1491.7662      3840.7412      0.99696119
   2491000  -1229.5538      231.34448     -1460.8983      304.35796     -11.609843      3840.7412      0.99696119
   2492000  -1261.8657      237.33204     -1499.1977      312.23522     -308.30384      3840.7412      0.99696119
   2493000  -1252.3791      221.86715     -1474.2463      291.88953     -121.25958      3840.7412      0.99696119
   2494000  -1230.4777      228.58697     -1459.0647      300.73016      1790.5698      3840.7412      0.99696119
   2495000  -1254.9166      216.24023     -1471.1568      284.48673      1418.6022      3840.7412      0.99696119
   2496000  -1243.0655      229.20182     -1472.2673      301.53906      896.9409       3840.7412      0.99696119
   2497000  -1270.3746      220.04425     -1490.4188      289.49132     -99.041965      3840.7412      0.99696119
   2498000  -1290.0811      198.53047     -1488.6116      261.18768      628.01689      3840.7412      0.99696119
   2499000  -1257.9838      224.93667     -1482.9205      295.92781      1313.4038      3840.7412      0.99696119
   2500000  -1285.2146      219.52791     -1504.7425      288.81201      378.52079      3840.7412      0.99696119
   2501000  -1243.0997      237.52945     -1480.6292      312.49494      597.98199      3840.7412      0.99696119
   2502000  -1257.6425      204.33906     -1461.9816      268.82949      1496.6021      3840.7412      0.99696119
   2503000  -1272.4791      226.22558     -1498.7047      297.62351     -200.54064      3840.7412      0.99696119
   2504000  -1258.0956      232.48212     -1490.5778      305.85464      17.903714      3840.7412      0.99696119
   2505000  -1256.1832      225.38996     -1481.5732      296.52416     -488.65055      3840.7412      0.99696119
   2506000  -1260.3533      208.57252     -1468.9258      274.39906      954.98622      3840.7412      0.99696119
   2507000  -1262.1789      237.21421     -1499.3931      312.0802       2198.9332      3840.7412      0.99696119
   2508000  -1248.3243      231.5438      -1479.8681      304.62019      3589.5747      3840.7412      0.99696119
   2509000  -1288.5193      226.33841     -1514.8577      297.77195      2368.9205      3840.7412      0.99696119
   2510000  -1260.7909      216.47641     -1477.2673      284.79744     -606.63998      3840.7412      0.99696119
   2511000  -1264.0199      241.89842     -1505.9183      318.24277     -136.89489      3840.7412      0.99696119
   2512000  -1310.9147      220.53883     -1531.4535      290.14199      1277.0668      3840.7412      0.99696119
   2513000  -1251.5373      237.7413      -1489.2786      312.77364     -540.31742      3840.7412      0.99696119
   2514000  -1295.6898      214.68472     -1510.3745      282.44029      592.62821      3840.7412      0.99696119
   2515000  -1291.013       218.24483     -1509.2578      287.124       -233.23276      3840.7412      0.99696119
   2516000  -1250.4115      236.59511     -1487.0066      311.26572      273.50533      3840.7412      0.99696119
   2517000  -1280.9789      215.34737     -1496.3263      283.31208     -600.52887      3840.7412      0.99696119
   2518000  -1233.3005      231.06537     -1464.3658      303.99076      1660.3838      3840.7412      0.99696119
   2519000  -1235.1949      244.33658     -1479.5315      321.45043      386.40547      3840.7412      0.99696119
   2520000  -1266.8665      235.49093     -1502.3574      309.81305      955.24324      3840.7412      0.99696119
   2521000  -1251.1418      226.63964     -1477.7814      298.16824      1690.1433      3840.7412      0.99696119
   2522000  -1273.7979      225.9231      -1499.721       297.22556     -1177.0527      3840.7412      0.99696119
   2523000  -1232.7984      228.37634     -1461.1748      300.45306     -57.652852      3840.7412      0.99696119
   2524000  -1245.6031      235.10942     -1480.7125      309.31114      1663.1497      3840.7412      0.99696119
   2525000  -1284.8984      209.25986     -1494.1582      275.30332     -345.74583      3840.7412      0.99696119
   2526000  -1232.6586      226.83115     -1459.4898      298.4202       2477.8781      3840.7412      0.99696119
   2527000  -1253.6315      221.16331     -1474.7948      290.96355      768.5928       3840.7412      0.99696119
   2528000  -1252.8292      234.94282     -1487.7721      309.09196      227.53749      3840.7412      0.99696119
   2529000  -1263.9131      231.07854     -1494.9917      304.00809      678.93873      3840.7412      0.99696119
   2530000  -1271.0778      217.74858     -1488.8264      286.47113      991.63314      3840.7412      0.99696119
   2531000  -1203.3926      243.2328      -1446.6254      319.9983      -1817.9589      3840.7412      0.99696119
   2532000  -1242.8366      218.05245     -1460.8891      286.8709       820.30733      3840.7412      0.99696119
   2533000  -1250.8941      223.97767     -1474.8718      294.66614     -164.24503      3840.7412      0.99696119
   2534000  -1269.6972      232.82209     -1502.5193      306.30191     -847.36746      3840.7412      0.99696119
   2535000  -1263.2376      220.35395     -1483.5916      289.89876     -339.25558      3840.7412      0.99696119
   2536000  -1248.506       234.82212     -1483.3282      308.93316     -115.94953      3840.7412      0.99696119
   2537000  -1255.9595      223.34196     -1479.3014      293.82981     -699.14318      3840.7412      0.99696119
   2538000  -1268.9343      233.82346     -1502.7578      307.61931     -495.67763      3840.7412      0.99696119
   2539000  -1295.2983      189.61544     -1484.9137      249.45902      199.63479      3840.7412      0.99696119
   2540000  -1258.5549      204.42593     -1462.9808      268.94378     -1407.3535      3840.7412      0.99696119
   2541000  -1243.5159      205.21865     -1448.7346      269.98668      105.7111       3840.7412      0.99696119
   2542000  -1272.7121      208.52535     -1481.2375      274.33699      1358.4417      3840.7412      0.99696119
   2543000  -1265.0203      225.07669     -1490.0969      296.11202     -339.74753      3840.7412      0.99696119
   2544000  -1278.0242      215.70597     -1493.7302      283.78386      1778.6666      3840.7412      0.99696119
   2545000  -1261.099       235.00798     -1496.1069      309.17767     -195.35873      3840.7412      0.99696119
   2546000  -1275.9703      223.11916     -1499.0894      293.53669     -943.74984      3840.7412      0.99696119
   2547000  -1229.8236      226.57254     -1456.3962      298.07997      1754.1324      3840.7412      0.99696119
   2548000  -1202.0282      243.23385     -1445.262       319.99967      272.37384      3840.7412      0.99696119
   2549000  -1266.2856      208.45566     -1474.7413      274.24531     -1578.0886      3840.7412      0.99696119
   2550000  -1257.1546      209.73251     -1466.8871      275.92513     -2669.1405      3840.7412      0.99696119
   2551000  -1244.3687      241.49462     -1485.8633      317.71153      1365.2571      3840.7412      0.99696119
   2552000  -1262.1292      220.19905     -1482.3283      289.69497      223.70592      3840.7412      0.99696119
   2553000  -1280.7468      208.98075     -1489.7275      274.93612      1380.4514      3840.7412      0.99696119
   2554000  -1297.3721      225.47656     -1522.8487      296.63809     -2095.538       3840.7412      0.99696119
   2555000  -1257.6806      242.15877     -1499.8393      318.58529      2217.1019      3840.7412      0.99696119
   2556000  -1221.9952      236.01487     -1458.0101      310.50234      794.4462       3840.7412      0.99696119
   2557000  -1287.0935      207.87631     -1494.9699      273.48312      208.62077      3840.7412      0.99696119
   2558000  -1298.4148      215.93805     -1514.3529      284.08918      1351.0894      3840.7412      0.99696119
   2559000  -1262.9258      210.96443     -1473.8902      277.54585     -766.25814      3840.7412      0.99696119
   2560000  -1267.0877      225.9734      -1493.0611      297.29174     -877.85628      3840.7412      0.99696119
   2561000  -1272.0126      221.13693     -1493.1495      290.92886      669.27134      3840.7412      0.99696119
   2562000  -1262.0093      230.38823     -1492.3975      303.09991     -935.93282      3840.7412      0.99696119
   2563000  -1222.2916      231.46389     -1453.7554      304.51505      1716.4947      3840.7412      0.99696119
   2564000  -1239.0927      227.70253     -1466.7952      299.56659     -1538.5968      3840.7412      0.99696119
   2565000  -1248.8989      227.02836     -1475.9273      298.67965     -1536.6849      3840.7412      0.99696119
   2566000  -1288.4335      211.3969      -1499.8304      278.11482      92.24072       3840.7412      0.99696119
   2567000  -1261.5114      213.87069     -1475.3821      281.36935     -568.28466      3840.7412      0.99696119
   2568000  -1231.9422      232.74549     -1464.6877      306.20113     -1221.0991      3840.7412      0.99696119
   2569000  -1229.6157      228.90243     -1458.5181      301.14518      2152.8761      3840.7412      0.99696119
   2570000  -1223.515       234.444       -1457.959       308.43571     -589.10339      3840.7412      0.99696119
   2571000  -1269.9305      212.43022     -1482.3607      279.47426      975.05958      3840.7412      0.99696119
   2572000  -1309.1278      212.54248     -1521.6703      279.62195     -1092.9913      3840.7412      0.99696119
   2573000  -1291.5676      216.69225     -1508.2598      285.08141      517.87445      3840.7412      0.99696119
   2574000  -1277.908       221.42001     -1499.328       291.30127      1657.6475      3840.7412      0.99696119
   2575000  -1302.2276      207.77464     -1510.0023      273.34935      1767.9972      3840.7412      0.99696119
   2576000  -1268.4147      233.76036     -1502.175       307.5363       925.08472      3840.7412      0.99696119
   2577000  -1247.4213      242.79771     -1490.2191      319.42588     -143.66407      3840.7412      0.99696119
   2578000  -1289.6693      212.44956     -1502.1189      279.49971      45.393762      3840.7412      0.99696119
   2579000  -1245.1961      234.30333     -1479.4994      308.25063     -681.97998      3840.7412      0.99696119
   2580000  -1264.7955      226.88249     -1491.678       298.48773     -511.55068      3840.7412      0.99696119
   2581000  -1237.1204      223.48946     -1460.6098      294.02386     -58.93161       3840.7412      0.99696119
   2582000  -1247.1576      218.15839     -1465.316       287.01027      605.01255      3840.7412      0.99696119
   2583000  -1243.6508      234.26574     -1477.9165      308.20119      320.81207      3840.7412      0.99696119
   2584000  -1249.4735      225.35395     -1474.8274      296.47678      602.77736      3840.7412      0.99696119
   2585000  -1290.0996      200.2888      -1490.3884      263.50095      1028.7835      3840.7412      0.99696119
   2586000  -1247.191       227.82502     -1475.016       299.72774      67.086655      3840.7412      0.99696119
   2587000  -1276.0742      229.68135     -1505.7555      302.16994     -54.886877      3840.7412      0.99696119
   2588000  -1233.4204      237.18777     -1470.6082      312.04542     -2338.2561      3840.7412      0.99696119
   2589000  -1284.6602      220.83661     -1505.4968      290.53375      1269.3916      3840.7412      0.99696119
   2590000  -1270.6818      217.91106     -1488.5929      286.68488      862.05896      3840.7412      0.99696119
   2591000  -1265.6349      212.49453     -1478.1294      279.55887     -624.85906      3840.7412      0.99696119
   2592000  -1244.2809      239.03844     -1483.3194      314.48017      1464.8216      3840.7412      0.99696119
   2593000  -1230.7728      236.2022      -1466.975       310.74879      1916.9315      3840.7412      0.99696119
   2594000  -1277.5495      214.66191     -1492.2114      282.41029     -128.66763      3840.7412      0.99696119
   2595000  -1265.1541      215.90025     -1481.0544      284.03945      651.94569      3840.7412      0.99696119
   2596000  -1331.2988      196.62525     -1527.9241      258.68117     -7.7749039      3840.7412      0.99696119
   2597000  -1256.2416      228.06105     -1484.3026      300.03826      564.54734      3840.7412      0.99696119
   2598000  -1243.8174      230.57658     -1474.394       303.3477      -1491.6767      3840.7412      0.99696119
   2599000  -1262.2276      213.64233     -1475.8699      281.06892     -936.31862      3840.7412      0.99696119
   2600000  -1239.2432      226.21576     -1465.459       297.61059     -869.20431      3840.7412      0.99696119
   2601000  -1271.8144      231.54491     -1503.3593      304.62165      690.41969      3840.7412      0.99696119
   2602000  -1242.7387      228.42455     -1471.1632      300.51648      596.40514      3840.7412      0.99696119
   2603000  -1262.8223      226.14713     -1488.9694      297.5203      -2046.672       3840.7412      0.99696119
   2604000  -1266.188       239.50823     -1505.6962      315.09823      290.09157      3840.7412      0.99696119
   2605000  -1275.4701      221.95045     -1497.4206      291.99913      695.89469      3840.7412      0.99696119
   2606000  -1270.5271      213.75121     -1484.2783      281.21216     -1351.5413      3840.7412      0.99696119
   2607000  -1257.8957      215.8298      -1473.7255      283.94676      2059.0905      3840.7412      0.99696119
   2608000  -1258.3685      222.01277     -1480.3813      292.08112     -635.02726      3840.7412      0.99696119
   2609000  -1253.8287      233.97866     -1487.8074      307.82349      1558.5568      3840.7412      0.99696119
   2610000  -1217.3733      241.66726     -1459.0406      317.93866      1234.5213      3840.7412      0.99696119
   2611000  -1231.9595      225.09853     -1457.058       296.14076      483.13825      3840.7412      0.99696119
   2612000  -1243.8351      227.44228     -1471.2774      299.22421     -505.76163      3840.7412      0.99696119
   2613000  -1207.9457      243.12378     -1451.0695      319.85486     -1226.003       3840.7412      0.99696119
   2614000  -1268.0507      232.27991     -1500.3306      305.58862     -251.57289      3840.7412      0.99696119
   2615000  -1256.547       221.8402      -1478.3872      291.85407      3398.0047      3840.7412      0.99696119
   2616000  -1227.5272      226.23568     -1453.7629      297.6368       772.04763      3840.7412      0.99696119
   2617000  -1230.6273      222.82116     -1453.4485      293.14464     -350.48339      3840.7412      0.99696119
   2618000  -1256.1455      219.86831     -1476.0138      289.25985     -860.85381      3840.7412      0.99696119
   2619000  -1294.1371      201.17891     -1495.316       264.67199     -1112.4964      3840.7412      0.99696119
   2620000  -1261.6017      245.08465     -1506.6864      322.43459      577.49449      3840.7412      0.99696119
   2621000  -1247.0085      234.73824     -1481.7467      308.82281      641.17563      3840.7412      0.99696119
   2622000  -1240.9612      228.03657     -1468.9978      300.00605     -1232.2477      3840.7412      0.99696119
   2623000  -1234.6032      243.48903     -1478.0923      320.33539      1303.5263      3840.7412      0.99696119
   2624000  -1261.1758      232.73586     -1493.9117      306.18846      915.15157      3840.7412      0.99696119
   2625000  -1305.2035      233.21725     -1538.4207      306.82178      955.01528      3840.7412      0.99696119
   2626000  -1264.359       215.63218     -1479.9912      283.68678      1276.9281      3840.7412      0.99696119
   2627000  -1264.9601      232.07092     -1497.031       305.31366     -1550.078       3840.7412      0.99696119
   2628000  -1262.2251      224.47729     -1486.7024      295.32344      2041.255       3840.7412      0.99696119
   2629000  -1258.125       222.70654     -1480.8316      292.99384     -61.228695      3840.7412      0.99696119
   2630000  -1225.8153      233.23963     -1459.0549      306.85122      1005.7913      3840.7412      0.99696119
   2631000  -1256.65        217.21683     -1473.8669      285.77155     -242.1765       3840.7412      0.99696119
   2632000  -1265.0885      224.5274      -1489.6159      295.38937      1328.585       3840.7412      0.99696119
   2633000  -1237.8102      212.47375     -1450.284       279.53153      3787.3277      3840.7412      0.99696119
   2634000  -1281.6025      226.54776     -1508.1502      298.04737      236.24025      3840.7412      0.99696119
   2635000  -1232.4769      221.54252     -1454.0195      291.46245     -627.54483      3840.7412      0.99696119
   2636000  -1275.3635      224.11461     -1499.4781      294.8463       1055.2597      3840.7412      0.99696119
   2637000  -1226.9212      244.50483     -1471.4261      321.67178      1049.2388      3840.7412      0.99696119
   2638000  -1280.4247      218.54726     -1498.972       287.52187      467.99548      3840.7412      0.99696119
   2639000  -1275.0273      217.04633     -1492.0737      285.54724     -435.08261      3840.7412      0.99696119
   2640000  -1281.7546      207.65814     -1489.4128      273.19608     -274.75338      3840.7412      0.99696119
   2641000  -1237.0999      221.1749      -1458.2748      290.97881     -418.16595      3840.7412      0.99696119
   2642000  -1266.0607      205.24505     -1471.3057      270.02142      15.184585      3840.7412      0.99696119
   2643000  -1273.1534      212.75704     -1485.9104      279.90422     -614.48269      3840.7412      0.99696119
   2644000  -1277.4484      222.14135     -1499.5897      292.25028      941.31155      3840.7412      0.99696119
   2645000  -1264.5657      217.24043     -1481.8062      285.8026       1011.9188      3840.7412      0.99696119
   2646000  -1254.8606      223.51599     -1478.3766      294.05876     -372.29327      3840.7412      0.99696119
   2647000  -1243.4102      253.97947     -1497.3897      334.13666      441.66783      3840.7412      0.99696119
   2648000  -1283.5068      200.67686     -1484.1837      264.01148      1948.9058      3840.7412      0.99696119
   2649000  -1250.0662      210.46675     -1460.533       276.89111      836.71296      3840.7412      0.99696119
   2650000  -1225.5156      220.03125     -1445.5468      289.47422      998.22188      3840.7412      0.99696119
   2651000  -1249.4495      229.76667     -1479.2162      302.28219      1256.4477      3840.7412      0.99696119
   2652000  -1248.271       209.77017     -1458.0412      275.97469     -31.245193      3840.7412      0.99696119
   2653000  -1247.1194      230.04374     -1477.1631      302.64669     -231.55506      3840.7412      0.99696119
   2654000  -1239.9699      225.47091     -1465.4409      296.63066      957.87908      3840.7412      0.99696119
   2655000  -1278.7449      229.33291     -1508.0778      301.71153      227.95691      3840.7412      0.99696119
   2656000  -1259.2408      229.32095     -1488.5617      301.6958      -766.64128      3840.7412      0.99696119
   2657000  -1276.8624      218.72124     -1495.5837      287.75076      850.26682      3840.7412      0.99696119
   2658000  -1230.0462      241.85822     -1471.9044      318.18988     -508.50577      3840.7412      0.99696119
   2659000  -1271.5513      230.20311     -1501.7544      302.85636     -939.64058      3840.7412      0.99696119
   2660000  -1258.9108      232.35985     -1491.2707      305.69378     -1432.8997      3840.7412      0.99696119
   2661000  -1217.6735      244.23203     -1461.9056      321.31288      29.679396      3840.7412      0.99696119
   2662000  -1259.4652      232.39899     -1491.8642      305.74527     -1745.2069      3840.7412      0.99696119
   2663000  -1243.3499      231.75588     -1475.1058      304.89919     -656.76421      3840.7412      0.99696119
   2664000  -1250.0392      230.0746      -1480.1138      302.68729      599.14348      3840.7412      0.99696119
   2665000  -1236.6992      225.98287     -1462.6821      297.3042       177.54013      3840.7412      0.99696119
   2666000  -1244.2703      218.02155     -1462.2919      286.83025      57.863633      3840.7412      0.99696119
   2667000  -1257.6661      209.10511     -1466.7712      275.09973      363.61189      3840.7412      0.99696119
   2668000  -1260.0773      228.03447     -1488.1117      300.00329      506.19998      3840.7412      0.99696119
   2669000  -1262.4774      208.28345     -1470.7609      274.01875      413.4584       3840.7412      0.99696119
   2670000  -1216.9764      235.46432     -1452.4407      309.77803     -791.24473      3840.7412      0.99696119
   2671000  -1226.3743      217.56272     -1443.937       286.2266      -1144.5823      3840.7412      0.99696119
   2672000  -1260.1548      236.62003     -1496.7748      311.2985       1490.2073      3840.7412      0.99696119
   2673000  -1228.2869      233.75906     -1462.046       307.53459      880.01831      3840.7412      0.99696119
   2674000  -1240.4445      232.74798     -1473.1925      306.2044      -565.87654      3840.7412      0.99696119
   2675000  -1259.9437      222.24241     -1482.1861      292.38322     -1446.3153      3840.7412      0.99696119
   2676000  -1264.3916      205.08142     -1469.473       269.80614      230.61962      3840.7412      0.99696119
   2677000  -1316.4427      200.37915     -1516.8218      263.61981      826.1471       3840.7412      0.99696119
   2678000  -1258.3322      225.16014     -1483.4923      296.22181      1087.5235      3840.7412      0.99696119
   2679000  -1298.6389      231.34729     -1529.9862      304.36166      1713.0263      3840.7412      0.99696119
   2680000  -1251.6461      248.23444     -1499.8806      326.57848      831.10738      3840.7412      0.99696119
   2681000  -1254.4103      230.8152      -1485.2255      303.66163     -1411.2999      3840.7412      0.99696119
   2682000  -1268.7094      222.3272      -1491.0366      292.49478      444.789        3840.7412      0.99696119
   2683000  -1254.0566      242.75914     -1496.8157      319.37514      570.39274      3840.7412      0.99696119
   2684000  -1216.8939      248.84035     -1465.7342      327.37561      913.22343      3840.7412      0.99696119
   2685000  -1266.6718      226.97742     -1493.6492      298.61263      1174.7712      3840.7412      0.99696119
   2686000  -1300.106       218.92562     -1519.0316      288.01964     -148.02185      3840.7412      0.99696119
   2687000  -1271.6894      212.39398     -1484.0834      279.42658      511.70229      3840.7412      0.99696119
   2688000  -1262.4966      219.89069     -1482.3873      289.28929      991.96807      3840.7412      0.99696119
   2689000  -1264.7481      211.99575     -1476.7439      278.90267      631.05573      3840.7412      0.99696119
   2690000  -1255.5617      243.07293     -1498.6346      319.78796     -795.09211      3840.7412      0.99696119
   2691000  -1263.6337      208.15091     -1471.7846      273.84438     -109.08001      3840.7412      0.99696119
   2692000  -1239.9653      233.35176     -1473.3171      306.99874      1567.7467      3840.7412      0.99696119
   2693000  -1273.7466      232.95726     -1506.7038      306.47974     -1437.9377      3840.7412      0.99696119
   2694000  -1242.1388      235.44644     -1477.5852      309.75451      1794.3803      3840.7412      0.99696119
   2695000  -1261.2534      234.55373     -1495.8071      308.58006     -38.167511      3840.7412      0.99696119
   2696000  -1257.8332      233.59156     -1491.4248      307.31423     -44.574655      3840.7412      0.99696119
   2697000  -1290.2974      237.91557     -1528.213       313.00292      197.07679      3840.7412      0.99696119
   2698000  -1262.0467      229.78578     -1491.8324      302.30732      148.38138      3840.7412      0.99696119
   2699000  -1260.4001      228.52996     -1488.9301      300.65516     -1341.1596      3840.7412      0.99696119
   2700000  -1252.0162      212.084       -1464.1002      279.01878      706.95271      3840.7412      0.99696119
   2701000  -1264.9494      210.43592     -1475.3854      276.85054      336.28195      3840.7412      0.99696119
   2702000  -1218.1064      226.28441     -1444.3908      297.7009       1646.1155      3840.7412      0.99696119
   2703000  -1271.0526      198.31931     -1469.3719      260.90988      670.42828      3840.7412      0.99696119
   2704000  -1238.0433      243.05173     -1481.095       319.76008     -1260.7799      3840.7412      0.99696119
   2705000  -1253.2982      239.86134     -1493.1595      315.56278      282.47757      3840.7412      0.99696119
   2706000  -1255.2648      219.76342     -1475.0283      289.12186      611.34159      3840.7412      0.99696119
   2707000  -1256.0741      229.93771     -1486.0118      302.50721     -1872.8818      3840.7412      0.99696119
   2708000  -1271.6502      210.37786     -1482.028       276.77417     -1907.7784      3840.7412      0.99696119
   2709000  -1271.6569      217.6571      -1489.314       286.35078     -1219.0781      3840.7412      0.99696119
   2710000  -1226.0449      240.21142     -1466.2563      316.02334     -113.88309      3840.7412      0.99696119
   2711000  -1257.758       238.30641     -1496.0644      313.51711     -600.69562      3840.7412      0.99696119
   2712000  -1287.5614      228.37225     -1515.9337      300.44768      460.55688      3840.7412      0.99696119
   2713000  -1248.5774      217.32558     -1465.903       285.91462      675.4339       3840.7412      0.99696119
   2714000  -1262.2853      214.77616     -1477.0614      282.56059     -2546.3255      3840.7412      0.99696119
   2715000  -1250.1311      216.52061     -1466.6517      284.8556      -683.20606      3840.7412      0.99696119
   2716000  -1227.9697      239.61024     -1467.5799      315.23243      81.628802      3840.7412      0.99696119
   2717000  -1269.5613      216.60082     -1486.1621      284.96112     -2169.7096      3840.7412      0.99696119
   2718000  -1245.4884      225.67047     -1471.1589      296.8932       820.09119      3840.7412      0.99696119
   2719000  -1270.5665      244.34556     -1514.912       321.46224      230.66796      3840.7412      0.99696119
   2720000  -1281.978       207.51309     -1489.4911      273.00526     -10.692507      3840.7412      0.99696119
   2721000  -1238.5222      223.85554     -1462.3778      294.50546     -127.72963      3840.7412      0.99696119
   2722000  -1237.9438      235.25182     -1473.1956      309.49847      1279.8856      3840.7412      0.99696119
   2723000  -1261.8141      229.78645     -1491.6005      302.3082      -400.70018      3840.7412      0.99696119
   2724000  -1259.1696      214.55604     -1473.7256      282.271        171.86202      3840.7412      0.99696119
   2725000  -1247.7548      222.66784     -1470.4226      292.94292     -1738.0912      3840.7412      0.99696119
   2726000  -1222.9508      233.5224      -1456.4732      307.22324      583.61299      3840.7412      0.99696119
   2727000  -1274.5891      195.32569     -1469.9148      256.97145      1099.7884      3840.7412      0.99696119
   2728000  -1242.0909      230.51921     -1472.6101      303.27223      234.54931      3840.7412      0.99696119
   2729000  -1280.1367      237.34477     -1517.4814      312.25197     -369.18166      3840.7412      0.99696119
   2730000  -1270.503       233.24582     -1503.7488      306.85936     -127.69918      3840.7412      0.99696119
   2731000  -1241.462       224.93246     -1466.3945      295.92227      2110.2623      3840.7412      0.99696119
   2732000  -1229.5797      241.2809      -1470.8605      317.43036      1294.7131      3840.7412      0.99696119
   2733000  -1252.1855      225.6279      -1477.8134      296.83719      688.19063      3840.7412      0.99696119
   2734000  -1244.5948      234.37515     -1478.97        308.34513      44.783601      3840.7412      0.99696119
   2735000  -1253.6164      236.93765     -1490.554       311.71636      221.10492      3840.7412      0.99696119
   2736000  -1287.3224      216.30925     -1503.6316      284.57753     -82.905146      3840.7412      0.99696119
   2737000  -1247.1185      240.71015     -1487.8287      316.67948      1408.24        3840.7412      0.99696119
   2738000  -1277.8567      222.79206     -1500.6488      293.10635      897.2783       3840.7412      0.99696119
   2739000  -1259.9631      229.13161     -1489.0947      301.44669     -2699.7361      3840.7412      0.99696119
   2740000  -1230.815       225.28325     -1456.0983      296.38377     -2526.4108      3840.7412      0.99696119
   2741000  -1249.3824      218.19457     -1467.577       287.05787     -723.2052       3840.7412      0.99696119
   2742000  -1253.0805      218.10385     -1471.1844      286.93852      402.60166      3840.7412      0.99696119
   2743000  -1228.4969      231.22318     -1459.7201      304.19838     -405.99538      3840.7412      0.99696119
   2744000  -1257.3338      218.53473     -1475.8685      287.50538      26.597946      3840.7412      0.99696119
   2745000  -1267.4881      225.44795     -1492.936       296.60045      2198.3329      3840.7412      0.99696119
   2746000  -1270.7584      202.22999     -1472.9884      266.05478      142.46622      3840.7412      0.99696119
   2747000  -1226.1         223.31171     -1449.4117      293.79         2524.434       3840.7412      0.99696119
   2748000  -1227.4611      235.57099     -1463.0321      309.91837     -52.762137      3840.7412      0.99696119
   2749000  -1250.1887      235.2717      -1485.4604      309.52462      1309.9846      3840.7412      0.99696119
   2750000  -1263.3632      223.04767     -1486.4109      293.44264      384.86375      3840.7412      0.99696119
   2751000  -1255.4897      231.03832     -1486.528       303.95517     -366.57159      3840.7412      0.99696119
   2752000  -1247.2563      229.89748     -1477.1538      302.45428     -574.95678      3840.7412      0.99696119
   2753000  -1232.8377      222.02313     -1454.8608      292.09475      1825.7443      3840.7412      0.99696119
   2754000  -1257.27        221.84518     -1479.1152      291.86064      23.860503      3840.7412      0.99696119
   2755000  -1248.796       214.76419     -1463.5602      282.54485     -997.26312      3840.7412      0.99696119
   2756000  -1242.0196      222.12845     -1464.148       292.2333      -125.68555      3840.7412      0.99696119
   2757000  -1290.112       213.1578      -1503.2698      280.43147     -137.00989      3840.7412      0.99696119
   2758000  -1253.1798      233.4716      -1486.6514      307.15641     -524.40736      3840.7412      0.99696119
   2759000  -1225.8411      224.36329     -1450.2044      295.17346     -273.35937      3840.7412      0.99696119
   2760000  -1253.9319      215.13346     -1469.0654      283.03066      101.48636      3840.7412      0.99696119
   2761000  -1244.4622      236.10502     -1480.5672      310.62095      1353.5785      3840.7412      0.99696119
   2762000  -1246.3399      230.28872     -1476.6286      302.969       -1095.3295      3840.7412      0.99696119
   2763000  -1235.9566      231.96519     -1467.9218      305.17456     -18.1203        3840.7412      0.99696119
   2764000  -1281.3851      215.22872     -1496.6138      283.15598      1499.6955      3840.7412      0.99696119
   2765000  -1243.0547      225.38549     -1468.4402      296.51829      978.99141      3840.7412      0.99696119
   2766000  -1198.5393      234.93501     -1433.4743      309.08168     -1001.811       3840.7412      0.99696119
   2767000  -1236.5553      247.68816     -1484.2434      325.85978      221.29036      3840.7412      0.99696119
   2768000  -1263.6942      228.58801     -1492.2822      300.73152     -163.83268      3840.7412      0.99696119
   2769000  -1289.3585      207.47852     -1496.837       272.95979     -1123.6232      3840.7412      0.99696119
   2770000  -1249.2156      232.58678     -1481.8024      305.99234      1301.8258      3840.7412      0.99696119
   2771000  -1243.8193      223.97863     -1467.798       294.66741     -92.590397      3840.7412      0.99696119
   2772000  -1256.0085      218.83714     -1474.8456      287.90324      1188.9444      3840.7412      0.99696119
   2773000  -1249.977       225.37278     -1475.3498      296.50156      1346.7877      3840.7412      0.99696119
   2774000  -1309.3821      217.28942     -1526.6715      285.86705      645.34745      3840.7412      0.99696119
   2775000  -1289.7539      214.65168     -1504.4055      282.39682     -350.3276       3840.7412      0.99696119
   2776000  -1244.6748      223.25416     -1467.929       293.71428      1234.3553      3840.7412      0.99696119
   2777000  -1266.0469      223.12415     -1489.171       293.54325      999.5211       3840.7412      0.99696119
   2778000  -1243.1356      234.03539     -1477.171       307.89813      1121.1235      3840.7412      0.99696119
   2779000  -1302.9665      225.57279     -1528.5393      296.76469     -1059.1935      3840.7412      0.99696119
   2780000  -1205.5062      233.98722     -1439.4934      307.83476      699.80788      3840.7412      0.99696119
   2781000  -1263.0615      203.75807     -1466.8196      268.06513     -1215.743       3840.7412      0.99696119
   2782000  -1241.6696      225.26083     -1466.9305      296.35428      236.74242      3840.7412      0.99696119
   2783000  -1267.3431      222.27806     -1489.6212      292.43013      171.94497      3840.7412      0.99696119
   2784000  -1227.0007      229.24182     -1456.2425      301.59168     -89.004291      3840.7412      0.99696119
   2785000  -1260.0438      225.43242     -1485.4763      296.58003      637.76361      3840.7412      0.99696119
   2786000  -1297.7799      199.80606     -1497.5859      262.86585     -481.53964      3840.7412      0.99696119
   2787000  -1252.5131      209.02288     -1461.536       274.99155      1624.1503      3840.7412      0.99696119
   2788000  -1253.9739      229.5436      -1483.5175      301.9887      -461.41096      3840.7412      0.99696119
   2789000  -1252.493       222.38358     -1474.8765      292.56895     -1253.3526      3840.7412      0.99696119
   2790000  -1254.5133      213.39993     -1467.9132      280.75001      1916.7063      3840.7412      0.99696119
   2791000  -1273.4014      235.53527     -1508.9367      309.87138     -1192.4373      3840.7412      0.99696119
   2792000  -1262.777       219.91644     -1482.6934      289.32317      1044.4211      3840.7412      0.99696119
   2793000  -1302.012       199.87882     -1501.8908      262.96158      342.78712      3840.7412      0.99696119
   2794000  -1221.9996      245.07716     -1467.0768      322.42474      2021.0818      3840.7412      0.99696119
   2795000  -1257.2082      215.69332     -1472.9016      283.76721      1173.3616      3840.7412      0.99696119
   2796000  -1240.5403      207.27481     -1447.8152      272.69178      2025.1799      3840.7412      0.99696119
   2797000  -1259.8156      222.68712     -1482.5028      292.96829      953.00895      3840.7412      0.99696119
   2798000  -1227.4089      231.86519     -1459.2741      305.043        2924.8798      3840.7412      0.99696119
   2799000  -1268.3447      211.86612     -1480.2108      278.73213     -1333.7156      3840.7412      0.99696119
   2800000  -1290.109       230.7094      -1520.8184      303.52244      171.64636      3840.7412      0.99696119
   2801000  -1280.9958      227.66009     -1508.6559      299.51075     -549.68945      3840.7412      0.99696119
   2802000  -1268.8613      215.36937     -1484.2307      283.34102     -750.37413      3840.7412      0.99696119
   2803000  -1241.9211      227.35659     -1469.2777      299.11147      693.74317      3840.7412      0.99696119
   2804000  -1270.648       227.66716     -1498.3152      299.52006     -158.98125      3840.7412      0.99696119
   2805000  -1241.1054      237.0881      -1478.1935      311.9143       3791.3738      3840.7412      0.99696119
   2806000  -1235.4528      234.12406     -1469.5768      308.01478      368.32532      3840.7412      0.99696119
   2807000  -1238.1389      237.80605     -1475.9449      312.85884     -1189.5437      3840.7412      0.99696119
   2808000  -1273.5057      226.43757     -1499.9433      297.90241      291.9886       3840.7412      0.99696119
   2809000  -1279.9629      220.75127     -1500.7142      290.42148      470.47746      3840.7412      0.99696119
   2810000  -1265.2045      226.9979      -1492.2024      298.63957      576.76386      3840.7412      0.99696119
   2811000  -1315.7602      205.01168     -1520.7719      269.71439     -1194.6651      3840.7412      0.99696119
   2812000  -1313.0796      205.13884     -1518.2184      269.88169      136.31506      3840.7412      0.99696119
   2813000  -1243.4009      231.6478      -1475.0487      304.75701     -565.45632      3840.7412      0.99696119
   2814000  -1269.6401      229.76996     -1499.4101      302.28651      901.67474      3840.7412      0.99696119
   2815000  -1260.8101      220.57608     -1481.3861      290.191        885.24609      3840.7412      0.99696119
   2816000  -1272.2855      214.48195     -1486.7674      282.17353      1238.1059      3840.7412      0.99696119
   2817000  -1237.6692      233.56904     -1471.2382      307.2846       965.14106      3840.7412      0.99696119
   2818000  -1270.1684      204.01667     -1474.185       268.40535      1462.6281      3840.7412      0.99696119
   2819000  -1224.2351      244.25642     -1468.4915      321.34497     -799.2987       3840.7412      0.99696119
   2820000  -1269.6842      231.91329     -1501.5975      305.10629      1779.3859      3840.7412      0.99696119
   2821000  -1271.5257      225.79345     -1497.3191      297.05499      1246.94        3840.7412      0.99696119
   2822000  -1250.0321      211.13819     -1461.1703      277.77446      408.69849      3840.7412      0.99696119
   2823000  -1244.8093      207.85242     -1452.6618      273.45168     -113.21442      3840.7412      0.99696119
   2824000  -1265.764       245.20918     -1510.9731      322.59842      543.50841      3840.7412      0.99696119
   2825000  -1305.8075      211.52336     -1517.3309      278.28119      355.15183      3840.7412      0.99696119
   2826000  -1271.935       220.62436     -1492.5593      290.25451     -917.32258      3840.7412      0.99696119
   2827000  -1294.6266      212.88994     -1507.5166      280.07908      719.84418      3840.7412      0.99696119
   2828000  -1257.7285      242.56144     -1500.29        319.11505     -60.088194      3840.7412      0.99696119
   2829000  -1265.4364      237.95193     -1503.3884      313.05074     -567.89094      3840.7412      0.99696119
   2830000  -1261.0074      231.06112     -1492.0685      303.98516     -968.75216      3840.7412      0.99696119
   2831000  -1276.7784      224.19812     -1500.9766      294.95617      1446.9883      3840.7412      0.99696119
   2832000  -1261.2623      210.99666     -1472.2589      277.58827      208.54331      3840.7412      0.99696119
   2833000  -1239.1965      239.92473     -1479.1213      315.64617      123.92426      3840.7412      0.99696119
   2834000  -1243.3307      259.22433     -1502.555       341.03682      801.03608      3840.7412      0.99696119
   2835000  -1269.2121      227.94325     -1497.1554      299.88328      1904.3159      3840.7412      0.99696119
   2836000  -1232.4132      222.404       -1454.8172      292.59582     -197.43367      3840.7412      0.99696119
   2837000  -1235.494       220.41965     -1455.9136      289.98519      1591.9509      3840.7412      0.99696119
   2838000  -1213.1423      257.03487     -1470.1771      338.15636     -553.58756      3840.7412      0.99696119
   2839000  -1234.8947      248.90009     -1483.7948      327.45421      2128.672       3840.7412      0.99696119
   2840000  -1263.1824      217.20552     -1480.388       285.75666      665.9875       3840.7412      0.99696119
   2841000  -1232.2823      249.56683     -1481.8491      328.33136     -174.88541      3840.7412      0.99696119
   2842000  -1259.782       219.86194     -1479.6439      289.25147      164.20675      3840.7412      0.99696119
   2843000  -1250.0273      216.09977     -1466.127       284.30194     -676.18731      3840.7412      0.99696119
   2844000  -1269.8803      216.43649     -1486.3167      284.74493      318.37404      3840.7412      0.99696119
   2845000  -1253.0146      225.72272     -1478.7373      296.96194     -1669.6574      3840.7412      0.99696119
   2846000  -1235.915       228.61824     -1464.5333      300.7713       804.39301      3840.7412      0.99696119
   2847000  -1232.7109      231.15968     -1463.8705      304.11483      173.8687       3840.7412      0.99696119
   2848000  -1255.4379      214.73753     -1470.1754      282.50977      2715.9095      3840.7412      0.99696119
   2849000  -1256.7286      203.36377     -1460.0924      267.5464      -998.50887      3840.7412      0.99696119
   2850000  -1230.865       230.68491     -1461.5499      303.49022      696.84416      3840.7412      0.99696119
   2851000  -1270.6197      222.82726     -1493.447       293.15266      1752.958       3840.7412      0.99696119
   2852000  -1231.262       239.56171     -1470.8238      315.16859      733.73713      3840.7412      0.99696119
   2853000  -1266.4162      206.8953      -1473.3115      272.1925       615.58368      3840.7412      0.99696119
   2854000  -1260.6705      240.88042     -1501.5509      316.90349     -315.1386       3840.7412      0.99696119
   2855000  -1285.687       216.81323     -1502.5003      285.24058     -461.90787      3840.7412      0.99696119
   2856000  -1289.2608      206.9258      -1496.1866      272.23262      741.51971      3840.7412      0.99696119
   2857000  -1261.1079      223.79842     -1484.9063      294.43032      1773.3625      3840.7412      0.99696119
   2858000  -1308.0484      210.21747     -1518.2659      276.56316      956.79749      3840.7412      0.99696119
   2859000  -1249.2369      231.13258     -1480.3695      304.07918      1139.3159      3840.7412      0.99696119
   2860000  -1229.4297      249.20644     -1478.6361      327.85724     -1108.8924      3840.7412      0.99696119
   2861000  -1274.4373      224.34198     -1498.7792      295.14543     -2202.0133      3840.7412      0.99696119
   2862000  -1253.9473      229.09258     -1483.0399      301.39535      79.107794      3840.7412      0.99696119
   2863000  -1248.4875      220.22404     -1468.7115      289.72785      2250.1516      3840.7412      0.99696119
   2864000  -1289.1863      196.19095     -1485.3773      258.1098      -1740.6649      3840.7412      0.99696119
   2865000  -1266.7683      240.30267     -1507.071       316.14339     -75.798966      3840.7412      0.99696119
   2866000  -1234.3563      226.36485     -1460.7211      297.80673      1932.5299      3840.7412      0.99696119
   2867000  -1193.1175      265.29853     -1458.416       349.02807      1315.0274      3840.7412      0.99696119
   2868000  -1263.0213      207.50144     -1470.5227      272.98993     -327.26484      3840.7412      0.99696119
   2869000  -1240.2626      226.52692     -1466.7896      298.01995      1395.3637      3840.7412      0.99696119
   2870000  -1275.5025      214.02073     -1489.5232      281.56674     -741.63088      3840.7412      0.99696119
   2871000  -1259.0337      244.51918     -1503.5529      321.69066     -1731.0131      3840.7412      0.99696119
   2872000  -1256.8014      220.81975     -1477.6212      290.51156      761.09373      3840.7412      0.99696119
   2873000  -1227.054       226.49943     -1453.5534      297.98379     -1124.5946      3840.7412      0.99696119
   2874000  -1261.3798      224.18577     -1485.5656      294.93993      903.19616      3840.7412      0.99696119
   2875000  -1264.6923      225.12401     -1489.8163      296.17427     -505.36961      3840.7412      0.99696119
   2876000  -1227.9535      221.54667     -1449.5002      291.46791      1208.1314      3840.7412      0.99696119
   2877000  -1268.6603      218.73367     -1487.394       287.76711     -698.18013      3840.7412      0.99696119
   2878000  -1247.9162      222.55666     -1470.4729      292.79665     -486.30333      3840.7412      0.99696119
   2879000  -1261.9899      235.18557     -1497.1754      309.41132      947.06433      3840.7412      0.99696119
   2880000  -1227.1276      221.00917     -1448.1368      290.76077      2081.4384      3840.7412      0.99696119
   2881000  -1278.0439      213.09283     -1491.1367      280.346       -635.37541      3840.7412      0.99696119
   2882000  -1281.2476      220.7879      -1502.0355      290.46966      1710.6984      3840.7412      0.99696119
   2883000  -1278.8426      207.94325     -1486.7859      273.57118     -488.96398      3840.7412      0.99696119
   2884000  -1264.9039      235.74513     -1500.6491      310.14747      814.92156      3840.7412      0.99696119
   2885000  -1232.192       242.0748      -1474.2668      318.47482      1419.5269      3840.7412      0.99696119
   2886000  -1280.8984      219.61404     -1500.5124      288.92533     -1183.0675      3840.7412      0.99696119
   2887000  -1264.4171      221.97682     -1486.3939      292.03382      604.60404      3840.7412      0.99696119
   2888000  -1256.2226      235.87571     -1492.0983      310.31926      1022.3296      3840.7412      0.99696119
   2889000  -1284.2914      223.89456     -1508.186       294.5568       1661.3798      3840.7412      0.99696119
   2890000  -1276.2309      245.99119     -1522.2221      323.62725      1464.5903      3840.7412      0.99696119
   2891000  -1229.6569      216.27174     -1445.9287      284.52819      603.95645      3840.7412      0.99696119
   2892000  -1257.9013      230.16871     -1488.07        302.8111       322.38206      3840.7412      0.99696119
   2893000  -1271.6512      211.48819     -1483.1394      278.23492     -1845.5065      3840.7412      0.99696119
   2894000  -1285.0532      220.08604     -1505.1392      289.5463      -307.33174      3840.7412      0.99696119
   2895000  -1223.7981      239.31692     -1463.115       314.84653      1450.2048      3840.7412      0.99696119
   2896000  -1254.4733      228.09032     -1482.5637      300.07677      174.08765      3840.7412      0.99696119
   2897000  -1246.316       234.58376     -1480.8998      308.61957      368.87023      3840.7412      0.99696119
   2898000  -1228.6607      243.11094     -1471.7717      319.83797     -665.33713      3840.7412      0.99696119
   2899000  -1243.0172      233.98211     -1476.9993      307.82804     -164.41653      3840.7412      0.99696119
   2900000  -1236.1084      234.47375     -1470.5822      308.47483      2976.9374      3840.7412      0.99696119
   2901000  -1237.6336      219.5631      -1457.1967      288.85832     -478.21735      3840.7412      0.99696119
   2902000  -1259.969       221.82444     -1481.7935      291.83334     -1081.6636      3840.7412      0.99696119
   2903000  -1225.9104      236.19328     -1462.1037      310.73706     -1266.6749      3840.7412      0.99696119
   2904000  -1274.0679      211.45722     -1485.5252      278.19418     -434.78219      3840.7412      0.99696119
   2905000  -1273.353       215.2819      -1488.6349      283.22595      800.84872      3840.7412      0.99696119
   2906000  -1245.9382      226.60015     -1472.5383      298.1163      -322.75666      3840.7412      0.99696119
   2907000  -1254.8974      213.43251     -1468.3299      280.79287      1339.9462      3840.7412      0.99696119
   2908000  -1274.1797      223.13957     -1497.3193      293.56353      407.65768      3840.7412      0.99696119
   2909000  -1274.8408      228.71187     -1503.5526      300.89448      2679.4664      3840.7412      0.99696119
   2910000  -1286.0988      223.85546     -1509.9543      294.50536      408.35704      3840.7412      0.99696119
   2911000  -1259.5066      228.43792     -1487.9446      300.53407     -105.42413      3840.7412      0.99696119
   2912000  -1246.6231      212.0284      -1458.6515      278.94562      1757.2556      3840.7412      0.99696119
   2913000  -1227.4255      248.57955     -1476.005       327.0325       1081.8218      3840.7412      0.99696119
   2914000  -1261.9219      234.89926     -1496.8211      309.03465      1432.4171      3840.7412      0.99696119
   2915000  -1211.4107      228.25209     -1439.6628      300.28959      240.44426      3840.7412      0.99696119
   2916000  -1269.4162      210.15431     -1479.5705      276.48007      1708.5544      3840.7412      0.99696119
   2917000  -1275.1893      216.93341     -1492.1227      285.39868      892.4461       3840.7412      0.99696119
   2918000  -1261.3416      216.606       -1477.9475      284.96793      153.9735       3840.7412      0.99696119
   2919000  -1249.7815      235.52292     -1485.3045      309.85514     -1124.0574      3840.7412      0.99696119
   2920000  -1225.5592      228.20012     -1453.7593      300.22122     -210.06685      3840.7412      0.99696119
   2921000  -1233.9367      236.37043     -1470.3072      310.97012     -303.53764      3840.7412      0.99696119
   2922000  -1236.0446      242.90281     -1478.9474      319.56416      180.53647      3840.7412      0.99696119
   2923000  -1268.3263      238.1784      -1506.5047      313.34869     -874.18211      3840.7412      0.99696119
   2924000  -1247.8941      215.65116     -1463.5452      283.71175      1298.9456      3840.7412      0.99696119
   2925000  -1236.9219      257.35287     -1494.2747      338.57473      657.83381      3840.7412      0.99696119
   2926000  -1268.9435      215.41521     -1484.3588      283.40133     -1520.7484      3840.7412      0.99696119
   2927000  -1248.2089      236.00443     -1484.2133      310.48861     -2102.3956      3840.7412      0.99696119
   2928000  -1268.6268      228.84871     -1497.4755      301.0745      -42.160527      3840.7412      0.99696119
   2929000  -1238.1995      236.5026      -1474.7021      311.144        1087.6287      3840.7412      0.99696119
   2930000  -1222.3143      224.32083     -1446.6351      295.1176      -1144.0136      3840.7412      0.99696119
   2931000  -1258.2986      225.37555     -1483.6741      296.50521      1448.8285      3840.7412      0.99696119
   2932000  -1233.8964      223.50183     -1457.3982      294.04012     -3131.4561      3840.7412      0.99696119
   2933000  -1264.8324      213.90267     -1478.7351      281.41142     -249.69635      3840.7412      0.99696119
   2934000  -1239.2512      231.06367     -1470.3149      303.98852      296.60975      3840.7412      0.99696119
   2935000  -1286.2806      228.03421     -1514.3148      300.00295      1210.0085      3840.7412      0.99696119
   2936000  -1262.5929      225.35531     -1487.9482      296.47857      678.17068      3840.7412      0.99696119
   2937000  -1260.0611      219.91444     -1479.9755      289.32054      913.8212       3840.7412      0.99696119
   2938000  -1272.9676      219.74688     -1492.7145      289.10009     -808.71824      3840.7412      0.99696119
   2939000  -1288.6457      206.8716      -1495.5173      272.16131     -1033.8137      3840.7412      0.99696119
   2940000  -1206.6192      247.94236     -1454.5616      326.19421     -354.55977      3840.7412      0.99696119
   2941000  -1228.1494      230.88982     -1459.0393      303.7598       2787.44        3840.7412      0.99696119
   2942000  -1266.2346      222.77448     -1489.0091      293.08322     -1396.7022      3840.7412      0.99696119
   2943000  -1278.3829      212.16692     -1490.5498      279.12786      1647.3987      3840.7412      0.99696119
   2944000  -1237.6089      223.30973     -1460.9186      293.7874      -188.4592       3840.7412      0.99696119
   2945000  -1277.7422      227.78218     -1505.5243      299.67137      2805.2448      3840.7412      0.99696119
   2946000  -1267.3477      223.73576     -1491.0834      294.34789      394.18304      3840.7412      0.99696119
   2947000  -1270.195       253.91213     -1524.1071      334.04806     -1812.4887      3840.7412      0.99696119
   2948000  -1241.9156      203.59159     -1445.5071      267.84612      1538.1824      3840.7412      0.99696119
   2949000  -1275.5558      233.51894     -1509.0747      307.21869      1239.7241      3840.7412      0.99696119
   2950000  -1268.3298      236.45761     -1504.7874      311.08482      1294.8429      3840.7412      0.99696119
   2951000  -1255.2479      228.97505     -1484.2229      301.24072      1934.5796      3840.7412      0.99696119
   2952000  -1286.6372      220.10711     -1506.7443      289.57401     -734.86235      3840.7412      0.99696119
   2953000  -1240.0674      249.87534     -1489.9428      328.73725      859.04552      3840.7412      0.99696119
   2954000  -1253.2291      219.48981     -1472.719       288.76189     -693.87599      3840.7412      0.99696119
   2955000  -1252.875       237.99523     -1490.8703      313.10771      305.91091      3840.7412      0.99696119
   2956000  -1225.9769      219.82051     -1445.7974      289.19696      556.30916      3840.7412      0.99696119
   2957000  -1270.5788      206.36427     -1476.943       271.49387      669.05143      3840.7412      0.99696119
   2958000  -1235.7957      217.35889     -1453.1546      285.95845     -1641.5842      3840.7412      0.99696119
   2959000  -1209.0146      226.0271      -1435.0417      297.36239     -508.21162      3840.7412      0.99696119
   2960000  -1228.9966      227.59576     -1456.5924      299.42613     -250.71369      3840.7412      0.99696119
   2961000  -1275.7321      232.71246     -1508.4446      306.15767     -795.70173      3840.7412      0.99696119
   2962000  -1273.027       213.04678     -1486.0737      280.28541      1725.1841      3840.7412      0.99696119
   2963000  -1267.6011      220.39504     -1487.9962      289.95282     -844.66623      3840.7412      0.99696119
   2964000  -1234.6113      218.67751     -1453.2888      287.69323     -2231.7051      3840.7412      0.99696119
   2965000  -1254.9913      229.83975     -1484.8311      302.37832     -793.85442      3840.7412      0.99696119
   2966000  -1231.0527      232.11004     -1463.1628      305.36513      454.0597       3840.7412      0.99696119
   2967000  -1239.6193      246.82654     -1486.4458      324.72624     -1288.725       3840.7412      0.99696119
   2968000  -1287.9986      212.83878     -1500.8374      280.01177     -300.6559       3840.7412      0.99696119
   2969000  -1247.0597      227.31283     -1474.3725      299.0539       167.96876      3840.7412      0.99696119
   2970000  -1250.7071      242.00025     -1492.7074      318.37674      461.10804      3840.7412      0.99696119
   2971000  -1261.2975      238.53199     -1499.8295      313.81388      1553.6669      3840.7412      0.99696119
   2972000  -1243.9394      226.13304     -1470.0725      297.50176     -92.395191      3840.7412      0.99696119
   2973000  -1236.9272      240.17921     -1477.1065      315.98097      268.36054      3840.7412      0.99696119
   2974000  -1237.4985      216.70145     -1454.1999      285.09351      1561.0023      3840.7412      0.99696119
   2975000  -1264.8988      209.22279     -1474.1216      275.25455      1720.2244      3840.7412      0.99696119
   2976000  -1270.5592      220.20963     -1490.7688      289.7089       574.37529      3840.7412      0.99696119
   2977000  -1261.1671      215.94821     -1477.1153      284.10254      658.26088      3840.7412      0.99696119
   2978000  -1260.8423      216.54188     -1477.3842      284.88358      218.60362      3840.7412      0.99696119
   2979000  -1262.4872      235.44874     -1497.9359      309.75754      105.46792      3840.7412      0.99696119
   2980000  -1261.5802      211.07524     -1472.6555      277.69165     -1073.8681      3840.7412      0.99696119
   2981000  -1238.6005      248.22481     -1486.8253      326.5658       1109.2577      3840.7412      0.99696119
   2982000  -1254.4794      237.10362     -1491.5831      311.93472     -639.1363       3840.7412      0.99696119
   2983000  -1283.164       230.27526     -1513.4392      302.95128     -1893.4564      3840.7412      0.99696119
   2984000  -1273.4258      222.57769     -1496.0035      292.82432      623.83409      3840.7412      0.99696119
   2985000  -1249.2777      229.12645     -1478.4041      301.4399       564.24324      3840.7412      0.99696119
   2986000  -1236.8062      226.74936     -1463.5556      298.3126       19.906082      3840.7412      0.99696119
   2987000  -1256.0954      210.82187     -1466.9173      277.35831      333.09162      3840.7412      0.99696119
   2988000  -1278.3035      229.57416     -1507.8777      302.02892      210.13223      3840.7412      0.99696119
   2989000  -1246.5717      223.86681     -1470.4385      294.5203      -571.88898      3840.7412      0.99696119
   2990000  -1202.4832      243.43634     -1445.9195      320.26607      1523.4563      3840.7412      0.99696119
   2991000  -1243.0236      233.35031     -1476.3739      306.99684      1002.907       3840.7412      0.99696119
   2992000  -1247.7733      221.27074     -1469.0441      291.10489      458.5695       3840.7412      0.99696119
   2993000  -1244.7511      228.96402     -1473.7151      301.22621      548.91502      3840.7412      0.99696119
   2994000  -1264.6801      228.13871     -1492.8188      300.14042      490.16701      3840.7412      0.99696119
   2995000  -1287.1326      241.53495     -1528.6675      317.76459     -181.11995      3840.7412      0.99696119
   2996000  -1243.3662      231.49747     -1474.8637      304.55923      581.96781      3840.7412      0.99696119
   2997000  -1298.329       210.55574     -1508.8847      277.00819      188.4804       3840.7412      0.99696119
   2998000  -1279.0798      216.86181     -1495.9416      285.30448     -1245.0532      3840.7412      0.99696119
   2999000  -1249.6419      227.56236     -1477.2043      299.38218     -419.42816      3840.7412      0.99696119
   3000000  -1277.7065      223.99882     -1501.7054      294.69397      713.32824      3840.7412      0.99696119
Loop time of 2344.53 on 2 procs for 2000000 steps with 384 atoms

Performance: 73.704 ns/day, 0.326 hours/ns, 853.051 timesteps/s
99.7% CPU use with 2 MPI tasks x 1 OpenMP threads

MPI task timing breakdown:
Section |  min time  |  avg time  |  max time  |%varavg| %total
---------------------------------------------------------------
Pair    | 1518.8     | 1524.5     | 1530.1     |  14.4 | 65.02
Bond    | 0.18206    | 0.19317    | 0.20429    |   2.5 |  0.01
Kspace  | 436.65     | 440.26     | 443.87     |  17.2 | 18.78
Neigh   | 111.07     | 111.07     | 111.07     |   0.0 |  4.74
Comm    | 154.16     | 156.21     | 158.26     |  16.4 |  6.66
Output  | 0.54499    | 0.55108    | 0.55717    |   0.8 |  0.02
Modify  | 105.55     | 105.7      | 105.85     |   1.5 |  4.51
Other   |            | 6.055      |            |       |  0.26

Nlocal:            192 ave         197 max         187 min
Histogram: 1 0 0 0 0 0 0 0 0 1
Nghost:         4832.5 ave        4840 max        4825 min
Histogram: 1 0 0 0 0 0 0 0 0 1
Neighs:        69358.5 ave       71656 max       67061 min
Histogram: 1 0 0 0 0 0 0 0 0 1

Total # of neighbors = 138717
Ave neighs/atom = 361.24219
Ave special neighs/atom = 2
Neighbor list builds = 68056
Dangerous builds = 0

# write data file
write_data data.after_prod.lmp
System init for write_data ...
PPPM initialization ...
  using 12-bit tables for long-range coulomb (src/kspace.cpp:342)
  G vector (1/distance) = 0.31203871
  grid = 15 15 15
  stencil order = 5
  estimated absolute RMS force accuracy = 0.0022228175
  estimated relative force accuracy = 6.6939488e-06
  using double precision FFTW3
  3d grid and FFT values/proc = 6776 1800
Generated 1 of 1 mixed pair_coeff terms from geometric mixing rule

# clean up
undump dPROD
unfix fTHERMO
unfix fMOM
unfix fSHAKE
Total wall time: 0:58:36
