LAMMPS (23 Jun 2022 - Update 4)
  using 1 OpenMP thread(s) per MPI task
# created by fftool

# System settings
units real
boundary p p p  # Periodic boundary conditions

# definition of atoms, bonds, angles
atom_style full
bond_style harmonic
angle_style harmonic

# definition of pair potentials
special_bonds lj/coul 0.0 0.0 0.5
pair_style lj/cut/coul/long 10.0 10.0
pair_modify mix geometric tail yes
kspace_style pppm 1.0e-5

# read data file
read_data data.lmp
Reading data file ...
  orthogonal box = (0 0 0) to (12.42973 12.42973 12.42973)
  1 by 1 by 1 MPI processor grid
  reading atoms ...
  192 atoms
  scanning bonds ...
  1 = max bonds/atom
  scanning angles ...
  1 = max angles/atom
  reading bonds ...
  128 bonds
  reading angles ...
  64 angles
Finding 1-2 1-3 1-4 neighbors ...
  special bond factors lj:    0        0        0.5
  special bond factors coul:  0        0        0.5
     2 = max # of 1-2 neighbors
     1 = max # of 1-3 neighbors
     1 = max # of 1-4 neighbors
     2 = max # of special neighbors
  special bonds CPU = 0.000 seconds
  read_data CPU = 0.005 seconds

# definition of LJ parameters
pair_coeff    1    1     0.000000     0.000000  # Hw Hw
pair_coeff    2    2     0.163049     3.182090  # Ow-Ow

############################################

# remove energy hotspots
minimize 1.0e-4 1.0e-6 100 1000
WARNING: Using 'neigh_modify every 1 delay 0 check yes' setting during minimization (src/min.cpp:187)
PPPM initialization ...
  using 12-bit tables for long-range coulomb (src/kspace.cpp:342)
  G vector (1/distance) = 0.31260513
  grid = 12 12 12
  stencil order = 5
  estimated absolute RMS force accuracy = 0.0021455329
  estimated relative force accuracy = 6.4612085e-06
  using double precision FFTW3
  3d grid and FFT values/proc = 6859 1728
Generated 1 of 1 mixed pair_coeff terms from geometric mixing rule
Neighbor list info ...
  update every 1 steps, delay 0 steps, check yes
  max neighbors/atom: 2000, page size: 100000
  master list distance cutoff = 12
  ghost atom cutoff = 12
  binsize = 6, bins = 3 3 3
  1 neighbor lists, perpetual/occasional/extra = 1 0 0
  (1) pair lj/cut/coul/long, perpetual
      attributes: half, newton on
      pair build: half/bin/newton
      stencil: half/bin/3d
      bin: standard
Per MPI rank memory allocation (min/avg/max) = 8.742 | 8.742 | 8.742 Mbytes
   Step          Temp          E_pair         E_mol          TotEng         Press
         0   0              10333.466      3.4302151e-07  10333.466      1510227.2
       100   0             -960.05625      75.011514     -885.04473     -4411.0492
Loop time of 0.207594 on 1 procs for 100 steps with 192 atoms

99.6% CPU use with 1 MPI tasks x 1 OpenMP threads

Minimization stats:
  Stopping criterion = max iterations
  Energy initial, next-to-last, final =
      10333.4662890564  -883.912204573594  -885.044734173822
  Force two-norm initial, final = 58245.66 30.01125
  Force max component initial, final = 21216.96 6.4794588
  Final line search alpha, max atom move = 0.0066670902 0.043199136
  Iterations, force evaluations = 100 172

MPI task timing breakdown:
Section |  min time  |  avg time  |  max time  |%varavg| %total
---------------------------------------------------------------
Pair    | 0.17955    | 0.17955    | 0.17955    |   0.0 | 86.49
Bond    | 0.0006891  | 0.0006891  | 0.0006891  |   0.0 |  0.33
Kspace  | 0.020303   | 0.020303   | 0.020303   |   0.0 |  9.78
Neigh   | 0.0037278  | 0.0037278  | 0.0037278  |   0.0 |  1.80
Comm    | 0.0023766  | 0.0023766  | 0.0023766  |   0.0 |  1.14
Output  | 1.3084e-05 | 1.3084e-05 | 1.3084e-05 |   0.0 |  0.01
Modify  | 0          | 0          | 0          |   0.0 |  0.00
Other   |            | 0.0009326  |            |       |  0.45

Nlocal:            192 ave         192 max         192 min
Histogram: 1 0 0 0 0 0 0 0 0 0
Nghost:           4788 ave        4788 max        4788 min
Histogram: 1 0 0 0 0 0 0 0 0 0
Neighs:          69256 ave       69256 max       69256 min
Histogram: 1 0 0 0 0 0 0 0 0 0

Total # of neighbors = 69256
Ave neighs/atom = 360.70833
Ave special neighs/atom = 2
Neighbor list builds = 3
Dangerous builds = 0
reset_timestep 0

# constrain water bonds and angles
fix fSHAKE all shake 0.0001 20 0 b 1 a 1
       0 = # of size 2 clusters
       0 = # of size 3 clusters
       0 = # of size 4 clusters
      64 = # of frozen angles
  find clusters CPU = 0.000 seconds

# remove Center of Mass movement every 100 steps
fix fMOM all momentum 100 linear 1 1 1

# define the neighbor list
neighbor 2.0 bin

# IMPORTANT: timestep and temperature and pressure
timestep 1.0
variable vTK equal 298.15
variable vPBAR equal 1.0

# randomize velocities
velocity all create ${vTK} 28810
velocity all create 298.15 28810

# thermostat (solving the ODE)
fix fTHERMO all nvt temp ${vTK} ${vTK} 100
fix fTHERMO all nvt temp 298.15 ${vTK} 100
fix fTHERMO all nvt temp 298.15 298.15 100

# print settings
thermo 1000
thermo_style custom step etotal ke pe temp press vol density
# trajectory output
dump dEQUI all custom 1000 equi.lammpstrj id element xu yu zu
dump_modify dEQUI element H O sort id

# equilibration
# 1 ns
run 1000000
PPPM initialization ...
  using 12-bit tables for long-range coulomb (src/kspace.cpp:342)
  G vector (1/distance) = 0.31260513
  grid = 12 12 12
  stencil order = 5
  estimated absolute RMS force accuracy = 0.0021455329
  estimated relative force accuracy = 6.4612085e-06
  using double precision FFTW3
  3d grid and FFT values/proc = 6859 1728
Generated 1 of 1 mixed pair_coeff terms from geometric mixing rule
Per MPI rank memory allocation (min/avg/max) = 9.759 | 9.759 | 9.759 Mbytes
   Step         TotEng         KinEng         PotEng          Temp          Press          Volume        Density
         0  -847.18773      112.86852     -960.05625      298.15         9453.3549      1920.3708      0.9969611
      1000  -636.92823      108.53162     -745.45985      286.69378      844.92063      1920.3708      0.9969611
      2000  -629.74536      104.90102     -734.64638      277.1033       1557.7536      1920.3708      0.9969611
      3000  -640.72723      103.59836     -744.32559      273.66222     -579.10537      1920.3708      0.9969611
      4000  -612.75142      133.69795     -746.44937      353.17237      1970.6354      1920.3708      0.9969611
      5000  -651.164        102.42286     -753.58686      270.55706     -882.10064      1920.3708      0.9969611
      6000  -638.6772       118.81119     -757.48839      313.84796     -1252.9338      1920.3708      0.9969611
      7000  -652.03596      112.90426     -764.94023      298.24441     -964.93364      1920.3708      0.9969611
      8000  -648.85413      103.70508     -752.5592       273.94413     -872.81524      1920.3708      0.9969611
      9000  -660.52151      107.35825     -767.87976      283.59423     -1695.7005      1920.3708      0.9969611
     10000  -628.60937      105.94894     -734.55831      279.87146      2036.1343      1920.3708      0.9969611
     11000  -610.62344      108.23299     -718.85644      285.90493     -392.27414      1920.3708      0.9969611
     12000  -623.78676      110.4533      -734.24006      291.77003      1798.7927      1920.3708      0.9969611
     13000  -625.37227      118.10843     -743.4807       311.99158     -961.13688      1920.3708      0.9969611
     14000  -610.54154      137.68148     -748.22302      363.69515      2406.467       1920.3708      0.9969611
     15000  -624.25663      115.83991     -740.09654      305.99914      3033.5565      1920.3708      0.9969611
     16000  -621.46824      100.81511     -722.28335      266.31009      626.90811      1920.3708      0.9969611
     17000  -643.93281      107.48202     -751.41483      283.92119     -931.57359      1920.3708      0.9969611
     18000  -610.6927       134.48226     -745.17496      355.24419      1470.2824      1920.3708      0.9969611
     19000  -622.87437      110.03213     -732.90649      290.65747     -958.35937      1920.3708      0.9969611
     20000  -648.69368      100.9936      -749.68729      266.78159     -817.82951      1920.3708      0.9969611
     21000  -629.14911      107.24671     -736.39582      283.29961      2979.3343      1920.3708      0.9969611
     22000  -630.33936      113.35951     -743.69887      299.44699      1254.4234      1920.3708      0.9969611
     23000  -620.48367      109.9148      -730.39847      290.34754      500.28652      1920.3708      0.9969611
     24000  -634.5728       110.615       -745.1878       292.19717     -1301.5347      1920.3708      0.9969611
     25000  -634.70751      107.5317      -742.23921      284.05242      541.72586      1920.3708      0.9969611
     26000  -628.80784      119.16746     -747.9753       314.78908     -522.48125      1920.3708      0.9969611
     27000  -643.52921      107.98924     -751.51845      285.26104     -1281.6658      1920.3708      0.9969611
     28000  -617.808        113.56484     -731.37285      299.98938      1060.3834      1920.3708      0.9969611
     29000  -611.96739      112.76555     -724.73294      297.878        759.59321      1920.3708      0.9969611
     30000  -653.76464      110.42987     -764.19451      291.70814     -2211.79        1920.3708      0.9969611
     31000  -624.76919      114.94627     -739.71546      303.63851      102.19884      1920.3708      0.9969611
     32000  -651.7844       94.064897     -745.8493       248.47893     -1952.3267      1920.3708      0.9969611
     33000  -626.36096      114.06976     -740.43071      301.32314     -1221.7523      1920.3708      0.9969611
     34000  -639.44181      116.16764     -755.60945      306.86485      624.91705      1920.3708      0.9969611
     35000  -601.02017      121.83589     -722.85606      321.83791      807.10431      1920.3708      0.9969611
     36000  -639.48898      111.9014      -751.39038      295.59529     -159.76394      1920.3708      0.9969611
     37000  -623.93679      116.3592      -740.29599      307.37087      1206.5658      1920.3708      0.9969611
     38000  -625.1223       122.65662     -747.77892      324.00593     -359.64485      1920.3708      0.9969611
     39000  -623.33057      111.30124     -734.63181      294.00992      978.33823      1920.3708      0.9969611
     40000  -633.13496      111.00697     -744.14193      293.23259      406.87283      1920.3708      0.9969611
     41000  -603.08339      111.76898     -714.85237      295.2455      -2304.5408      1920.3708      0.9969611
     42000  -633.53799      103.38817     -736.92615      273.10699     -800.98163      1920.3708      0.9969611
     43000  -632.61476      110.80721     -743.42196      292.70489     -48.562171      1920.3708      0.9969611
     44000  -608.53421      118.32104     -726.85525      312.5532       435.15051      1920.3708      0.9969611
     45000  -642.43668      100.62212     -743.0588       265.80028      715.46796      1920.3708      0.9969611
     46000  -635.36391      108.41051     -743.77443      286.37387     -162.58838      1920.3708      0.9969611
     47000  -621.80162      109.26793     -731.06956      288.6388       979.53861      1920.3708      0.9969611
     48000  -638.75428      105.03217     -743.78645      277.44974      329.70578      1920.3708      0.9969611
     49000  -639.72049      105.69432     -745.41481      279.19886      1307.2058      1920.3708      0.9969611
     50000  -647.28891      113.74461     -761.03352      300.46424      596.91849      1920.3708      0.9969611
     51000  -630.44066      117.1655      -747.60617      309.50077     -32.810186      1920.3708      0.9969611
     52000  -659.90641      109.13499     -769.0414       288.28762      4645.3124      1920.3708      0.9969611
     53000  -657.39116      121.66157     -779.05273      321.37746     -871.51168      1920.3708      0.9969611
     54000  -644.94579      111.66575     -756.61154      294.9728      -2834.6024      1920.3708      0.9969611
     55000  -645.08499      117.72798     -762.81297      310.9866       949.8145       1920.3708      0.9969611
     56000  -633.42961      113.79129     -747.2209       300.58755      1889.4907      1920.3708      0.9969611
     57000  -603.07514      122.85173     -725.92687      324.52134      514.68857      1920.3708      0.9969611
     58000  -623.27466      124.34411     -747.61877      328.46355     -1698.2023      1920.3708      0.9969611
     59000  -612.80492      109.91885     -722.72377      290.35825     -1227.457       1920.3708      0.9969611
     60000  -642.25138      100.87323     -743.1246       266.4636      -1068.2625      1920.3708      0.9969611
     61000  -634.03753      117.3543      -751.39183      309.9995      -465.748        1920.3708      0.9969611
     62000  -619.0483       123.61904     -742.66735      326.54824     -2768.2093      1920.3708      0.9969611
     63000  -612.5647       117.80128     -730.36598      311.18022      1654.0728      1920.3708      0.9969611
     64000  -606.54707      124.00562     -730.55269      327.56941      2255.3692      1920.3708      0.9969611
     65000  -644.44402      107.42892     -751.87294      283.78092      40.640735      1920.3708      0.9969611
     66000  -655.87011      95.339723     -751.20983      251.84647     -690.86383      1920.3708      0.9969611
     67000  -616.8241       118.09697     -734.92107      311.96132      620.64381      1920.3708      0.9969611
     68000  -628.46843      121.02965     -749.49808      319.70818      3427.7583      1920.3708      0.9969611
     69000  -618.28709      113.78318     -732.07028      300.56614      1918.0987      1920.3708      0.9969611
     70000  -639.79293      107.04868     -746.84161      282.77647      472.44907      1920.3708      0.9969611
     71000  -606.87084      110.53503     -717.40588      291.98593      570.6707       1920.3708      0.9969611
     72000  -626.4054       119.03388     -745.43928      314.43621      462.79795      1920.3708      0.9969611
     73000  -623.85931      119.73674     -743.59606      316.29288     -2116.711       1920.3708      0.9969611
     74000  -641.33327      107.9287      -749.26197      285.10111      920.8922       1920.3708      0.9969611
     75000  -615.96336      121.31165     -737.27501      320.45311      1002.2235      1920.3708      0.9969611
     76000  -644.09504      117.10083     -761.19586      309.32992     -1581.6177      1920.3708      0.9969611
     77000  -639.89164      124.82215     -764.71379      329.72634      169.12361      1920.3708      0.9969611
     78000  -600.91837      118.03222     -718.95059      311.79027     -717.74376      1920.3708      0.9969611
     79000  -636.68241      123.97727     -760.65968      327.49452     -781.96674      1920.3708      0.9969611
     80000  -613.77316      125.3742      -739.14737      331.18463     -10.789727      1920.3708      0.9969611
     81000  -622.47175      108.98988     -731.46163      287.9043       261.10782      1920.3708      0.9969611
     82000  -628.57486      120.8008      -749.37566      319.10366     -248.91624      1920.3708      0.9969611
     83000  -603.5924       130.11058     -733.70298      343.69608     -1045.8587      1920.3708      0.9969611
     84000  -648.07694      99.560975     -747.63791      262.9972       94.023794      1920.3708      0.9969611
     85000  -623.75986      120.4857      -744.24556      318.27129      3013.5521      1920.3708      0.9969611
     86000  -647.29213      128.82823     -776.12036      340.30868     -1850.2058      1920.3708      0.9969611
     87000  -593.6008       127.73783     -721.33863      337.42831      1680.4838      1920.3708      0.9969611
     88000  -640.54626      108.43405     -748.98031      286.43605     -26.378951      1920.3708      0.9969611
     89000  -608.16569      120.22273     -728.38842      317.57664      1168.4205      1920.3708      0.9969611
     90000  -639.3394       108.33679     -747.6762       286.17913     -532.7844       1920.3708      0.9969611
     91000  -637.65721      111.98778     -749.64499      295.82346      1850.9522      1920.3708      0.9969611
     92000  -646.36283      114.50731     -760.87014      302.47897      4308.3409      1920.3708      0.9969611
     93000  -642.364        114.46092     -756.82493      302.35643      83.54298       1920.3708      0.9969611
     94000  -653.41873      111.2474      -764.66613      293.86769      1769.3646      1920.3708      0.9969611
     95000  -608.9143       124.01076     -732.92506      327.583        1846.5765      1920.3708      0.9969611
     96000  -621.83181      108.03797     -729.86977      285.38976     -774.66119      1920.3708      0.9969611
     97000  -647.87337      112.12501     -759.99838      296.18595      408.91362      1920.3708      0.9969611
     98000  -622.43546      118.09964     -740.5351       311.96837      375.42681      1920.3708      0.9969611
     99000  -639.75362      108.63453     -748.38815      286.96562      1804.9763      1920.3708      0.9969611
    100000  -633.55145      112.1397      -745.69115      296.22477     -657.50374      1920.3708      0.9969611
    101000  -641.17368      108.84156     -750.01524      287.51251      2537.2126      1920.3708      0.9969611
    102000  -638.66587      108.67352     -747.33939      287.06862      3476.5564      1920.3708      0.9969611
    103000  -616.10976      109.64697     -725.75673      289.64005      3517.0579      1920.3708      0.9969611
    104000  -653.22228      97.51892      -750.7412       257.60297     -1284.3684      1920.3708      0.9969611
    105000  -634.09966      111.90829     -746.00796      295.61349     -664.24718      1920.3708      0.9969611
    106000  -616.41455      126.67384     -743.08839      334.61771     -828.89802      1920.3708      0.9969611
    107000  -631.58062      106.07184     -737.65246      280.19609      1439.9654      1920.3708      0.9969611
    108000  -645.7632       105.2669      -751.0301       278.0698      -1403.5591      1920.3708      0.9969611
    109000  -607.86822      112.76109     -720.6293       297.8662       735.02147      1920.3708      0.9969611
    110000  -639.64996      110.97662     -750.62657      293.1524      -1099.7214      1920.3708      0.9969611
    111000  -615.61201      111.37712     -726.98913      294.21035      1063.1086      1920.3708      0.9969611
    112000  -627.91752      108.13833     -736.05585      285.65487      2007.5823      1920.3708      0.9969611
    113000  -621.76128      116.74031     -738.50159      308.37759     -868.90613      1920.3708      0.9969611
    114000  -640.7879       101.16673     -741.95464      267.23892     -1049.2304      1920.3708      0.9969611
    115000  -650.82468      108.53699     -759.36167      286.70797      2503.1813      1920.3708      0.9969611
    116000  -666.52691      103.18662     -769.71353      272.57459      3433.3424      1920.3708      0.9969611
    117000  -624.47642      108.20454     -732.68096      285.82977     -989.25159      1920.3708      0.9969611
    118000  -654.77648      92.617767     -747.39425      244.65623     -933.79001      1920.3708      0.9969611
    119000  -610.49605      114.54151     -725.03756      302.56931      120.71956      1920.3708      0.9969611
    120000  -612.061        108.84501     -720.90601      287.52163     -457.22077      1920.3708      0.9969611
    121000  -590.00999      112.89609     -702.90608      298.22283      2149.7137      1920.3708      0.9969611
    122000  -620.98062      122.20635     -743.18697      322.81651      2036.2024      1920.3708      0.9969611
    123000  -618.4749       111.39371     -729.86861      294.25419     -213.03688      1920.3708      0.9969611
    124000  -619.13732      116.87571     -736.01303      308.73527      316.18747      1920.3708      0.9969611
    125000  -631.57656      111.03365     -742.61021      293.30305     -2246.0747      1920.3708      0.9969611
    126000  -644.78211      114.37598     -759.15809      302.13206      2349.7711      1920.3708      0.9969611
    127000  -634.50185      108.68161     -743.18346      287.08998      2999.6561      1920.3708      0.9969611
    128000  -630.63193      109.96238     -740.59431      290.47322     -1728.2178      1920.3708      0.9969611
    129000  -613.93306      121.17742     -735.11048      320.09852     -444.00834      1920.3708      0.9969611
    130000  -630.78022      119.22528     -750.00549      314.94181      2867.7337      1920.3708      0.9969611
    131000  -618.31354      104.47342     -722.78696      275.97375      90.90988       1920.3708      0.9969611
    132000  -643.945        107.59661     -751.54161      284.22387      152.46533      1920.3708      0.9969611
    133000  -614.57138      103.9966      -718.56798      274.71421      3048.6971      1920.3708      0.9969611
    134000  -621.5098       113.09275     -734.60256      298.74232     -601.34498      1920.3708      0.9969611
    135000  -616.75855      121.09327     -737.85182      319.87624      1663.1745      1920.3708      0.9969611
    136000  -622.8949       115.13155     -738.02645      304.12794     -202.7854       1920.3708      0.9969611
    137000  -645.73179      97.585733     -743.31752      257.77946     -504.62849      1920.3708      0.9969611
    138000  -633.40162      113.81417     -747.21578      300.64799      405.35355      1920.3708      0.9969611
    139000  -623.65081      114.04616     -737.69697      301.26081      1446.3089      1920.3708      0.9969611
    140000  -628.82256      116.55082     -745.37338      307.87705      651.35897      1920.3708      0.9969611
    141000  -594.20306      121.28571     -715.48876      320.38457     -2806.1516      1920.3708      0.9969611
    142000  -630.50057      118.80227     -749.30284      313.82441     -1811.004       1920.3708      0.9969611
    143000  -634.43718      107.80413     -742.2413       284.77206      1814.9027      1920.3708      0.9969611
    144000  -636.16774      114.89771     -751.06545      303.51025     -1088.3472      1920.3708      0.9969611
    145000  -634.42758      105.76066     -740.18823      279.37408      694.79736      1920.3708      0.9969611
    146000  -632.74865      124.8232      -757.57185      329.72911      1422.5336      1920.3708      0.9969611
    147000  -644.50488      109.88746     -754.39234      290.27532     -850.59872      1920.3708      0.9969611
    148000  -605.6246       129.4929      -735.1175       342.06443     -1843.1633      1920.3708      0.9969611
    149000  -629.87912      105.51212     -735.39123      278.71755     -108.09884      1920.3708      0.9969611
    150000  -637.4323       107.51939     -744.95169      284.01991      447.31132      1920.3708      0.9969611
    151000  -607.63841      119.95208     -727.59049      316.86171     -82.497616      1920.3708      0.9969611
    152000  -609.71294      123.81124     -733.52418      327.05594      2552           1920.3708      0.9969611
    153000  -632.67389      102.75196     -735.42585      271.42641      4333.2617      1920.3708      0.9969611
    154000  -617.65676      103.17086     -720.82762      272.53296      3854.9863      1920.3708      0.9969611
    155000  -625.4763       116.05814     -741.53444      306.57561     -1368.3121      1920.3708      0.9969611
    156000  -632.45515      115.83906     -748.29421      305.99688     -3105.6398      1920.3708      0.9969611
    157000  -613.75667      115.04173     -728.7984       303.89069      2542.2892      1920.3708      0.9969611
    158000  -646.4516       105.64809     -752.09969      279.07672      2806.9158      1920.3708      0.9969611
    159000  -672.66268      103.2065      -775.86918      272.62711      362.71723      1920.3708      0.9969611
    160000  -619.5238       108.44652     -727.97032      286.46897     -375.95549      1920.3708      0.9969611
    161000  -641.84308      116.65771     -758.50079      308.1594      -1798.1867      1920.3708      0.9969611
    162000  -636.7402       113.85031     -750.59051      300.74346     -1447.2779      1920.3708      0.9969611
    163000  -632.68714      111.01006     -743.6972       293.24075     -2182.2813      1920.3708      0.9969611
    164000  -619.69623      123.767       -743.46323      326.93907      2681.8941      1920.3708      0.9969611
    165000  -645.80334      113.31929     -759.12263      299.34073     -1559.99        1920.3708      0.9969611
    166000  -632.6038       116.55357     -749.15737      307.88431      1495.2716      1920.3708      0.9969611
    167000  -634.96631      112.8063      -747.77261      297.98564     -1675.8609      1920.3708      0.9969611
    168000  -614.1075       133.27721     -747.38471      352.06096      379.87842      1920.3708      0.9969611
    169000  -617.52933      118.9955      -736.52483      314.33483     -1307.2686      1920.3708      0.9969611
    170000  -612.72978      122.71548     -735.44527      324.16143     -718.49286      1920.3708      0.9969611
    171000  -636.00804      120.47436     -756.48239      318.24134     -3062.4036      1920.3708      0.9969611
    172000  -656.96075      105.63023     -762.59098      279.02955      3241.4357      1920.3708      0.9969611
    173000  -632.43495      113.87326     -746.3082       300.80408      4638.1646      1920.3708      0.9969611
    174000  -639.57551      117.45021     -757.02572      310.25284     -781.14951      1920.3708      0.9969611
    175000  -645.96761      109.4734      -755.44101      289.18155     -2216.308       1920.3708      0.9969611
    176000  -610.54027      123.02471     -733.56498      324.97826     -287.49329      1920.3708      0.9969611
    177000  -607.74565      102.85644     -710.60209      271.7024      -157.39486      1920.3708      0.9969611
    178000  -597.2792       118.11107     -715.39027      311.99856     -1998.8639      1920.3708      0.9969611
    179000  -627.13928      100.47565     -727.61493      265.41337     -98.131896      1920.3708      0.9969611
    180000  -614.96404      104.39736     -719.3614       275.77283     -2254.1147      1920.3708      0.9969611
    181000  -613.27229      112.00116     -725.27345      295.8588       2694.3293      1920.3708      0.9969611
    182000  -628.13467      103.04682     -731.18149      272.20531     -1618.2103      1920.3708      0.9969611
    183000  -635.23151      107.64542     -742.87693      284.35281     -252.31049      1920.3708      0.9969611
    184000  -617.73021      121.11371     -738.84392      319.93023     -234.17168      1920.3708      0.9969611
    185000  -606.03792      112.93765     -718.97557      298.33261     -1136.0257      1920.3708      0.9969611
    186000  -625.37678      114.0176      -739.39437      301.18536     -775.08673      1920.3708      0.9969611
    187000  -660.55723      104.49917     -765.0564       276.04179     -2851.3225      1920.3708      0.9969611
    188000  -649.42784      109.7142      -759.14204      289.81765      991.71214      1920.3708      0.9969611
    189000  -621.60889      121.73212     -743.34101      321.56381      427.41378      1920.3708      0.9969611
    190000  -615.09295      126.27897     -741.37192      333.57462      2666.9979      1920.3708      0.9969611
    191000  -634.30069      103.2296      -737.53028      272.68811     -2585.2583      1920.3708      0.9969611
    192000  -619.24078      114.69408     -733.93486      302.97235     -490.00022      1920.3708      0.9969611
    193000  -619.17724      127.53315     -746.7104       336.88763      1707.5953      1920.3708      0.9969611
    194000  -611.00703      116.97223     -727.97926      308.99024      1344.4039      1920.3708      0.9969611
    195000  -633.77913      111.9745      -745.75364      295.78839      1715.9214      1920.3708      0.9969611
    196000  -607.16293      106.92304     -714.08597      282.44461     -2407.096       1920.3708      0.9969611
    197000  -616.87732      118.39944     -735.27676      312.7603      -1968.8256      1920.3708      0.9969611
    198000  -612.38399      113.60652     -725.99051      300.09947      2514.4324      1920.3708      0.9969611
    199000  -631.01576      100.00261     -731.01836      264.1638      -598.8394       1920.3708      0.9969611
    200000  -655.24839      95.388353     -750.63674      251.97493      714.71589      1920.3708      0.9969611
    201000  -633.31682      105.67233     -738.98916      279.14077     -982.12678      1920.3708      0.9969611
    202000  -607.3471       125.22643     -732.57353      330.79426     -11.706303      1920.3708      0.9969611
    203000  -611.6599       115.15199     -726.81189      304.18194      3034.8071      1920.3708      0.9969611
    204000  -644.81693      106.23404     -751.05097      280.62456      479.96968      1920.3708      0.9969611
    205000  -600.194        113.81648     -714.01048      300.6541       103.95099      1920.3708      0.9969611
    206000  -642.3446       100.9043      -743.2489       266.54568     -1314.3119      1920.3708      0.9969611
    207000  -628.36804      117.52842     -745.89646      310.45944      241.01541      1920.3708      0.9969611
    208000  -658.90707      115.1484      -774.05547      304.17246      1241.4777      1920.3708      0.9969611
    209000  -620.2136       123.38459     -743.59819      325.92892     -90.32624       1920.3708      0.9969611
    210000  -625.75711      115.32324     -741.08035      304.63432     -2361.4221      1920.3708      0.9969611
    211000  -649.798        97.673336     -747.47134      258.01087     -1116.2647      1920.3708      0.9969611
    212000  -626.57521      111.07193     -737.64714      293.40419      568.24512      1920.3708      0.9969611
    213000  -608.18783      118.07055     -726.25838      311.89151      1669.3432      1920.3708      0.9969611
    214000  -609.40152      109.23598     -718.6375       288.55438     -264.97964      1920.3708      0.9969611
    215000  -648.03177      99.52161      -747.55338      262.89321     -192.31896      1920.3708      0.9969611
    216000  -619.09934      126.16662     -745.26597      333.27785      885.31156      1920.3708      0.9969611
    217000  -596.7133       122.95226     -719.66556      324.78688     -568.93184      1920.3708      0.9969611
    218000  -612.63346      113.21372     -725.84718      299.06187     -2530.6592      1920.3708      0.9969611
    219000  -604.68294      119.23069     -723.91362      314.9561       2375.0579      1920.3708      0.9969611
    220000  -621.94661      111.66915     -733.61576      294.98178      4512.7524      1920.3708      0.9969611
    221000  -632.68917      105.44414     -738.1333       278.53798      471.00166      1920.3708      0.9969611
    222000  -653.23511      115.29732     -768.53243      304.56583      3689.0735      1920.3708      0.9969611
    223000  -613.60169      120.86676     -734.46844      319.27789     -940.90988      1920.3708      0.9969611
    224000  -629.06786      119.47961     -748.54747      315.61363      214.08907      1920.3708      0.9969611
    225000  -619.75173      128.84074     -748.59247      340.34172     -1593.9422      1920.3708      0.9969611
    226000  -629.80378      109.09359     -738.89737      288.17825      1361.5811      1920.3708      0.9969611
    227000  -651.08539      112.8135      -763.89889      298.00465      324.51118      1920.3708      0.9969611
    228000  -621.95921      121.62961     -743.58882      321.29301     -1367.1439      1920.3708      0.9969611
    229000  -623.86782      118.13465     -742.00247      312.06085     -1890.1047      1920.3708      0.9969611
    230000  -657.05803      110.29195     -767.34998      291.34381      1606.1743      1920.3708      0.9969611
    231000  -632.97933      92.872506     -725.85183      245.32914      1624.8264      1920.3708      0.9969611
    232000  -653.9464       105.01609     -758.96249      277.40725      608.33083      1920.3708      0.9969611
    233000  -612.9187       124.18848     -737.10718      328.05244      874.76766      1920.3708      0.9969611
    234000  -637.63397      113.24225     -750.87622      299.13724      2703.8724      1920.3708      0.9969611
    235000  -637.47929      107.031       -744.51029      282.72978     -1672.7085      1920.3708      0.9969611
    236000  -648.03534      101.01799     -749.05333      266.84601      1513.5902      1920.3708      0.9969611
    237000  -630.44463      112.95917     -743.4038       298.38945     -699.79359      1920.3708      0.9969611
    238000  -618.28355      114.05136     -732.33491      301.27455      378.54528      1920.3708      0.9969611
    239000  -623.78384      111.54796     -735.33181      294.66166     -402.57525      1920.3708      0.9969611
    240000  -654.49264      113.32102     -767.81366      299.34532      1976.4633      1920.3708      0.9969611
    241000  -622.34552      111.78753     -734.13305      295.29449      1647.4856      1920.3708      0.9969611
    242000  -614.55782      120.40196     -734.95979      318.05011     -2467.2561      1920.3708      0.9969611
    243000  -643.93928      105.75885     -749.69813      279.36931      1992.3898      1920.3708      0.9969611
    244000  -620.28209      112.25366     -732.53574      296.52579     -102.44371      1920.3708      0.9969611
    245000  -620.91963      106.78883     -727.70846      282.09006      1672.155       1920.3708      0.9969611
    246000  -631.26173      106.60962     -737.87136      281.61669      537.45426      1920.3708      0.9969611
    247000  -614.98842      122.11303     -737.10144      322.57001     -1637.435       1920.3708      0.9969611
    248000  -635.16257      115.45759     -750.62015      304.98919      1260.9441      1920.3708      0.9969611
    249000  -613.40093      115.56345     -728.96438      305.26884      27.906695      1920.3708      0.9969611
    250000  -626.82745      108.73641     -735.56387      287.23475     -187.19662      1920.3708      0.9969611
    251000  -641.16195      115.97224     -757.13419      306.34868      4113.2031      1920.3708      0.9969611
    252000  -635.18637      116.09164     -751.27801      306.66409      232.73712      1920.3708      0.9969611
    253000  -641.0092       102.74515     -743.75435      271.40841     -766.23079      1920.3708      0.9969611
    254000  -652.08529      102.07074     -754.15603      269.62691      4000.0891      1920.3708      0.9969611
    255000  -644.50635      113.40829     -757.91464      299.57584      968.79734      1920.3708      0.9969611
    256000  -627.53616      113.72076     -741.25692      300.40126      2022.7233      1920.3708      0.9969611
    257000  -638.91575      102.17018     -741.08594      269.8896      -374.7829       1920.3708      0.9969611
    258000  -631.74871      102.5567      -734.30541      270.91062     -482.72418      1920.3708      0.9969611
    259000  -630.44057      106.79398     -737.23456      282.10369     -1663.5602      1920.3708      0.9969611
    260000  -583.34292      124.29002     -707.63294      328.32067     -324.39376      1920.3708      0.9969611
    261000  -637.38766      109.04556     -746.43322      288.05139     -459.19267      1920.3708      0.9969611
    262000  -641.95538      114.13836     -756.09374      301.50436      2527.0952      1920.3708      0.9969611
    263000  -616.64751      126.84037     -743.48788      335.05761      849.18498      1920.3708      0.9969611
    264000  -637.78595      106.34906     -744.13501      280.9284      -947.02735      1920.3708      0.9969611
    265000  -604.27975      117.16438     -721.44413      309.49781     -258.80479      1920.3708      0.9969611
    266000  -616.72724      125.86926     -742.5965       332.49236     -1708.6575      1920.3708      0.9969611
    267000  -616.23988      120.05124     -736.29112      317.12366     -1019.6127      1920.3708      0.9969611
    268000  -639.87087      91.025685     -730.89655      240.45064      1121.9152      1920.3708      0.9969611
    269000  -606.68521      114.24743     -720.93265      301.79249      562.11042      1920.3708      0.9969611
    270000  -627.26729      111.69715     -738.96444      295.05574      786.82568      1920.3708      0.9969611
    271000  -620.51876      126.68053     -747.19929      334.63536      2808.8886      1920.3708      0.9969611
    272000  -661.46634      99.522709     -760.98904      262.89611      1409.2403      1920.3708      0.9969611
    273000  -617.44334      109.96008     -727.40342      290.46714      2364.4718      1920.3708      0.9969611
    274000  -626.07679      121.48333     -747.56012      320.90662      1395.4051      1920.3708      0.9969611
    275000  -627.95672      109.4267      -737.38343      289.0582       564.09103      1920.3708      0.9969611
    276000  -654.68971      100.63005     -755.31976      265.82122      368.88533      1920.3708      0.9969611
    277000  -626.56441      104.04254     -730.60695      274.83556     -162.9868       1920.3708      0.9969611
    278000  -610.61079      119.55048     -730.16128      315.80086     -705.36572      1920.3708      0.9969611
    279000  -615.81192      110.80349     -726.61541      292.69507     -1762.9725      1920.3708      0.9969611
    280000  -642.06263      114.61935     -756.68198      302.77493      951.05101      1920.3708      0.9969611
    281000  -631.07694      106.05967     -737.13661      280.16394     -752.91704      1920.3708      0.9969611
    282000  -619.39694      117.41342     -736.81035      310.15566      1498.0044      1920.3708      0.9969611
    283000  -620.90116      117.38161     -738.28277      310.07164      20.045695      1920.3708      0.9969611
    284000  -615.07883      118.07814     -733.15696      311.91156      2019.0845      1920.3708      0.9969611
    285000  -636.63744      124.32959     -760.96704      328.42521     -3053.0754      1920.3708      0.9969611
    286000  -644.7001       108.84635     -753.54645      287.52515     -1798.9586      1920.3708      0.9969611
    287000  -600.71802      110.23374     -710.95176      291.19004      303.6095       1920.3708      0.9969611
    288000  -625.3674       110.02179     -735.38918      290.63015     -2056.8466      1920.3708      0.9969611
    289000  -616.70116      116.05932     -732.76048      306.57872      1182.4806      1920.3708      0.9969611
    290000  -611.19919      112.45684     -723.65603      297.06251     -1177.7285      1920.3708      0.9969611
    291000  -604.23975      119.29145     -723.5312       315.11662      624.73792      1920.3708      0.9969611
    292000  -638.86977      108.88006     -747.74983      287.61421     -996.62849      1920.3708      0.9969611
    293000  -627.89352      105.10229     -732.99582      277.63498     -3253.7409      1920.3708      0.9969611
    294000  -626.4273       122.48597     -748.91327      323.55516      709.7758       1920.3708      0.9969611
    295000  -630.08375      103.18421     -733.26796      272.56823     -997.11994      1920.3708      0.9969611
    296000  -645.42189      101.37021     -746.7921       267.77641      2787.3678      1920.3708      0.9969611
    297000  -609.59842      117.51501     -727.11344      310.42403      713.40609      1920.3708      0.9969611
    298000  -628.62138      120.73834     -749.35972      318.93866     -284.64422      1920.3708      0.9969611
    299000  -634.19189      117.46435     -751.65624      310.29019     -405.35201      1920.3708      0.9969611
    300000  -621.94776      109.87376     -731.82152      290.23913      5.1902137      1920.3708      0.9969611
    301000  -637.04665      120.36012     -757.40676      317.93957      698.04557      1920.3708      0.9969611
    302000  -615.05718      121.07883     -736.136        319.83809     -1317.8376      1920.3708      0.9969611
    303000  -632.02435      115.43804     -747.46239      304.93756     -221.71321      1920.3708      0.9969611
    304000  -639.36595      115.68505     -755.051        305.59006      343.65046      1920.3708      0.9969611
    305000  -623.26525      108.74357     -732.00882      287.25364     -1128.3482      1920.3708      0.9969611
    306000  -598.83757      113.66568     -712.50325      300.25574      2515.9211      1920.3708      0.9969611
    307000  -622.81548      113.87045     -736.68593      300.79666      818.10908      1920.3708      0.9969611
    308000  -609.92439      113.51729     -723.44168      299.86377     -1631.2425      1920.3708      0.9969611
    309000  -639.97208      100.21774     -740.18982      264.73209     -260.01356      1920.3708      0.9969611
    310000  -615.14688      111.76696     -726.91384      295.24016      1908.2233      1920.3708      0.9969611
    311000  -623.96417      101.85562     -725.81979      269.05866      3013.1882      1920.3708      0.9969611
    312000  -639.4597       96.20979      -735.66949      254.14481      2988.5318      1920.3708      0.9969611
    313000  -640.31787      112.15069     -752.46856      296.25379     -1291.2698      1920.3708      0.9969611
    314000  -620.98901      109.40072     -730.38973      288.98956      1792.9614      1920.3708      0.9969611
    315000  -612.80828      128.01578     -740.82406      338.16252      86.874572      1920.3708      0.9969611
    316000  -631.12159      122.56322     -753.68481      323.75921      927.59495      1920.3708      0.9969611
    317000  -633.66038      102.02311     -735.68349      269.50109     -124.96495      1920.3708      0.9969611
    318000  -621.53881      122.60926     -744.14807      323.88083     -1439.3272      1920.3708      0.9969611
    319000  -597.70824      125.03607     -722.74431      330.29142      1847.7703      1920.3708      0.9969611
    320000  -620.74939      102.11757     -722.86696      269.75062     -2634.836       1920.3708      0.9969611
    321000  -621.60744      138.27957     -759.88701      365.27503     -1496.2972      1920.3708      0.9969611
    322000  -637.12774      101.6517      -738.77944      268.51998     -1283.6982      1920.3708      0.9969611
    323000  -599.62665      127.13434     -726.76099      335.83415     -437.00152      1920.3708      0.9969611
    324000  -639.55463      115.59357     -755.1482       305.3484      -1693.6114      1920.3708      0.9969611
    325000  -638.80275      117.68362     -756.48637      310.86941      1087.2138      1920.3708      0.9969611
    326000  -647.30894      112.48998     -759.79892      297.15006     -1080.2644      1920.3708      0.9969611
    327000  -608.84979      108.33882     -717.18861      286.18448     -2524.1195      1920.3708      0.9969611
    328000  -628.98215      101.97018     -730.95233      269.36128     -2331.9083      1920.3708      0.9969611
    329000  -597.96747      113.32666     -711.29412      299.3602      -2136.1987      1920.3708      0.9969611
    330000  -622.13729      97.193846     -719.33114      256.74426     -1291.4579      1920.3708      0.9969611
    331000  -638.8384       105.24605     -744.08445      278.0147       1058.531       1920.3708      0.9969611
    332000  -612.96178      117.21303     -730.17481      309.62633     -1228.4266      1920.3708      0.9969611
    333000  -642.0224       96.021171     -738.04357      253.64656     -1802.8308      1920.3708      0.9969611
    334000  -619.35777      116.61577     -735.97354      308.04863     -3165.9523      1920.3708      0.9969611
    335000  -615.16406      104.70932     -719.87338      276.59689      740.46015      1920.3708      0.9969611
    336000  -641.20648      102.16557     -743.37205      269.87741     -1040.8771      1920.3708      0.9969611
    337000  -652.24301      110.11534     -762.35836      290.87729     -1515.7395      1920.3708      0.9969611
    338000  -631.39253      114.70784     -746.10037      303.00868     -180.81298      1920.3708      0.9969611
    339000  -611.63466      118.12826     -729.76292      312.04397     -2221.6234      1920.3708      0.9969611
    340000  -626.4757       104.45114     -730.92684      275.9149      -679.502        1920.3708      0.9969611
    341000  -611.78382      116.83101     -728.61483      308.61719      1079.8024      1920.3708      0.9969611
    342000  -635.41977      123.80231     -759.22209      327.03236      822.67612      1920.3708      0.9969611
    343000  -618.68851      119.47116     -738.15967      315.59132      703.52574      1920.3708      0.9969611
    344000  -628.41269      123.81025     -752.22294      327.05332     -309.03357      1920.3708      0.9969611
    345000  -667.78816      103.98228     -771.77044      274.67637      378.06781      1920.3708      0.9969611
    346000  -618.94356      120.70061     -739.64417      318.839        821.9888       1920.3708      0.9969611
    347000  -639.49477      103.62056     -743.11533      273.72087      1070.2729      1920.3708      0.9969611
    348000  -643.67516      94.900358     -738.57552      250.68586      2619.4571      1920.3708      0.9969611
    349000  -649.90697      108.67821     -758.58518      287.08101     -1375.3936      1920.3708      0.9969611
    350000  -613.52599      130.95316     -744.47915      345.92181      47.742412      1920.3708      0.9969611
    351000  -637.19584      100.38113     -737.57697      265.16368     -2489.3345      1920.3708      0.9969611
    352000  -593.15891      124.81198     -717.9709       329.69947     -193.91476      1920.3708      0.9969611
    353000  -614.57063      105.66712     -720.23774      279.12699      2948.7897      1920.3708      0.9969611
    354000  -632.78873      110.02474     -742.81348      290.63796      207.49533      1920.3708      0.9969611
    355000  -626.52913      107.46773     -733.99686      283.88344     -1489.5493      1920.3708      0.9969611
    356000  -639.5535       117.30101     -756.8545       309.85871      2756.3346      1920.3708      0.9969611
    357000  -642.00893      110.78019     -752.78912      292.63352      959.024        1920.3708      0.9969611
    358000  -655.15933      113.37166     -768.53099      299.47906      865.78992      1920.3708      0.9969611
    359000  -667.87953      103.69667     -771.5762       273.92192      1694.0403      1920.3708      0.9969611
    360000  -671.24153      88.998983     -760.24051      235.09696     -687.27121      1920.3708      0.9969611
    361000  -646.80613      119.48061     -766.28674      315.61629      2956.1549      1920.3708      0.9969611
    362000  -642.53478      97.112494     -739.64728      256.52937     -1738.4976      1920.3708      0.9969611
    363000  -592.03826      120.74107     -712.77934      318.94589     -592.81239      1920.3708      0.9969611
    364000  -612.06496      110.41545     -722.48041      291.67005     -2102.8145      1920.3708      0.9969611
    365000  -625.98691      111.92382     -737.91074      295.65452     -1357.4165      1920.3708      0.9969611
    366000  -623.95268      116.37671     -740.32939      307.41712     -1107.6731      1920.3708      0.9969611
    367000  -621.41971      96.795432     -718.21514      255.69182     -1358.521       1920.3708      0.9969611
    368000  -626.96527      105.55268     -732.51795      278.8247       2381.6666      1920.3708      0.9969611
    369000  -626.71641      120.3856      -747.102        318.00687     -128.56745      1920.3708      0.9969611
    370000  -632.6228       120.01214     -752.63493      317.02035      597.10325      1920.3708      0.9969611
    371000  -613.59099      129.40457     -742.99556      341.83112      1079.6785      1920.3708      0.9969611
    372000  -630.53653      109.08948     -739.62602      288.1674      -1911.2379      1920.3708      0.9969611
    373000  -635.36694      103.89004     -739.25698      274.43272      2961.9851      1920.3708      0.9969611
    374000  -645.58801      109.41191     -754.99992      289.01913      2543.7445      1920.3708      0.9969611
    375000  -610.59117      132.01329     -742.60446      348.72224      2671.4358      1920.3708      0.9969611
    376000  -627.33498      121.89767     -749.23265      322.00112     -1222.3104      1920.3708      0.9969611
    377000  -626.70994      106.87054     -733.58047      282.30591      2039.8528      1920.3708      0.9969611
    378000  -616.08713      119.28162     -735.36875      315.09064     -74.857755      1920.3708      0.9969611
    379000  -597.64261      133.5139      -731.15652      352.6862      -1874.3232      1920.3708      0.9969611
    380000  -626.14875      123.69942     -749.84817      326.76056      1360.0326      1920.3708      0.9969611
    381000  -645.85671      117.63206     -763.48877      310.73322     -966.30562      1920.3708      0.9969611
    382000  -629.69364      114.63519     -744.32884      302.81678     -986.99062      1920.3708      0.9969611
    383000  -625.48597      104.71069     -730.19666      276.60052      942.50726      1920.3708      0.9969611
    384000  -625.34971      115.96435     -741.31406      306.32785      2883.8058      1920.3708      0.9969611
    385000  -596.25571      135.23693     -731.49264      357.23769      321.10827      1920.3708      0.9969611
    386000  -635.02727      114.1559      -749.18317      301.5507       228.61837      1920.3708      0.9969611
    387000  -662.35934      110.40219     -772.76153      291.63502     -497.91132      1920.3708      0.9969611
    388000  -642.22006      124.70539     -766.92545      329.4179       1204.3319      1920.3708      0.9969611
    389000  -635.75326      104.79295     -740.5462       276.81781     -1410.3883      1920.3708      0.9969611
    390000  -629.07891      106.50191     -735.58082      281.33216     -1224.2492      1920.3708      0.9969611
    391000  -598.7523       120.12204     -718.87434      317.31067      280.08912      1920.3708      0.9969611
    392000  -624.73636      120.32547     -745.06183      317.84805     -207.91406      1920.3708      0.9969611
    393000  -640.33085      105.44297     -745.77382      278.53489      822.38276      1920.3708      0.9969611
    394000  -630.05378      98.423172     -728.47695      259.99161     -2.532196       1920.3708      0.9969611
    395000  -620.82909      120.30881     -741.1379       317.80405     -1074.1697      1920.3708      0.9969611
    396000  -595.72206      123.61407     -719.33613      326.53511     -2035.993       1920.3708      0.9969611
    397000  -640.55456      110.79912     -751.35367      292.68352      154.70433      1920.3708      0.9969611
    398000  -642.52541      122.3562      -764.88161      323.21235      89.489646      1920.3708      0.9969611
    399000  -611.84947      115.453       -727.30247      304.97709     -2651.1386      1920.3708      0.9969611
    400000  -637.99755      113.85993     -751.85748      300.76887      1139.1668      1920.3708      0.9969611
    401000  -621.66363      108.64746     -730.31109      286.99977      631.6158       1920.3708      0.9969611
    402000  -644.22375      103.49216     -747.71591      273.3817      -780.31132      1920.3708      0.9969611
    403000  -624.77504      108.16258     -732.93762      285.71894     -1033.621       1920.3708      0.9969611
    404000  -614.44406      113.15958     -727.60365      298.91885      1520.8801      1920.3708      0.9969611
    405000  -635.53511      116.62336     -752.15847      308.06865     -1617.7943      1920.3708      0.9969611
    406000  -626.64381      111.9721      -738.61591      295.78205     -1584.5003      1920.3708      0.9969611
    407000  -640.4729       112.45091     -752.92382      297.04686      3537.5998      1920.3708      0.9969611
    408000  -649.66727      115.27813     -764.94541      304.51515      2195.9887      1920.3708      0.9969611
    409000  -634.71183      105.61053     -740.32236      278.97752      3422.7517      1920.3708      0.9969611
    410000  -660.85716      107.50386     -768.36102      283.97888     -319.39055      1920.3708      0.9969611
    411000  -646.21812      106.25525     -752.47337      280.68058     -393.45329      1920.3708      0.9969611
    412000  -626.49066      119.84085     -746.33151      316.56789      693.7329       1920.3708      0.9969611
    413000  -637.68528      115.38892     -753.07421      304.80782     -1306.6686      1920.3708      0.9969611
    414000  -580.7191       131.19714     -711.91624      346.56631      2438.1755      1920.3708      0.9969611
    415000  -615.48336      118.27586     -733.75922      312.43386      2623.5273      1920.3708      0.9969611
    416000  -652.14129      108.53389     -760.67517      286.69976      357.80585      1920.3708      0.9969611
    417000  -619.52577      114.02711     -733.55288      301.21048      430.58459      1920.3708      0.9969611
    418000  -624.20451      114.10086     -738.30538      301.40532     -1740.6078      1920.3708      0.9969611
    419000  -631.7973       105.9031      -737.7004       279.75034     -1127.9453      1920.3708      0.9969611
    420000  -630.79932      116.86957     -747.66888      308.71904     -827.17993      1920.3708      0.9969611
    421000  -641.43402      113.07827     -754.51229      298.70407      702.02251      1920.3708      0.9969611
    422000  -632.14547      118.26033     -750.4058       312.39283     -1652.0471      1920.3708      0.9969611
    423000  -642.3877       115.71536     -758.10305      305.67011      1323.3835      1920.3708      0.9969611
    424000  -639.38477      114.60707     -753.99185      302.7425       3592.6323      1920.3708      0.9969611
    425000  -633.7902       106.65123     -740.44143      281.72659      1916.9803      1920.3708      0.9969611
    426000  -634.64688      111.08574     -745.73262      293.44067     -1918.0257      1920.3708      0.9969611
    427000  -644.4256       102.22848     -746.65408      270.0436       275.46186      1920.3708      0.9969611
    428000  -608.15418      103.46133     -711.61551      273.30025     -423.88723      1920.3708      0.9969611
    429000  -615.43172      115.02045     -730.45217      303.83447      2056.6011      1920.3708      0.9969611
    430000  -639.38937      98.847864     -738.23723      261.11346      1868.2415      1920.3708      0.9969611
    431000  -622.51478      122.32451     -744.83929      323.12864     -793.60875      1920.3708      0.9969611
    432000  -637.65674      116.73042     -754.38716      308.35146     -1103.2576      1920.3708      0.9969611
    433000  -633.4235       109.5873      -743.0108       289.48242     -448.66582      1920.3708      0.9969611
    434000  -625.88118      109.00247     -734.88364      287.93755     -1713.4455      1920.3708      0.9969611
    435000  -615.02743      118.13636     -733.16379      312.06536      2066.3282      1920.3708      0.9969611
    436000  -609.90905      121.14809     -731.05714      320.02104      1787.0822      1920.3708      0.9969611
    437000  -611.47851      111.34011     -722.81863      294.1126      -654.31164      1920.3708      0.9969611
    438000  -629.07569      121.00841     -750.0841       319.65208      2076.7825      1920.3708      0.9969611
    439000  -632.37404      104.10525     -736.47929      275.00121     -514.17213      1920.3708      0.9969611
    440000  -638.55309      110.93698     -749.49007      293.0477       544.24506      1920.3708      0.9969611
    441000  -623.40455      109.40102     -732.80558      288.99037     -618.37898      1920.3708      0.9969611
    442000  -625.47547      106.25343     -731.7289       280.67577     -475.19984      1920.3708      0.9969611
    443000  -619.83231      132.31967     -752.15198      349.53156     -90.599619      1920.3708      0.9969611
    444000  -641.12834      112.80723     -753.93557      297.9881      -2164.4511      1920.3708      0.9969611
    445000  -630.49314      120.02761     -750.52074      317.06122      207.22758      1920.3708      0.9969611
    446000  -610.9077       119.70104     -730.60874      316.19856     -529.01264      1920.3708      0.9969611
    447000  -636.12696      99.65394      -735.7809       263.24277      536.15317      1920.3708      0.9969611
    448000  -665.92441      95.574526     -761.49893      252.46672      4788.2248      1920.3708      0.9969611
    449000  -625.87184      108.93435     -734.8062       287.75762      1133.4264      1920.3708      0.9969611
    450000  -645.09782      115.68699     -760.78481      305.59518      58.424924      1920.3708      0.9969611
    451000  -629.28928      104.50875     -733.79803      276.06709     -2107.9673      1920.3708      0.9969611
    452000  -624.79042      124.54852     -749.33894      329.00353     -1832.095       1920.3708      0.9969611
    453000  -623.23185      113.48056     -736.71242      299.76675     -478.03252      1920.3708      0.9969611
    454000  -644.91527      110.20508     -755.12036      291.11434     -1324.8204      1920.3708      0.9969611
    455000  -619.55987      126.33843     -745.89831      333.7317       10.932586      1920.3708      0.9969611
    456000  -614.04654      117.08853     -731.13507      309.29745      2971.9418      1920.3708      0.9969611
    457000  -639.6828       103.85269     -743.53549      274.33406     -282.64148      1920.3708      0.9969611
    458000  -612.71492      104.70132     -717.41624      276.57578      421.31353      1920.3708      0.9969611
    459000  -618.00306      123.91176     -741.91482      327.32147     -216.78931      1920.3708      0.9969611
    460000  -639.78251      100.62261     -740.40512      265.80158     -1299.5533      1920.3708      0.9969611
    461000  -627.66091      106.13016     -733.79107      280.35016     -1408.2614      1920.3708      0.9969611
    462000  -625.48187      108.06255     -733.54442      285.45469     -1460.7139      1920.3708      0.9969611
    463000  -608.69248      112.36244     -721.05492      296.81314      3901.4497      1920.3708      0.9969611
    464000  -624.13443      110.77869     -734.91311      292.62956     -1712.4395      1920.3708      0.9969611
    465000  -623.93114      118.83382     -742.76496      313.90775      378.1543       1920.3708      0.9969611
    466000  -655.79428      98.2593       -754.05358      259.55873     -1878.9181      1920.3708      0.9969611
    467000  -637.79458      114.57181     -752.36639      302.64935      2678.9005      1920.3708      0.9969611
    468000  -641.64168      108.67993     -750.32161      287.08555      1086.8645      1920.3708      0.9969611
    469000  -615.67759      127.60367     -743.28126      337.07392     -1662.2032      1920.3708      0.9969611
    470000  -623.53083      122.18569     -745.71652      322.76194      2147.9053      1920.3708      0.9969611
    471000  -631.61183      114.63609     -746.24792      302.81916      637.99425      1920.3708      0.9969611
    472000  -634.85572      113.49422     -748.34995      299.80283     -845.73282      1920.3708      0.9969611
    473000  -653.69862      97.5974       -751.29602      257.81028     -544.39453      1920.3708      0.9969611
    474000  -647.72139      112.34792     -760.06931      296.7748       2466.073       1920.3708      0.9969611
    475000  -613.38971      123.5024      -736.89211      326.24013      1628.5886      1920.3708      0.9969611
    476000  -634.273        121.76495     -756.03795      321.65054      3537.2169      1920.3708      0.9969611
    477000  -615.55872      119.47003     -735.02876      315.58835      407.63262      1920.3708      0.9969611
    478000  -638.24751      110.07811     -748.32562      290.77893      960.13759      1920.3708      0.9969611
    479000  -623.15648      114.59582     -737.7523       302.71277     -487.63663      1920.3708      0.9969611
    480000  -630.87119      118.20746     -749.07865      312.25319      989.51754      1920.3708      0.9969611
    481000  -633.73449      116.058       -749.79249      306.57523      65.483297      1920.3708      0.9969611
    482000  -622.33283      121.22058     -743.55341      320.21255      1052.1491      1920.3708      0.9969611
    483000  -641.71029      101.8843      -743.59459      269.13441     -2356.3454      1920.3708      0.9969611
    484000  -615.73783      113.67868     -729.41651      300.29009     -162.77731      1920.3708      0.9969611
    485000  -624.49141      104.22755     -728.71896      275.32429     -471.1739       1920.3708      0.9969611
    486000  -620.29045      111.15105     -731.4415       293.61319      2479.7306      1920.3708      0.9969611
    487000  -607.7104       123.18051     -730.8909       325.38982      1929.0925      1920.3708      0.9969611
    488000  -645.41765      105.32501     -750.74266      278.22328     -1615.7109      1920.3708      0.9969611
    489000  -630.48236      104.0877      -734.57006      274.95485      1276.4694      1920.3708      0.9969611
    490000  -619.68979      115.02536     -734.71515      303.84744     -647.77222      1920.3708      0.9969611
    491000  -638.63614      121.12678     -759.76292      319.96475      1381.744       1920.3708      0.9969611
    492000  -647.94928      97.02202      -744.9713       256.29037     -1409.189       1920.3708      0.9969611
    493000  -626.121        116.17776     -742.29875      306.89158     -2500.6491      1920.3708      0.9969611
    494000  -621.28892      127.80666     -749.09558      337.61011      2041.6076      1920.3708      0.9969611
    495000  -660.2341       96.527503     -756.76161      254.98407     -1746.3647      1920.3708      0.9969611
    496000  -630.66207      110.57981     -741.24189      292.10422      322.70265      1920.3708      0.9969611
    497000  -622.93474      118.87824     -741.81298      314.02509      144.80219      1920.3708      0.9969611
    498000  -612.19518      108.81759     -721.01277      287.44918      470.73532      1920.3708      0.9969611
    499000  -630.31621      130.01599     -760.33219      343.44621      1166.269       1920.3708      0.9969611
    500000  -631.11895      116.2752      -747.39415      307.14899      1372.8029      1920.3708      0.9969611
    501000  -632.59123      110.72283     -743.31407      292.48202      154.28167      1920.3708      0.9969611
    502000  -621.71516      110.38838     -732.10353      291.59853      3009.6864      1920.3708      0.9969611
    503000  -644.4144       123.73094     -768.14534      326.84384      3216.0886      1920.3708      0.9969611
    504000  -623.92519      111.8923      -735.81748      295.57124     -1521.0828      1920.3708      0.9969611
    505000  -615.47679      112.79556     -728.27235      297.95726      202.79452      1920.3708      0.9969611
    506000  -629.39096      106.75455     -736.14551      281.99952     -716.59155      1920.3708      0.9969611
    507000  -623.64146      108.32275     -731.96421      286.14203     -1051.6883      1920.3708      0.9969611
    508000  -629.54794      119.11558     -748.66353      314.65205     -2195.7636      1920.3708      0.9969611
    509000  -610.94419      108.96174     -719.90594      287.82997     -38.265083      1920.3708      0.9969611
    510000  -609.54353      118.71289     -728.25642      313.5883       117.31174      1920.3708      0.9969611
    511000  -593.25175      128.39175     -721.6435       339.15568     -379.93957      1920.3708      0.9969611
    512000  -625.03509      117.25524     -742.29034      309.73782     -2145.2776      1920.3708      0.9969611
    513000  -637.61077      105.05414     -742.66491      277.50778     -253.43453      1920.3708      0.9969611
    514000  -626.22357      100.12062     -726.34419      264.47555      397.81172      1920.3708      0.9969611
    515000  -632.53511      112.10705     -744.64216      296.13853     -34.690067      1920.3708      0.9969611
    516000  -609.78888      124.0274      -733.81628      327.62696     -65.843501      1920.3708      0.9969611
    517000  -651.70643      94.237995     -745.94443      248.93618     -2072.0063      1920.3708      0.9969611
    518000  -615.1703       112.14262     -727.31292      296.23247     -290.35816      1920.3708      0.9969611
    519000  -634.5064       111.95149     -746.45789      295.72759     -2464.7882      1920.3708      0.9969611
    520000  -584.73611      121.62708     -706.36318      321.28633      2006.6754      1920.3708      0.9969611
    521000  -604.5874       124.6664      -729.2538       329.31491      2224.6453      1920.3708      0.9969611
    522000  -622.26705      109.81614     -732.08318      290.08691     -457.30955      1920.3708      0.9969611
    523000  -611.9472       125.67888     -737.62608      331.98944      1587.9402      1920.3708      0.9969611
    524000  -605.83064      119.60495     -725.43558      315.94474      421.57798      1920.3708      0.9969611
    525000  -648.06505      105.47334     -753.53839      278.6151      -622.91205      1920.3708      0.9969611
    526000  -610.84582      121.9098      -732.75562      322.03317     -1456.2521      1920.3708      0.9969611
    527000  -610.23304      121.80322     -732.03626      321.75161      1713.1003      1920.3708      0.9969611
    528000  -628.3884       115.33052     -743.71892      304.65355      1287.7243      1920.3708      0.9969611
    529000  -648.84428      104.26834     -753.11262      275.43202     -3433.8009      1920.3708      0.9969611
    530000  -628.4672       116.36132     -744.82851      307.37646      1361.8331      1920.3708      0.9969611
    531000  -640.75906      117.76749     -758.52654      311.09095      4428.3354      1920.3708      0.9969611
    532000  -617.81745      129.25129     -747.06874      341.42622     -554.13838      1920.3708      0.9969611
    533000  -636.36331      112.7989      -749.16222      297.9661       2123.1873      1920.3708      0.9969611
    534000  -628.54589      121.19376     -749.73965      320.14168      292.19781      1920.3708      0.9969611
    535000  -623.69283      124.52888     -748.22171      328.95164     -786.34254      1920.3708      0.9969611
    536000  -613.19673      123.89644     -737.09318      327.28102      493.79297      1920.3708      0.9969611
    537000  -644.13651      115.31447     -759.45097      304.61113      1973.1971      1920.3708      0.9969611
    538000  -608.54543      112.39203     -720.93746      296.89131      2826.9564      1920.3708      0.9969611
    539000  -618.8552       107.3994      -726.2546       283.70293     -1244.65        1920.3708      0.9969611
    540000  -637.97851      113.0845      -751.063        298.72052     -1361.5763      1920.3708      0.9969611
    541000  -644.13751      113.64312     -757.78063      300.19616     -52.61589       1920.3708      0.9969611
    542000  -634.88304      115.683       -750.56604      305.58463      320.92657      1920.3708      0.9969611
    543000  -625.71362      115.2114      -740.92503      304.33889      423.34939      1920.3708      0.9969611
    544000  -639.57658      103.92929     -743.50588      274.53641     -1566.5085      1920.3708      0.9969611
    545000  -653.31796      96.350311     -749.66827      254.516       -748.07826      1920.3708      0.9969611
    546000  -606.25124      124.27301     -730.52425      328.27574      2864.1635      1920.3708      0.9969611
    547000  -616.59607      118.20383     -734.7999       312.24359     -4608.2891      1920.3708      0.9969611
    548000  -651.01302      104.74519     -755.75821      276.69166      219.97237      1920.3708      0.9969611
    549000  -634.42013      107.68482     -742.10495      284.45689      454.45957      1920.3708      0.9969611
    550000  -636.33014      103.96257     -740.29272      274.62432     -1740.0383      1920.3708      0.9969611
    551000  -640.82179      118.84558     -759.66738      313.93882      168.79952      1920.3708      0.9969611
    552000  -636.19955      105.87991     -742.07946      279.68909     -922.33311      1920.3708      0.9969611
    553000  -611.24666      118.93266     -730.17932      314.16885      3947.3409      1920.3708      0.9969611
    554000  -624.19903      118.64256     -742.84159      313.40253      740.46701      1920.3708      0.9969611
    555000  -640.4293       100.21616     -740.64547      264.72792      584.19127      1920.3708      0.9969611
    556000  -640.9205       104.18443     -745.10494      275.21038     -1544.133       1920.3708      0.9969611
    557000  -637.55272      116.35032     -753.90304      307.3474      -59.747437      1920.3708      0.9969611
    558000  -628.6666       123.42472     -752.09133      326.03493      86.714433      1920.3708      0.9969611
    559000  -669.54269      96.529194     -766.07188      254.98854      3771.9086      1920.3708      0.9969611
    560000  -634.23427      113.75808     -747.99235      300.49982      501.17894      1920.3708      0.9969611
    561000  -616.75692      109.44678     -726.2037       289.11122      1454.2512      1920.3708      0.9969611
    562000  -644.50211      111.31244     -755.81455      294.03951      1063.2987      1920.3708      0.9969611
    563000  -636.15219      115.68575     -751.83794      305.5919       1196.5436      1920.3708      0.9969611
    564000  -617.24975      123.77291     -741.02266      326.95469     -3048.4032      1920.3708      0.9969611
    565000  -627.70679      118.98256     -746.68935      314.30066     -2002.0233      1920.3708      0.9969611
    566000  -622.2985       114.15815     -736.45665      301.55663      212.77405      1920.3708      0.9969611
    567000  -641.06695      115.58783     -756.65478      305.33323      675.06641      1920.3708      0.9969611
    568000  -587.904        129.07636     -716.98036      340.96412      1085.0776      1920.3708      0.9969611
    569000  -640.18226      107.43313     -747.61539      283.79203      103.86399      1920.3708      0.9969611
    570000  -654.78772      97.557712     -752.34543      257.70544      1389.2053      1920.3708      0.9969611
    571000  -646.34946      115.58793     -761.93739      305.33351     -2497.5662      1920.3708      0.9969611
    572000  -624.97076      113.63836     -738.60912      300.18358     -274.78393      1920.3708      0.9969611
    573000  -626.75907      112.89587     -739.65494      298.22225      551.19913      1920.3708      0.9969611
    574000  -628.84189      108.40925     -737.25114      286.37053     -133.75636      1920.3708      0.9969611
    575000  -602.94221      128.95446     -731.89668      340.64213     -681.52213      1920.3708      0.9969611
    576000  -645.5863       114.51265     -760.09894      302.49307      95.650957      1920.3708      0.9969611
    577000  -610.65956      122.6246      -733.28416      323.92135      929.96168      1920.3708      0.9969611
    578000  -629.81925      101.87543     -731.69468      269.11099      3192.435       1920.3708      0.9969611
    579000  -618.77891      108.72832     -727.50724      287.21338      2433.9876      1920.3708      0.9969611
    580000  -617.57276      111.40015     -728.97291      294.27121      2009.4875      1920.3708      0.9969611
    581000  -619.59071      111.94819     -731.5389       295.71888      188.14637      1920.3708      0.9969611
    582000  -661.95535      109.3291      -771.28444      288.80036     -808.34351      1920.3708      0.9969611
    583000  -648.81598      104.4153      -753.23128      275.82024     -569.44429      1920.3708      0.9969611
    584000  -622.87613      128.51752     -751.39365      339.48792      1934.8808      1920.3708      0.9969611
    585000  -624.76381      114.72757     -739.49138      303.06081      2874.0433      1920.3708      0.9969611
    586000  -622.28459      105.26902     -727.55361      278.0754      -262.11732      1920.3708      0.9969611
    587000  -615.97395      118.69096     -734.66491      313.53037      1915.8846      1920.3708      0.9969611
    588000  -614.2769       120.31315     -734.59005      317.81549      460.04024      1920.3708      0.9969611
    589000  -618.13705      108.72418     -726.86123      287.20244      3169.6303      1920.3708      0.9969611
    590000  -631.53739      105.08461     -736.622        277.58825     -392.28351      1920.3708      0.9969611
    591000  -642.38885      104.64366     -747.03251      276.42345      3430.8344      1920.3708      0.9969611
    592000  -616.37704      118.17696     -734.554        312.1726      -299.59633      1920.3708      0.9969611
    593000  -634.50122      105.85556     -740.35678      279.62477      1299.0947      1920.3708      0.9969611
    594000  -608.02847      128.90953     -736.938        340.52344      449.97228      1920.3708      0.9969611
    595000  -622.26395      107.7146      -729.97855      284.53556      479.37961      1920.3708      0.9969611
    596000  -629.57684      113.26892     -742.84575      299.20767      2071.5209      1920.3708      0.9969611
    597000  -641.77308      103.52438     -745.29746      273.46681      2168.7631      1920.3708      0.9969611
    598000  -617.97118      115.71362     -733.6848       305.66553     -1707.9899      1920.3708      0.9969611
    599000  -621.05468      110.49323     -731.54791      291.8755       1242.4008      1920.3708      0.9969611
    600000  -634.03772      105.40201     -739.43973      278.42669     -205.45346      1920.3708      0.9969611
    601000  -625.41382      123.90561     -749.31942      327.30522     -1064.9419      1920.3708      0.9969611
    602000  -645.62776      108.78051     -754.40827      287.35123     -2101.6554      1920.3708      0.9969611
    603000  -643.48611      114.56789     -758.05399      302.63899     -1222.6217      1920.3708      0.9969611
    604000  -609.72695      116.32386     -726.05081      307.27751     -659.73993      1920.3708      0.9969611
    605000  -634.28043      122.69073     -756.97115      324.09603      1779.5506      1920.3708      0.9969611
    606000  -610.76467      115.86477     -726.62943      306.06479     -2098.5532      1920.3708      0.9969611
    607000  -626.6342       120.9757      -747.6099       319.56567      631.88423      1920.3708      0.9969611
    608000  -636.35366      106.35319     -742.70685      280.9393      -2761.773       1920.3708      0.9969611
    609000  -620.13719      109.25706     -729.39425      288.61006      547.32625      1920.3708      0.9969611
    610000  -620.39887      113.11108     -733.50995      298.79074      2406.4415      1920.3708      0.9969611
    611000  -623.97751      117.49379     -741.4713       310.36797     -1750.1321      1920.3708      0.9969611
    612000  -634.38716      97.613234     -732.00039      257.8521      -1669.9637      1920.3708      0.9969611
    613000  -624.06182      110.45292     -734.51474      291.76902     -214.83603      1920.3708      0.9969611
    614000  -633.48638      109.60129     -743.08767      289.51938      536.50207      1920.3708      0.9969611
    615000  -610.80971      122.89375     -733.70346      324.63233      1611.4645      1920.3708      0.9969611
    616000  -639.52625      112.17623     -751.70248      296.32127      1537.422       1920.3708      0.9969611
    617000  -647.57657      110.45855     -758.03512      291.78389     -1273.6044      1920.3708      0.9969611
    618000  -625.08733      110.98082     -736.06815      293.16352      274.58557      1920.3708      0.9969611
    619000  -633.39414      103.73999     -737.13412      274.03634     -2657.2477      1920.3708      0.9969611
    620000  -607.07661      126.49198     -733.56859      334.13731      773.74892      1920.3708      0.9969611
    621000  -642.8821       113.92465     -756.80675      300.93983      395.30676      1920.3708      0.9969611
    622000  -655.16941      108.48327     -763.65268      286.56604      1092.1935      1920.3708      0.9969611
    623000  -630.71816      115.02686     -745.74502      303.8514       2102.7925      1920.3708      0.9969611
    624000  -653.24818      100.11127     -753.35944      264.45083      616.57648      1920.3708      0.9969611
    625000  -660.08741      88.722078     -748.80949      234.3655       438.56859      1920.3708      0.9969611
    626000  -615.8484       119.88063     -735.72904      316.67298     -1693.9298      1920.3708      0.9969611
    627000  -633.75238      113.63626     -747.38864      300.17803     -595.67347      1920.3708      0.9969611
    628000  -632.27358      118.31303     -750.58661      312.53204      234.37877      1920.3708      0.9969611
    629000  -657.98793      100.78567     -758.77359      266.23231      833.53565      1920.3708      0.9969611
    630000  -627.14652      113.82807     -740.97459      300.68472     -1199.4324      1920.3708      0.9969611
    631000  -626.34312      123.58548     -749.9286       326.45958     -252.76019      1920.3708      0.9969611
    632000  -649.36206      110.55507     -759.91713      292.03885     -2237.6889      1920.3708      0.9969611
    633000  -644.51893      104.62786     -749.14679      276.38172      22.047052      1920.3708      0.9969611
    634000  -627.25802      123.83141     -751.08943      327.10924      1319.0831      1920.3708      0.9969611
    635000  -650.18742      110.00873     -760.19615      290.59566     -222.64676      1920.3708      0.9969611
    636000  -624.57693      108.93192     -733.50885      287.7512       4842.5603      1920.3708      0.9969611
    637000  -606.45507      123.29331     -729.74838      325.6878       935.42209      1920.3708      0.9969611
    638000  -632.21502      108.29913     -740.51414      286.07963      1124.2239      1920.3708      0.9969611
    639000  -645.80028      108.97939     -754.77967      287.8766      -914.26173      1920.3708      0.9969611
    640000  -631.24679      110.45025     -741.69704      291.76196      1992.157       1920.3708      0.9969611
    641000  -650.49627      98.893777     -749.39005      261.23475     -592.01791      1920.3708      0.9969611
    642000  -635.6586       110.1663      -745.8249       291.0119       765.4216       1920.3708      0.9969611
    643000  -622.81136      106.57919     -729.39056      281.5363       1340.9691      1920.3708      0.9969611
    644000  -645.46272      104.32856     -749.79128      275.59111     -1981.7779      1920.3708      0.9969611
    645000  -669.18341      93.926979     -763.11039      248.11461     -1110.3853      1920.3708      0.9969611
    646000  -633.13525      117.01115     -750.1464       309.09305      1174.8962      1920.3708      0.9969611
    647000  -634.56163      114.56766     -749.12929      302.63838      720.77859      1920.3708      0.9969611
    648000  -626.24142      106.41201     -732.65344      281.09469     -593.34097      1920.3708      0.9969611
    649000  -609.89806      118.65413     -728.55219      313.43308     -35.137304      1920.3708      0.9969611
    650000  -619.54847      112.87867     -732.42715      298.17682      1518.9214      1920.3708      0.9969611
    651000  -631.68769      101.81681     -733.5045       268.95615     -1150.3322      1920.3708      0.9969611
    652000  -619.9317       111.15536     -731.08706      293.62457     -65.891064      1920.3708      0.9969611
    653000  -658.99599      101.3006      -760.29658      267.59252     -2015.5308      1920.3708      0.9969611
    654000  -629.33054      121.68512     -751.01566      321.43964     -3387.1987      1920.3708      0.9969611
    655000  -622.20136      110.48324     -732.6846       291.84911     -986.32226      1920.3708      0.9969611
    656000  -618.80128      109.17617     -727.97745      288.39641     -289.18191      1920.3708      0.9969611
    657000  -610.03044      114.99319     -725.02363      303.76246      67.2171        1920.3708      0.9969611
    658000  -647.47152      122.03753     -769.50905      322.37057     -3183.1848      1920.3708      0.9969611
    659000  -621.82473      106.38425     -728.20899      281.02135      2868.2035      1920.3708      0.9969611
    660000  -628.64755      118.26969     -746.91724      312.41757      397.08544      1920.3708      0.9969611
    661000  -646.17034      114.22665     -760.39699      301.73758      2434.621       1920.3708      0.9969611
    662000  -636.00173      113.07166     -749.0734       298.68662     -1199.4404      1920.3708      0.9969611
    663000  -626.54873      108.50252     -735.05124      286.6169       139.11936      1920.3708      0.9969611
    664000  -634.53984      102.8475      -737.38734      271.67878     -856.86971      1920.3708      0.9969611
    665000  -654.54525      109.1999      -763.74515      288.45908     -3386.8195      1920.3708      0.9969611
    666000  -639.30371      102.0086      -741.31231      269.46276     -1034.1789      1920.3708      0.9969611
    667000  -628.14057      121.12432     -749.26489      319.95827      441.31728      1920.3708      0.9969611
    668000  -601.22191      126.7139      -727.93581      334.72352     -1707.0395      1920.3708      0.9969611
    669000  -589.45048      116.78343     -706.23391      308.4915       2104.6186      1920.3708      0.9969611
    670000  -611.68587      114.07952     -725.76539      301.34894      1255.7948      1920.3708      0.9969611
    671000  -624.15543      121.40986     -745.56528      320.71252      1724.654       1920.3708      0.9969611
    672000  -651.82348      105.52467     -757.34815      278.7507      -2018.1553      1920.3708      0.9969611
    673000  -637.19769      114.85257     -752.05026      303.39101     -1006.7123      1920.3708      0.9969611
    674000  -604.26434      117.51221     -721.77655      310.41662      186.55127      1920.3708      0.9969611
    675000  -613.78653      128.10383     -741.89036      338.39512      77.34459       1920.3708      0.9969611
    676000  -637.16823      112.41313     -749.58137      296.94706     -796.74454      1920.3708      0.9969611
    677000  -611.88243      132.35184     -744.23427      349.61653      481.04484      1920.3708      0.9969611
    678000  -629.52476      102.67352     -732.19828      271.21919      1962.9259      1920.3708      0.9969611
    679000  -648.50221      106.8131      -755.31531      282.15418      797.42601      1920.3708      0.9969611
    680000  -637.28454      118.44209     -755.72664      312.87297      229.37384      1920.3708      0.9969611
    681000  -616.55811      111.26574     -727.82385      293.91614     -1380.0611      1920.3708      0.9969611
    682000  -631.34358      106.44636     -737.78995      281.18542     -559.62532      1920.3708      0.9969611
    683000  -637.59636      112.98417     -750.58053      298.45549      732.44083      1920.3708      0.9969611
    684000  -581.52707      126.59212     -708.11919      334.40183      1018.7265      1920.3708      0.9969611
    685000  -608.0009       115.04518     -723.04608      303.8998       1348.0666      1920.3708      0.9969611
    686000  -633.29219      107.71722     -741.00941      284.54248      762.03509      1920.3708      0.9969611
    687000  -594.95316      125.4226      -720.37576      331.31247     -735.4254       1920.3708      0.9969611
    688000  -609.676        108.43383     -718.10983      286.43545     -323.61441      1920.3708      0.9969611
    689000  -650.14427      97.659367     -747.80363      257.97397      1518.4104      1920.3708      0.9969611
    690000  -642.8841       110.6641      -753.5482       292.32686     -879.45337      1920.3708      0.9969611
    691000  -641.9137       103.88434     -745.79803      274.41766     -1592.8147      1920.3708      0.9969611
    692000  -636.16187      101.7231      -737.88497      268.70861      1340.2173      1920.3708      0.9969611
    693000  -633.28494      108.17814     -741.46308      285.76004     -909.51207      1920.3708      0.9969611
    694000  -646.79415      108.08457     -754.87872      285.51286      611.48394      1920.3708      0.9969611
    695000  -634.58278      106.01342     -740.5962       280.04178      843.43596      1920.3708      0.9969611
    696000  -612.20902      118.3331      -730.54212      312.58507     -857.97814      1920.3708      0.9969611
    697000  -642.87383      113.73251     -756.60634      300.43228      2902.8499      1920.3708      0.9969611
    698000  -618.26988      120.91679     -739.18667      319.41006     -266.97818      1920.3708      0.9969611
    699000  -627.42522      111.76412     -739.18934      295.23266      1433.3845      1920.3708      0.9969611
    700000  -597.59579      130.07293     -727.66872      343.59663      2233.8671      1920.3708      0.9969611
    701000  -636.25117      127.51068     -763.76185      336.82828      831.0217       1920.3708      0.9969611
    702000  -624.60305      105.78343     -730.38648      279.43425      945.61085      1920.3708      0.9969611
    703000  -617.36587      117.5757      -734.94157      310.58434     -233.95779      1920.3708      0.9969611
    704000  -646.65811      97.228218     -743.88633      256.83506     -1632.9824      1920.3708      0.9969611
    705000  -629.1527       118.27714     -747.42984      312.43723     -485.97019      1920.3708      0.9969611
    706000  -638.25489      109.47811     -747.733        289.19399      3695.0873      1920.3708      0.9969611
    707000  -609.00744      114.766       -723.77344      303.16231      1153.1993      1920.3708      0.9969611
    708000  -600.86852      117.19659     -718.06512      309.5829      -1751.7158      1920.3708      0.9969611
    709000  -612.04383      127.11163     -739.15545      335.77415     -1302.9155      1920.3708      0.9969611
    710000  -624.11922      109.84835     -733.96758      290.17201      1735.6673      1920.3708      0.9969611
    711000  -629.49142      107.39157     -736.88299      283.68226     -2353.6817      1920.3708      0.9969611
    712000  -621.2962       115.29684     -736.59305      304.56458     -1194.2804      1920.3708      0.9969611
    713000  -629.55281      111.77549     -741.3283       295.26268     -1675.2371      1920.3708      0.9969611
    714000  -603.61109      114.17634     -717.78743      301.60468     -2106.816       1920.3708      0.9969611
    715000  -619.46394      111.90568     -731.36962      295.60658      2918.4396      1920.3708      0.9969611
    716000  -627.87563      104.58992     -732.46554      276.28149     -2403.0911      1920.3708      0.9969611
    717000  -637.72255      104.59403     -742.31658      276.29236      18.835133      1920.3708      0.9969611
    718000  -629.31812      116.42314     -745.74126      307.53977      282.00789      1920.3708      0.9969611
    719000  -592.8577       122.71412     -715.57182      324.15783     -1579.3684      1920.3708      0.9969611
    720000  -644.93937      108.5488      -753.48817      286.73916      668.75505      1920.3708      0.9969611
    721000  -622.6352       118.97758     -741.61278      314.28751      957.25654      1920.3708      0.9969611
    722000  -618.02432      121.48367     -739.50799      320.90751      1040.0645      1920.3708      0.9969611
    723000  -625.74238      121.65379     -747.39617      321.35689     -2399.7109      1920.3708      0.9969611
    724000  -611.57385      103.76172     -715.33557      274.09374      1562.0799      1920.3708      0.9969611
    725000  -641.84507      100.41548     -742.26055      265.25442     -680.66339      1920.3708      0.9969611
    726000  -619.76178      107.72557     -727.48735      284.56453     -914.68421      1920.3708      0.9969611
    727000  -608.71284      120.6649      -729.37774      318.74468     -1353.7505      1920.3708      0.9969611
    728000  -634.57436      113.59593     -748.17029      300.0715      -268.27698      1920.3708      0.9969611
    729000  -629.62245      126.21234     -755.83479      333.39862     -590.17481      1920.3708      0.9969611
    730000  -628.76945      107.71596     -736.48541      284.53914      1799.6478      1920.3708      0.9969611
    731000  -645.57594      117.56016     -763.1361       310.54329      1616.4697      1920.3708      0.9969611
    732000  -650.66731      101.4991      -752.16641      268.11689      19.986203      1920.3708      0.9969611
    733000  -630.82058      111.08915     -741.90973      293.44968     -998.53313      1920.3708      0.9969611
    734000  -618.31823      116.13682     -734.45505      306.78343      786.07307      1920.3708      0.9969611
    735000  -589.59895      127.40906     -717.00801      336.55983      756.9648       1920.3708      0.9969611
    736000  -626.93073      110.22543     -737.15616      291.1681       1161.3581      1920.3708      0.9969611
    737000  -654.20022      104.33137     -758.53158      275.59851     -708.27343      1920.3708      0.9969611
    738000  -612.88979      111.32416     -724.21395      294.07046      2391.3493      1920.3708      0.9969611
    739000  -628.74287      122.7165      -751.45937      324.16412      2215.324       1920.3708      0.9969611
    740000  -614.28721      119.05658     -733.34379      314.49618     -3574.4518      1920.3708      0.9969611
    741000  -620.2265       114.11305     -734.33955      301.43752      2527.0829      1920.3708      0.9969611
    742000  -641.65343      110.69059     -752.34401      292.39683     -1614.2558      1920.3708      0.9969611
    743000  -645.47076      103.75934     -749.23009      274.08746      1306.2986      1920.3708      0.9969611
    744000  -639.77288      106.88591     -746.65879      282.34653     -80.336327      1920.3708      0.9969611
    745000  -651.0147       100.41222     -751.42693      265.24583     -1886.4608      1920.3708      0.9969611
    746000  -632.25749      106.71355     -738.97104      281.89123      2642.1814      1920.3708      0.9969611
    747000  -619.14715      129.18119     -748.32834      341.24105      159.14075      1920.3708      0.9969611
    748000  -648.40789      109.67402     -758.0819       289.7115       1464.6366      1920.3708      0.9969611
    749000  -609.38936      121.33663     -730.72599      320.51909      466.34488      1920.3708      0.9969611
    750000  -638.30035      110.99173     -749.29208      293.19233     -221.80776      1920.3708      0.9969611
    751000  -627.49103      123.40802     -750.89904      325.9908      -731.07756      1920.3708      0.9969611
    752000  -649.1037       110.03251     -759.13621      290.65848     -903.08471      1920.3708      0.9969611
    753000  -624.50429      109.30634     -733.81063      288.74024      1236.3429      1920.3708      0.9969611
    754000  -614.29784      127.15437     -741.45221      335.88706      1500.6507      1920.3708      0.9969611
    755000  -645.92838      117.93407     -763.86245      311.53099      4859.1086      1920.3708      0.9969611
    756000  -666.46293      103.89013     -770.35306      274.43295     -714.86128      1920.3708      0.9969611
    757000  -630.00621      106.55515     -736.56136      281.47279     -1222.7412      1920.3708      0.9969611
    758000  -657.25803      106.50186     -763.75989      281.33201      2362.2668      1920.3708      0.9969611
    759000  -625.83081      110.65525     -736.48606      292.30349     -261.071        1920.3708      0.9969611
    760000  -624.45588      103.85228     -728.30816      274.33297     -1174.1507      1920.3708      0.9969611
    761000  -646.78893      110.19894     -756.98787      291.09812      3200.8933      1920.3708      0.9969611
    762000  -621.35269      122.60655     -743.95924      323.87367      457.38922      1920.3708      0.9969611
    763000  -664.06675      96.513457     -760.5802       254.94697      1098.8557      1920.3708      0.9969611
    764000  -648.30578      117.37111     -765.67689      310.0439       1543.4956      1920.3708      0.9969611
    765000  -651.29512      104.08565     -755.38078      274.94945      873.19221      1920.3708      0.9969611
    766000  -625.46778      102.51032     -727.9781       270.78809     -2770.8333      1920.3708      0.9969611
    767000  -626.33982      118.63142     -744.97124      313.37309     -2576.6986      1920.3708      0.9969611
    768000  -646.67514      99.633981     -746.30912      263.19005     -2494.7972      1920.3708      0.9969611
    769000  -642.58077      109.42895     -752.00971      289.06413     -858.57752      1920.3708      0.9969611
    770000  -609.94695      119.6556      -729.60254      316.07853      954.66902      1920.3708      0.9969611
    771000  -636.21458      107.63066     -743.84524      284.31383      288.87391      1920.3708      0.9969611
    772000  -611.74754      115.21666     -726.9642       304.35278     -2272.5074      1920.3708      0.9969611
    773000  -637.52103      113.88381     -751.40485      300.83197     -563.37428      1920.3708      0.9969611
    774000  -633.32983      110.60751     -743.93733      292.17737      365.16372      1920.3708      0.9969611
    775000  -658.31587      115.61941     -773.93528      305.41667     -230.49064      1920.3708      0.9969611
    776000  -614.44051      105.76147     -720.20198      279.37624      296.29948      1920.3708      0.9969611
    777000  -642.35248      109.42257     -751.77506      289.04729      111.24332      1920.3708      0.9969611
    778000  -606.52925      116.05355     -722.58281      306.56348     -224.02442      1920.3708      0.9969611
    779000  -637.94525      113.38342     -751.32867      299.51014     -382.2371       1920.3708      0.9969611
    780000  -634.27938      102.17171     -736.45109      269.89364     -2897.6117      1920.3708      0.9969611
    781000  -606.6578       116.91798     -723.57578      308.84693      3946.6835      1920.3708      0.9969611
    782000  -602.65895      117.92352     -720.58247      311.50312      1910.4566      1920.3708      0.9969611
    783000  -649.65872      107.85799     -757.51671      284.91434     -856.06003      1920.3708      0.9969611
    784000  -638.0617       124.52235     -762.58405      328.93438     -4103.4869      1920.3708      0.9969611
    785000  -657.41504      99.40877      -756.82381      262.59514     -1753.1439      1920.3708      0.9969611
    786000  -622.02438      116.13285     -738.15723      306.77296      2553.0106      1920.3708      0.9969611
    787000  -642.55744      106.91244     -749.46988      282.4166       3831.7043      1920.3708      0.9969611
    788000  -627.08725      119.91862     -747.00587      316.77332     -215.05128      1920.3708      0.9969611
    789000  -644.50365      105.25588     -749.75952      278.04067     -2190.3395      1920.3708      0.9969611
    790000  -615.12143      128.55473     -743.67616      339.58621     -2025.9192      1920.3708      0.9969611
    791000  -635.24256      107.33423     -742.5768       283.5308       2389.65        1920.3708      0.9969611
    792000  -653.10098      104.31768     -757.41866      275.56236      2521.2896      1920.3708      0.9969611
    793000  -590.23923      124.19483     -714.43406      328.06922     -12.771995      1920.3708      0.9969611
    794000  -624.06547      108.62654     -732.69202      286.94452      1272.6773      1920.3708      0.9969611
    795000  -654.56603      112.1564      -766.72244      296.26889      1888.0343      1920.3708      0.9969611
    796000  -640.43105      115.99029     -756.42134      306.39636     -1134.6775      1920.3708      0.9969611
    797000  -645.19559      103.90847     -749.10406      274.48141      1092.4796      1920.3708      0.9969611
    798000  -620.94148      122.13552     -743.07699      322.62941      2528.6142      1920.3708      0.9969611
    799000  -621.99765      113.91318     -735.91083      300.90953      173.60605      1920.3708      0.9969611
    800000  -619.50141      115.0554      -734.55681      303.9268       2321.8535      1920.3708      0.9969611
    801000  -609.86536      118.43043     -728.29579      312.84215      1288.9407      1920.3708      0.9969611
    802000  -614.07696      124.01855     -738.09551      327.60357      923.50623      1920.3708      0.9969611
    803000  -631.71267      96.340035     -728.0527       254.48886      931.50818      1920.3708      0.9969611
    804000  -621.89976      120.0186      -741.91836      317.03742      492.67467      1920.3708      0.9969611
    805000  -632.16447      122.82408     -754.98855      324.44829      0.05728853     1920.3708      0.9969611
    806000  -597.95525      115.05674     -713.01198      303.93032     -581.32333      1920.3708      0.9969611
    807000  -610.94737      108.32581     -719.27318      286.15012      403.92521      1920.3708      0.9969611
    808000  -626.67079      114.68618     -741.35698      302.95148     -1732.2576      1920.3708      0.9969611
    809000  -622.66513      116.27423     -738.93936      307.14641      1268.7062      1920.3708      0.9969611
    810000  -598.12824      127.72134     -725.84958      337.38474      167.5912       1920.3708      0.9969611
    811000  -615.10596      112.9158      -728.02176      298.2749       546.21395      1920.3708      0.9969611
    812000  -630.59706      111.17071     -741.76777      293.66511      584.82981      1920.3708      0.9969611
    813000  -617.12165      111.51015     -728.6318       294.56178      2323.6125      1920.3708      0.9969611
    814000  -629.5884       108.18519     -737.77358      285.77864      218.94665      1920.3708      0.9969611
    815000  -645.97144      101.15123     -747.12266      267.19795      150.75799      1920.3708      0.9969611
    816000  -632.70147      105.18585     -737.88731      277.85568     -1155.5259      1920.3708      0.9969611
    817000  -641.73997      111.68348     -753.42345      295.01963     -390.05307      1920.3708      0.9969611
    818000  -651.30197      105.55743     -756.8594       278.83724      1486.4512      1920.3708      0.9969611
    819000  -642.61186      114.27053     -756.88239      301.8535       2570.1119      1920.3708      0.9969611
    820000  -649.77665      110.29034     -760.06699      291.33954     -1425.4962      1920.3708      0.9969611
    821000  -627.04623      112.55152     -739.59775      297.31261      238.35955      1920.3708      0.9969611
    822000  -624.58149      113.86874     -738.45023      300.79215     -620.39828      1920.3708      0.9969611
    823000  -635.02425      106.81756     -741.84182      282.16598     -3177.9547      1920.3708      0.9969611
    824000  -641.31444      101.05821     -742.37266      266.95226     -561.33302      1920.3708      0.9969611
    825000  -618.27715      105.3245      -723.60165      278.22195     -735.01798      1920.3708      0.9969611
    826000  -642.56018      97.487267     -740.04744      257.51935      2602.1526      1920.3708      0.9969611
    827000  -620.515        116.70337     -737.21838      308.28003     -1498.2865      1920.3708      0.9969611
    828000  -617.09597      105.37415     -722.47012      278.3531       2150.1507      1920.3708      0.9969611
    829000  -628.5979       125.28324     -753.88114      330.94433      695.38589      1920.3708      0.9969611
    830000  -634.79762      122.96657     -757.76419      324.82468     -1305.8468      1920.3708      0.9969611
    831000  -638.49692      107.34965     -745.84657      283.57153      1697.0667      1920.3708      0.9969611
    832000  -607.54209      112.39255     -719.93463      296.89268     -692.90881      1920.3708      0.9969611
    833000  -635.66021      107.09589     -742.7561       282.90118      1936.5744      1920.3708      0.9969611
    834000  -656.20809      101.5033      -757.71139      268.12799     -1089.2079      1920.3708      0.9969611
    835000  -642.46107      119.4221      -761.88317      315.46174     -657.91791      1920.3708      0.9969611
    836000  -638.80954      115.71138     -754.52092      305.65961      1845.2341      1920.3708      0.9969611
    837000  -639.5985       112.46812     -752.06662      297.0923       353.32513      1920.3708      0.9969611
    838000  -617.81393      118.41467     -736.2286       312.80054      2073.6759      1920.3708      0.9969611
    839000  -657.62441      102.66461     -760.28902      271.19567      266.30961      1920.3708      0.9969611
    840000  -626.5022       108.5094      -735.01159      286.63507     -442.8634       1920.3708      0.9969611
    841000  -649.54948      104.05903     -753.60851      274.87912      1508.7415      1920.3708      0.9969611
    842000  -660.21651      92.740648     -752.95715      244.98083     -396.37573      1920.3708      0.9969611
    843000  -618.29004      115.63778     -733.92781      305.46518     -1981.395       1920.3708      0.9969611
    844000  -634.60629      102.72148     -737.32777      271.34589     -1093.3505      1920.3708      0.9969611
    845000  -630.42533      115.32735     -745.75268      304.64517      875.34417      1920.3708      0.9969611
    846000  -639.28879      109.65453     -748.94332      289.66001     -229.42526      1920.3708      0.9969611
    847000  -625.90331      111.12259     -737.0259       293.53799      744.90654      1920.3708      0.9969611
    848000  -607.35853      123.68844     -731.04697      326.73156     -127.32262      1920.3708      0.9969611
    849000  -607.2742       124.63016     -731.90436      329.21918      2560.4611      1920.3708      0.9969611
    850000  -603.22011      118.95617     -722.17628      314.23095     -2103.87        1920.3708      0.9969611
    851000  -631.8858       107.08532     -738.97112      282.87327     -1294.9709      1920.3708      0.9969611
    852000  -625.16093      112.39324     -737.55417      296.89452      1369.7997      1920.3708      0.9969611
    853000  -639.4597       120.91167     -760.37137      319.39653      1210.076       1920.3708      0.9969611
    854000  -633.61297      110.89214     -744.50511      292.92924     -2870.3012      1920.3708      0.9969611
    855000  -608.37841      111.56917     -719.94758      294.71767     -1047.8251      1920.3708      0.9969611
    856000  -636.99137      111.37416     -748.36553      294.20253     -533.27983      1920.3708      0.9969611
    857000  -618.23185      126.07892     -744.31078      333.04619     -814.29303      1920.3708      0.9969611
    858000  -602.8209       118.09983     -720.92073      311.96886      728.75074      1920.3708      0.9969611
    859000  -620.26709      107.56474     -727.83183      284.13969      2459.7494      1920.3708      0.9969611
    860000  -607.64088      132.45448     -740.09536      349.88766      1715.9326      1920.3708      0.9969611
    861000  -648.28634      102.45476     -750.7411       270.64132     -915.67071      1920.3708      0.9969611
    862000  -649.04632      106.17882     -755.22514      280.47869     -2004.0753      1920.3708      0.9969611
    863000  -647.18071      101.67874     -748.85945      268.59143      731.98775      1920.3708      0.9969611
    864000  -637.65603      111.39959     -749.05562      294.26972      1991.4487      1920.3708      0.9969611
    865000  -646.47093      118.42789     -764.89883      312.83546      734.84661      1920.3708      0.9969611
    866000  -648.16505      106.67087     -754.83592      281.77847      664.25116      1920.3708      0.9969611
    867000  -629.48814      114.66797     -744.15611      302.90336      1826.1294      1920.3708      0.9969611
    868000  -646.00449      117.00492     -763.00941      309.07658      445.83012      1920.3708      0.9969611
    869000  -624.61304      113.0279      -737.64094      298.57102      421.43575      1920.3708      0.9969611
    870000  -616.53405      113.93452     -730.46857      300.96592      771.4867       1920.3708      0.9969611
    871000  -638.30332      99.923807     -738.22712      263.95564      2959.7845      1920.3708      0.9969611
    872000  -625.76634      108.33747     -734.10381      286.18091      1752.0249      1920.3708      0.9969611
    873000  -633.128        113.9711      -747.0991       301.06255     -1668.0292      1920.3708      0.9969611
    874000  -643.95894      106.85605     -750.81499      282.26764      3107.4256      1920.3708      0.9969611
    875000  -614.99442      123.56259     -738.55701      326.39912      879.29739      1920.3708      0.9969611
    876000  -614.05868      111.89821     -725.95688      295.58684     -22.946547      1920.3708      0.9969611
    877000  -647.35727      103.81252     -751.1698       274.22795     -79.742261      1920.3708      0.9969611
    878000  -635.43691      106.97771     -742.41462      282.58901     -40.442654      1920.3708      0.9969611
    879000  -617.35194      133.21548     -750.56741      351.89789     -182.95994      1920.3708      0.9969611
    880000  -636.34058      105.31231     -741.65289      278.18974      2426.6759      1920.3708      0.9969611
    881000  -626.01494      125.01266     -751.0276       330.22957      9.1340398      1920.3708      0.9969611
    882000  -653.59728      112.69989     -766.29717      297.70454      564.01426      1920.3708      0.9969611
    883000  -630.50163      117.67054     -748.17217      310.83487      877.66438      1920.3708      0.9969611
    884000  -648.059        113.74032     -761.79932      300.45292      1162.872       1920.3708      0.9969611
    885000  -635.63663      118.02968     -753.66631      311.78355      3333.5065      1920.3708      0.9969611
    886000  -632.62302      117.96381     -750.58683      311.60957     -782.77383      1920.3708      0.9969611
    887000  -637.96266      131.57354     -769.5362       347.5606       1755.7918      1920.3708      0.9969611
    888000  -629.21249      121.15843     -750.37092      320.04836      341.45663      1920.3708      0.9969611
    889000  -611.96471      125.31959     -737.2843       331.04036      3797.4755      1920.3708      0.9969611
    890000  -633.64833      109.16979     -742.81812      288.37955      1872.6742      1920.3708      0.9969611
    891000  -619.84326      106.37874     -726.222        281.0068      -134.54432      1920.3708      0.9969611
    892000  -647.85632      107.49368     -755.34999      283.95198     -224.52086      1920.3708      0.9969611
    893000  -606.70177      119.56654     -726.26831      315.84328      1724.117       1920.3708      0.9969611
    894000  -620.98972      109.21685     -730.20657      288.50384      673.81316      1920.3708      0.9969611
    895000  -622.52589      101.13484     -723.66073      267.15467      387.09973      1920.3708      0.9969611
    896000  -677.02437      94.649277     -771.67364      250.02261     -1546.2439      1920.3708      0.9969611
    897000  -631.14571      106.19063     -737.33633      280.50988      317.04372      1920.3708      0.9969611
    898000  -620.02289      113.50885     -733.53174      299.84147      1802.6638      1920.3708      0.9969611
    899000  -610.64564      129.69153     -740.33717      342.58913      1776.4361      1920.3708      0.9969611
    900000  -641.23635      112.41882     -753.65517      296.96209     -189.40738      1920.3708      0.9969611
    901000  -627.40088      106.19183     -733.59271      280.51305      1905.6902      1920.3708      0.9969611
    902000  -620.31338      124.84691     -745.16028      329.79173     -985.5749       1920.3708      0.9969611
    903000  -604.41644      119.89654     -724.31298      316.71499     -1228.7195      1920.3708      0.9969611
    904000  -638.29667      108.23962     -746.53629      285.92243     -171.5052       1920.3708      0.9969611
    905000  -642.87571      114.21778     -757.09349      301.71417     -1143.8769      1920.3708      0.9969611
    906000  -650.62395      109.55972     -760.18367      289.40957      2123.0721      1920.3708      0.9969611
    907000  -665.97227      103.90623     -769.87851      274.47549     -2707.3576      1920.3708      0.9969611
    908000  -639.4962       114.31063     -753.80683      301.95943     -598.88877      1920.3708      0.9969611
    909000  -666.36494      97.765241     -764.13018      258.25364      1621.1011      1920.3708      0.9969611
    910000  -634.03058      113.42929     -747.45988      299.63132      3284.7379      1920.3708      0.9969611
    911000  -638.87184      114.81671     -753.68855      303.29628      3865.142       1920.3708      0.9969611
    912000  -607.7542       114.45584     -722.21004      302.343        1577.9183      1920.3708      0.9969611
    913000  -640.24455      106.74221     -746.98677      281.96693     -1107.5864      1920.3708      0.9969611
    914000  -616.02912      120.30789     -736.337        317.80159     -3187.2518      1920.3708      0.9969611
    915000  -648.60732      104.49882     -753.10613      276.04084     -915.6004       1920.3708      0.9969611
    916000  -634.62123      108.82753     -743.44876      287.47545     -145.99332      1920.3708      0.9969611
    917000  -606.19486      116.76826     -722.96312      308.45142      3783.2517      1920.3708      0.9969611
    918000  -615.31735      116.42473     -731.74208      307.54396      1071.9019      1920.3708      0.9969611
    919000  -631.86428      111.90671     -743.77099      295.60931      1383.4374      1920.3708      0.9969611
    920000  -634.57734      119.76273     -754.34007      316.36152     -573.55648      1920.3708      0.9969611
    921000  -633.03644      112.90387     -745.94031      298.24338     -2569.8962      1920.3708      0.9969611
    922000  -640.94618      112.79587     -753.74204      297.95808     -1301.3368      1920.3708      0.9969611
    923000  -650.56738      106.26119     -756.82858      280.69629     -419.57173      1920.3708      0.9969611
    924000  -658.52557      116.89216     -775.41772      308.77871     -656.85717      1920.3708      0.9969611
    925000  -646.71589      109.08995     -755.80584      288.16864      3610.162       1920.3708      0.9969611
    926000  -628.01771      126.02814     -754.04585      332.91205     -220.99671      1920.3708      0.9969611
    927000  -654.47565      101.85807     -756.33372      269.06514     -173.16551      1920.3708      0.9969611
    928000  -638.5897       116.51229     -755.102        307.77527      4184.7039      1920.3708      0.9969611
    929000  -605.78151      115.67572     -721.45723      305.5654       1371.5704      1920.3708      0.9969611
    930000  -628.48051      115.5521      -744.03261      305.23885      978.13796      1920.3708      0.9969611
    931000  -642.06846      101.96123     -744.02969      269.33764     -490.76178      1920.3708      0.9969611
    932000  -642.39985      117.99417     -760.39402      311.68975      2739.6416      1920.3708      0.9969611
    933000  -629.93206      128.95582     -758.88789      340.64572      1738.3622      1920.3708      0.9969611
    934000  -663.75346      108.88828     -772.64173      287.63591      1865.036       1920.3708      0.9969611
    935000  -668.13013      99.441111     -767.57124      262.68057     -1139.1745      1920.3708      0.9969611
    936000  -636.50849      112.8633      -749.3718       298.13622     -1027.651       1920.3708      0.9969611
    937000  -625.76407      123.2053      -748.96937      325.45531      742.26973      1920.3708      0.9969611
    938000  -629.99974      113.92957     -743.9293       300.95283     -750.53631      1920.3708      0.9969611
    939000  -633.63693      108.61356     -742.25049      286.91022     -682.79931      1920.3708      0.9969611
    940000  -625.6494       106.37744     -732.02684      281.00335      1620.4566      1920.3708      0.9969611
    941000  -616.13676      128.50661     -744.64337      339.45909      446.30083      1920.3708      0.9969611
    942000  -623.77697      125.83225     -749.60922      332.39459     -2093.7233      1920.3708      0.9969611
    943000  -622.06412      110.91173     -732.97586      292.98101      1172.5626      1920.3708      0.9969611
    944000  -636.84344      94.31265      -731.15609      249.13338      3070.6947      1920.3708      0.9969611
    945000  -634.79397      114.65299     -749.44696      302.8638       1593.7637      1920.3708      0.9969611
    946000  -633.57         114.08501     -747.65502      301.36345     -288.18305      1920.3708      0.9969611
    947000  -647.40172      113.17147     -760.57319      298.95027     -189.59433      1920.3708      0.9969611
    948000  -633.29412      105.75971     -739.05382      279.37158      1706.7659      1920.3708      0.9969611
    949000  -658.92263      100.2788      -759.20143      264.89339      570.70091      1920.3708      0.9969611
    950000  -643.02911      114.55065     -757.57976      302.59345      805.84797      1920.3708      0.9969611
    951000  -612.69112      105.39198     -718.0831       278.40021     -346.03793      1920.3708      0.9969611
    952000  -636.89652      109.46469     -746.36122      289.15855      521.63096      1920.3708      0.9969611
    953000  -604.4064       114.7243      -719.1307       303.05217      4148.7767      1920.3708      0.9969611
    954000  -621.45944      108.02984     -729.48928      285.36828     -725.19339      1920.3708      0.9969611
    955000  -630.24232      102.23354     -732.47586      270.05696     -1276.4515      1920.3708      0.9969611
    956000  -616.86534      112.73301     -729.59835      297.79204     -2384.0999      1920.3708      0.9969611
    957000  -636.59666      116.48019     -753.07685      307.69048     -1002.4469      1920.3708      0.9969611
    958000  -632.07994      107.16031     -739.24025      283.07136     -1726.0426      1920.3708      0.9969611
    959000  -639.98863      105.06433     -745.05296      277.53469      189.11076      1920.3708      0.9969611
    960000  -615.98112      123.71284     -739.69397      326.79603     -1101.4101      1920.3708      0.9969611
    961000  -620.15505      113.7729      -733.92795      300.53897      960.43467      1920.3708      0.9969611
    962000  -632.80497      113.80952     -746.61449      300.63571     -1953.7378      1920.3708      0.9969611
    963000  -610.11762      122.23477     -732.3524       322.8916       1189.6509      1920.3708      0.9969611
    964000  -630.66411      115.17119     -745.8353       304.23266     -1729.1159      1920.3708      0.9969611
    965000  -636.20808      114.33625     -750.54433      302.0271      -78.807429      1920.3708      0.9969611
    966000  -636.52022      108.00942     -744.52964      285.31434      1372.8061      1920.3708      0.9969611
    967000  -602.7557       130.75337     -733.50907      345.39406      1531.6499      1920.3708      0.9969611
    968000  -637.33951      104.6078      -741.94732      276.32873     -1642.4203      1920.3708      0.9969611
    969000  -627.39333      101.14358     -728.53691      267.17776     -1431.756       1920.3708      0.9969611
    970000  -651.27743      101.75536     -753.03279      268.79383      1361.0023      1920.3708      0.9969611
    971000  -628.31563      119.30819     -747.62382      315.16083     -265.31272      1920.3708      0.9969611
    972000  -627.94949      106.86737     -734.81686      282.29755      2888.4963      1920.3708      0.9969611
    973000  -617.54946      120.08002     -737.62947      317.19966     -588.30758      1920.3708      0.9969611
    974000  -621.76806      112.67559     -734.44366      297.64036      1085.9729      1920.3708      0.9969611
    975000  -636.57034      100.27148     -736.84182      264.87405     -1525.1742      1920.3708      0.9969611
    976000  -631.24372      122.97216     -754.21588      324.83946      2120.4928      1920.3708      0.9969611
    977000  -638.0652       101.81472     -739.87992      268.95063      891.84007      1920.3708      0.9969611
    978000  -637.53228      109.22545     -746.75772      288.52656     -2192.585       1920.3708      0.9969611
    979000  -635.81972      108.52981     -744.34953      286.68899     -2469.4281      1920.3708      0.9969611
    980000  -636.88775      112.20608     -749.09383      296.40011     -411.99828      1920.3708      0.9969611
    981000  -628.81931      114.11298     -742.93229      301.43732     -1116.4002      1920.3708      0.9969611
    982000  -624.51505      111.57112     -736.08617      294.72281     -1032.0456      1920.3708      0.9969611
    983000  -613.53326      116.83124     -730.3645       308.61778      442.69743      1920.3708      0.9969611
    984000  -616.3392       116.30278     -732.64198      307.22184     -803.00624      1920.3708      0.9969611
    985000  -644.44978      112.19627     -756.64605      296.3742       395.3828       1920.3708      0.9969611
    986000  -630.78355      116.59372     -747.37727      307.99038      836.04964      1920.3708      0.9969611
    987000  -625.1094       109.7631      -734.8725       289.94681      375.93808      1920.3708      0.9969611
    988000  -631.84115      121.78207     -753.62322      321.69575      38.328639      1920.3708      0.9969611
    989000  -629.38692      120.99513     -750.38205      319.61701      122.58315      1920.3708      0.9969611
    990000  -642.82846      102.61257     -745.44103      271.0582      -1570.0761      1920.3708      0.9969611
    991000  -615.49328      122.0308      -737.52408      322.3528       2800.8109      1920.3708      0.9969611
    992000  -630.78327      102.17581     -732.95908      269.90445      1779.1419      1920.3708      0.9969611
    993000  -610.41444      124.99713     -735.41157      330.18856      1341.3035      1920.3708      0.9969611
    994000  -648.79682      105.84359     -754.64041      279.59315     -2106.4663      1920.3708      0.9969611
    995000  -621.48598      124.20023     -745.6862       328.08348      702.37357      1920.3708      0.9969611
    996000  -631.01338      116.76704     -747.78042      308.44821      954.85617      1920.3708      0.9969611
    997000  -613.49731      107.99079     -721.4881       285.26514     -352.0171       1920.3708      0.9969611
    998000  -621.82801      116.64927     -738.47728      308.13711     -727.89005      1920.3708      0.9969611
    999000  -647.36811      108.48718     -755.85529      286.57638     -943.32153      1920.3708      0.9969611
   1000000  -658.86008      99.367656     -758.22773      262.48653      508.52121      1920.3708      0.9969611
Loop time of 903.723 on 1 procs for 1000000 steps with 192 atoms

Performance: 95.605 ns/day, 0.251 hours/ns, 1106.534 timesteps/s
99.7% CPU use with 1 MPI tasks x 1 OpenMP threads

MPI task timing breakdown:
Section |  min time  |  avg time  |  max time  |%varavg| %total
---------------------------------------------------------------
Pair    | 725.16     | 725.16     | 725.16     |   0.0 | 80.24
Bond    | 0.055853   | 0.055853   | 0.055853   |   0.0 |  0.01
Kspace  | 114.16     | 114.16     | 114.16     |   0.0 | 12.63
Neigh   | 37.233     | 37.233     | 37.233     |   0.0 |  4.12
Comm    | 13.684     | 13.684     | 13.684     |   0.0 |  1.51
Output  | 0.23082    | 0.23082    | 0.23082    |   0.0 |  0.03
Modify  | 10.853     | 10.853     | 10.853     |   0.0 |  1.20
Other   |            | 2.341      |            |       |  0.26

Nlocal:            192 ave         192 max         192 min
Histogram: 1 0 0 0 0 0 0 0 0 0
Nghost:           4545 ave        4545 max        4545 min
Histogram: 1 0 0 0 0 0 0 0 0 0
Neighs:          69320 ave       69320 max       69320 min
Histogram: 1 0 0 0 0 0 0 0 0 0

Total # of neighbors = 69320
Ave neighs/atom = 361.04167
Ave special neighs/atom = 2
Neighbor list builds = 28762
Dangerous builds = 0
# write data file
write_data data.after_eq.lmp
System init for write_data ...
PPPM initialization ...
  using 12-bit tables for long-range coulomb (src/kspace.cpp:342)
  G vector (1/distance) = 0.31260513
  grid = 12 12 12
  stencil order = 5
  estimated absolute RMS force accuracy = 0.0021455329
  estimated relative force accuracy = 6.4612085e-06
  using double precision FFTW3
  3d grid and FFT values/proc = 6859 1728
Generated 1 of 1 mixed pair_coeff terms from geometric mixing rule

# clean up
undump dEQUI

# production
# 2 ns
dump dPROD all custom 1000 prod.lammpstrj id element xu yu zu
dump_modify dPROD element H O sort id
run 2000000
PPPM initialization ...
  using 12-bit tables for long-range coulomb (src/kspace.cpp:342)
  G vector (1/distance) = 0.31260513
  grid = 12 12 12
  stencil order = 5
  estimated absolute RMS force accuracy = 0.0021455329
  estimated relative force accuracy = 6.4612085e-06
  using double precision FFTW3
  3d grid and FFT values/proc = 6859 1728
Generated 1 of 1 mixed pair_coeff terms from geometric mixing rule
Per MPI rank memory allocation (min/avg/max) = 9.759 | 9.759 | 9.759 Mbytes
   Step         TotEng         KinEng         PotEng          Temp          Press          Volume        Density
   1000000  -658.86008      99.367656     -758.22773      262.48653      509.02775      1920.3708      0.9969611
   1001000  -617.39634      122.12301     -739.51935      322.59636     -2753.0613      1920.3708      0.9969611
   1002000  -616.88845      107.52463     -724.41308      284.03374      602.3592       1920.3708      0.9969611
   1003000  -641.2477       106.55397     -747.80167      281.46968      745.49806      1920.3708      0.9969611
   1004000  -632.3368       107.91661     -740.25342      285.06919     -1715.8437      1920.3708      0.9969611
   1005000  -627.18649      108.52377     -735.71027      286.67305      19.664359      1920.3708      0.9969611
   1006000  -639.04053      101.69496     -740.73549      268.63427     -1332.2447      1920.3708      0.9969611
   1007000  -635.81235      108.35043     -744.16278      286.21514     -2571.9756      1920.3708      0.9969611
   1008000  -587.66266      129.34082     -717.00347      341.6627      -1893.3905      1920.3708      0.9969611
   1009000  -631.76824      116.03598     -747.80422      306.51706     -916.50549      1920.3708      0.9969611
   1010000  -623.87382      106.46171     -730.33554      281.22598     -1384.9257      1920.3708      0.9969611
   1011000  -619.50062      117.5526      -737.05322      310.52331     -1093.7904      1920.3708      0.9969611
   1012000  -626.99077      111.60111     -738.59187      294.80204     -379.49489      1920.3708      0.9969611
   1013000  -634.3901       114.79067     -749.18077      303.22748      3128.0306      1920.3708      0.9969611
   1014000  -617.75803      121.65633     -739.41436      321.3636       89.012292      1920.3708      0.9969611
   1015000  -622.32535      111.70068     -734.02603      295.06506      454.6937       1920.3708      0.9969611
   1016000  -615.42764      124.97959     -740.40723      330.14221      2073.5859      1920.3708      0.9969611
   1017000  -644.22592      96.34706      -740.57298      254.50742     -1027.963       1920.3708      0.9969611
   1018000  -648.22875      112.32413     -760.55288      296.71196     -2019.2531      1920.3708      0.9969611
   1019000  -624.10389      125.85362     -749.95751      332.45103      273.28004      1920.3708      0.9969611
   1020000  -644.90308      117.14106     -762.04414      309.43621      1040.4315      1920.3708      0.9969611
   1021000  -619.58319      102.83867     -722.42186      271.65545      115.55398      1920.3708      0.9969611
   1022000  -638.18469      102.72188     -740.90657      271.34695     -28.333182      1920.3708      0.9969611
   1023000  -616.18904      118.94787     -735.13691      314.20903      3072.1216      1920.3708      0.9969611
   1024000  -629.06204      111.14397     -740.206        293.59447      621.63589      1920.3708      0.9969611
   1025000  -629.57208      108.38038     -737.95246      286.29427     -1579.8927      1920.3708      0.9969611
   1026000  -642.97876      104.49557     -747.47433      276.03227     -693.24128      1920.3708      0.9969611
   1027000  -624.13835      119.03914     -743.1775       314.45013      1390.5966      1920.3708      0.9969611
   1028000  -634.80247      105.59653     -740.39901      278.94054      218.14466      1920.3708      0.9969611
   1029000  -629.5021       117.11372     -746.61581      309.36397     -3246.0287      1920.3708      0.9969611
   1030000  -625.0674       123.50497     -748.57238      326.24692     -482.52211      1920.3708      0.9969611
   1031000  -617.81425      124.31788     -742.13212      328.39426      466.67494      1920.3708      0.9969611
   1032000  -643.20081      113.26193     -756.46275      299.18923     -1906.5654      1920.3708      0.9969611
   1033000  -646.95473      109.7963      -756.75103      290.03451      2033.2544      1920.3708      0.9969611
   1034000  -629.6652       122.3917      -752.05691      323.30614      1706.1078      1920.3708      0.9969611
   1035000  -648.46646      110.67849     -759.14494      292.36487     -4185.671       1920.3708      0.9969611
   1036000  -637.04563      119.58049     -756.62612      315.88013     -1888.1976      1920.3708      0.9969611
   1037000  -647.58779      111.52288     -759.11066      294.59539     -829.41083      1920.3708      0.9969611
   1038000  -645.70982      101.96062     -747.67044      269.33602      868.22334      1920.3708      0.9969611
   1039000  -611.52807      121.57424     -733.10231      321.14675      1056.6406      1920.3708      0.9969611
   1040000  -635.38702      106.03427     -741.42129      280.09685     -1877.2851      1920.3708      0.9969611
   1041000  -637.85114      111.6267      -749.47784      294.86964     -2164.9825      1920.3708      0.9969611
   1042000  -625.70093      109.39637     -735.0973       288.97808     -448.0051       1920.3708      0.9969611
   1043000  -625.17015      112.61113     -737.78128      297.47008      1885.5734      1920.3708      0.9969611
   1044000  -634.02602      103.6716      -737.69762      273.85569      3346.8297      1920.3708      0.9969611
   1045000  -595.0865       138.6758      -733.7623       366.32171     -389.81185      1920.3708      0.9969611
   1046000  -633.69009      112.49736     -746.18745      297.16956      284.06685      1920.3708      0.9969611
   1047000  -635.29453      112.62059     -747.91511      297.49506     -92.373194      1920.3708      0.9969611
   1048000  -627.76004      103.11586     -730.87589      272.38766     -56.62079       1920.3708      0.9969611
   1049000  -650.12622      103.86851     -753.99473      274.37584     -1085.825       1920.3708      0.9969611
   1050000  -647.59042      107.51611     -755.10653      284.01122     -1078.6213      1920.3708      0.9969611
   1051000  -632.62492      110.44208     -743.067        291.74038     -1467.1997      1920.3708      0.9969611
   1052000  -623.86414      112.96236     -736.82649      298.39787     -412.96413      1920.3708      0.9969611
   1053000  -644.97436      106.67899     -751.65335      281.79993     -413.10217      1920.3708      0.9969611
   1054000  -600.34609      116.65763     -717.00372      308.1592       603.88647      1920.3708      0.9969611
   1055000  -627.43384      102.97969     -730.41352      272.02796     -529.77631      1920.3708      0.9969611
   1056000  -629.45768      113.59084     -743.04851      300.05805     -1142.3132      1920.3708      0.9969611
   1057000  -598.4339       125.75485     -724.18875      332.19013     -1488.337       1920.3708      0.9969611
   1058000  -634.21491      116.55194     -750.76685      307.88001     -2325.6481      1920.3708      0.9969611
   1059000  -630.35269      118.06707     -748.41977      311.88234      1879.579       1920.3708      0.9969611
   1060000  -643.44314      105.38477     -748.82792      278.38117      450.2234       1920.3708      0.9969611
   1061000  -639.55466      104.33952     -743.89418      275.62004      1929.9747      1920.3708      0.9969611
   1062000  -642.51649      115.98297     -758.49946      306.37704     -1036.3925      1920.3708      0.9969611
   1063000  -653.92383      103.1039      -757.02773      272.35608     -2322.4709      1920.3708      0.9969611
   1064000  -624.55484      120.17359     -744.72843      317.44683      1050.0563      1920.3708      0.9969611
   1065000  -611.43561      104.45393     -715.88954      275.92227     -317.89797      1920.3708      0.9969611
   1066000  -634.24173      108.03581     -742.27755      285.38407     -3161.5002      1920.3708      0.9969611
   1067000  -620.60689      118.01942     -738.62632      311.75646      1542.4336      1920.3708      0.9969611
   1068000  -648.43107      101.52402     -749.95509      268.18271     -115.95716      1920.3708      0.9969611
   1069000  -615.44987      115.58031     -731.03019      305.31339     -434.38825      1920.3708      0.9969611
   1070000  -645.72413      114.27327     -759.9974       301.86073     -2160.3014      1920.3708      0.9969611
   1071000  -637.53939      111.24928     -748.78867      293.87266     -1208.0429      1920.3708      0.9969611
   1072000  -645.97721      103.66541     -749.64263      273.83936      518.19118      1920.3708      0.9969611
   1073000  -641.51574      104.77612     -746.29186      276.77337      1972.2915      1920.3708      0.9969611
   1074000  -613.94852      124.08218     -738.0307       327.77165      3028.6663      1920.3708      0.9969611
   1075000  -640.314        122.49428     -762.80828      323.5771       121.16493      1920.3708      0.9969611
   1076000  -634.16346      111.75021     -745.91367      295.1959      -696.07779      1920.3708      0.9969611
   1077000  -624.84034      110.79514     -735.63548      292.67303      2383.3236      1920.3708      0.9969611
   1078000  -627.48695      107.58174     -735.06868      284.1846       809.86678      1920.3708      0.9969611
   1079000  -626.97234      121.42411     -748.39645      320.75018      3112.6221      1920.3708      0.9969611
   1080000  -609.07783      117.58681     -726.66464      310.61369      265.67674      1920.3708      0.9969611
   1081000  -652.77604      107.65263     -760.42867      284.37187     -1076.3802      1920.3708      0.9969611
   1082000  -610.65662      118.97772     -729.63435      314.28788      672.42808      1920.3708      0.9969611
   1083000  -641.49967      108.95262     -750.4523       287.80588      1156.6136      1920.3708      0.9969611
   1084000  -640.66446      103.23206     -743.89652      272.69462     -200.83933      1920.3708      0.9969611
   1085000  -627.24178      113.43922     -740.681        299.65753      5229.8039      1920.3708      0.9969611
   1086000  -635.39225      105.65368     -741.04593      279.0915       1850.3577      1920.3708      0.9969611
   1087000  -640.29246      109.10789     -749.40035      288.21602     -1832.6145      1920.3708      0.9969611
   1088000  -611.56342      119.00895     -730.57237      314.37036     -992.92318      1920.3708      0.9969611
   1089000  -616.87667      116.04804     -732.92471      306.54891     -1260.9289      1920.3708      0.9969611
   1090000  -607.85125      113.67472     -721.52597      300.27964      2762.4         1920.3708      0.9969611
   1091000  -617.66766      102.74492     -720.41258      271.40779     -2474.7445      1920.3708      0.9969611
   1092000  -612.3243       114.8049      -727.1292       303.26508      40.069429      1920.3708      0.9969611
   1093000  -632.31945      103.74698     -736.06643      274.05483      571.79185      1920.3708      0.9969611
   1094000  -601.18174      115.65594     -716.83768      305.51316     -1058.8433      1920.3708      0.9969611
   1095000  -632.59846      107.29847     -739.89693      283.43632      2004.7089      1920.3708      0.9969611
   1096000  -645.68726      117.75309     -763.44035      311.05291     -508.90256      1920.3708      0.9969611
   1097000  -638.03113      116.65925     -754.69038      308.16348     -347.21988      1920.3708      0.9969611
   1098000  -613.64082      111.53632     -725.17714      294.6309       2691.4291      1920.3708      0.9969611
   1099000  -632.7937       96.331634     -729.12533      254.46667     -1504.3096      1920.3708      0.9969611
   1100000  -638.38026      118.38509     -756.76535      312.72238      3392.8002      1920.3708      0.9969611
   1101000  -638.0727       110.97594     -749.04864      293.15062      215.74408      1920.3708      0.9969611
   1102000  -630.27567      120.82814     -751.10381      319.17588      1973.9558      1920.3708      0.9969611
   1103000  -651.4703       102.85172     -754.32201      271.68992     -1278.0741      1920.3708      0.9969611
   1104000  -627.54974      112.93309     -740.48283      298.32056     -749.82356      1920.3708      0.9969611
   1105000  -628.91158      119.65736     -748.56894      316.08319      1812.2764      1920.3708      0.9969611
   1106000  -639.48939      115.69389     -755.18329      305.61341     -2100.9013      1920.3708      0.9969611
   1107000  -628.5845       109.5626      -738.14711      289.41719     -472.99001      1920.3708      0.9969611
   1108000  -618.72235      104.73379     -723.45615      276.66156      244.64436      1920.3708      0.9969611
   1109000  -601.21481      111.22551     -712.44032      293.80988      965.22586      1920.3708      0.9969611
   1110000  -646.44965      104.16428     -750.61392      275.15713      776.97793      1920.3708      0.9969611
   1111000  -629.00509      98.823182     -727.82828      261.04826     -334.29492      1920.3708      0.9969611
   1112000  -617.40737      98.301939     -715.70931      259.67136      638.69556      1920.3708      0.9969611
   1113000  -631.38607      113.84274     -745.22881      300.72347     -364.95148      1920.3708      0.9969611
   1114000  -586.28877      123.20281     -709.49159      325.44875      584.15987      1920.3708      0.9969611
   1115000  -601.15737      124.20807     -725.36545      328.10421      145.64037      1920.3708      0.9969611
   1116000  -626.12916      107.68013     -733.80929      284.44451      2908.99        1920.3708      0.9969611
   1117000  -643.9887       105.99468     -749.98338      279.99227      2376.7493      1920.3708      0.9969611
   1118000  -627.71317      109.64519     -737.35836      289.63535      1161.6192      1920.3708      0.9969611
   1119000  -603.3089       124.73297     -728.04188      329.49077      1639.7617      1920.3708      0.9969611
   1120000  -627.45443      114.50177     -741.9562       302.46433      87.513907      1920.3708      0.9969611
   1121000  -610.42131      117.81428     -728.23559      311.21457      1684.2832      1920.3708      0.9969611
   1122000  -648.10657      108.22356     -756.33013      285.88002      1579.7575      1920.3708      0.9969611
   1123000  -606.0565       120.86133     -726.91782      319.26354     -746.18899      1920.3708      0.9969611
   1124000  -596.43501      126.23887     -722.67387      333.4687       1510.1291      1920.3708      0.9969611
   1125000  -634.39543      117.06683     -751.46226      309.24013      1220.5615      1920.3708      0.9969611
   1126000  -621.80608      120.48048     -742.28656      318.25751      2392.6596      1920.3708      0.9969611
   1127000  -629.96296      109.24389     -739.20684      288.57528      1194.6437      1920.3708      0.9969611
   1128000  -627.00872      110.83406     -737.84277      292.77582     -3169.3163      1920.3708      0.9969611
   1129000  -637.39065      105.42405     -742.8147       278.48492      556.45981      1920.3708      0.9969611
   1130000  -614.29479      116.49439     -730.78918      307.72797     -1718.3082      1920.3708      0.9969611
   1131000  -627.57582      107.7601      -735.33592      284.65575      1345.9953      1920.3708      0.9969611
   1132000  -629.299        114.38443     -743.68343      302.15439      966.92557      1920.3708      0.9969611
   1133000  -636.94799      107.49738     -744.44537      283.96176      1624.9429      1920.3708      0.9969611
   1134000  -639.45507      105.39474     -744.84981      278.4075      -1269.2793      1920.3708      0.9969611
   1135000  -640.24614      118.58164     -758.82778      313.24159      2352.6009      1920.3708      0.9969611
   1136000  -613.33874      109.33913     -722.67788      288.82687      1596.5535      1920.3708      0.9969611
   1137000  -626.18229      110.69869     -736.88098      292.41825     -172.05565      1920.3708      0.9969611
   1138000  -648.23211      104.17369     -752.4058       275.18201     -2185.6617      1920.3708      0.9969611
   1139000  -623.77921      100.58317     -724.36238      265.69741      1730.192       1920.3708      0.9969611
   1140000  -657.64181      107.15872     -764.80053      283.06717      490.92693      1920.3708      0.9969611
   1141000  -652.22189      110.71506     -762.93696      292.46149     -331.95728      1920.3708      0.9969611
   1142000  -616.25873      124.66748     -740.92621      329.31777      1920.859       1920.3708      0.9969611
   1143000  -629.40112      116.62066     -746.02178      308.06154     -1467.1495      1920.3708      0.9969611
   1144000  -656.78703      106.69185     -763.47887      281.83389      710.95187      1920.3708      0.9969611
   1145000  -635.08201      111.88906     -746.97107      295.56269      433.2387       1920.3708      0.9969611
   1146000  -645.93174      113.90072     -759.83246      300.87664     -648.10246      1920.3708      0.9969611
   1147000  -662.90497      105.68501     -768.58998      279.17426     -3109.0449      1920.3708      0.9969611
   1148000  -633.47864      118.10451     -751.58316      311.98124     -2154.7067      1920.3708      0.9969611
   1149000  -627.01431      120.87503     -747.88933      319.29974     -390.72203      1920.3708      0.9969611
   1150000  -606.94433      112.82546     -719.76979      298.03624     -1018.0333      1920.3708      0.9969611
   1151000  -612.47117      115.82682     -728.29798      305.96454     -750.14099      1920.3708      0.9969611
   1152000  -616.10584      119.38054     -735.48638      315.35195      1783.5476      1920.3708      0.9969611
   1153000  -623.57976      108.71215     -732.29192      287.17066      1577.1429      1920.3708      0.9969611
   1154000  -630.98936      117.65842     -748.64778      310.80284     -1225.0543      1920.3708      0.9969611
   1155000  -635.63704      122.34037     -757.9774       323.17053      183.87383      1920.3708      0.9969611
   1156000  -635.55104      121.03262     -756.58366      319.71603      2293.5497      1920.3708      0.9969611
   1157000  -647.67948      105.72593     -753.40541      279.28236     -197.61365      1920.3708      0.9969611
   1158000  -613.15701      121.15889     -734.3159       320.04959     -788.07821      1920.3708      0.9969611
   1159000  -651.33236      105.85426     -757.18662      279.62136     -83.929363      1920.3708      0.9969611
   1160000  -614.82446      120.86068     -735.68514      319.26185     -1328.9005      1920.3708      0.9969611
   1161000  -639.37811      110.62891     -750.00702      292.23391     -295.60549      1920.3708      0.9969611
   1162000  -624.83098      117.47747     -742.30845      310.32486      342.9554       1920.3708      0.9969611
   1163000  -621.6313       124.07083     -745.70213      327.74166      1290.5059      1920.3708      0.9969611
   1164000  -620.78447      115.68041     -736.46488      305.57779      1826.8077      1920.3708      0.9969611
   1165000  -638.97221      120.98524     -759.95745      319.59088     -1771.8355      1920.3708      0.9969611
   1166000  -654.65948      104.91769     -759.57718      277.14733     -1024.2251      1920.3708      0.9969611
   1167000  -612.10296      119.72611     -731.82907      316.26479     -2492.7484      1920.3708      0.9969611
   1168000  -657.22204      111.15113     -768.37317      293.6134      -1782.7871      1920.3708      0.9969611
   1169000  -628.54597      110.51781     -739.06377      291.94042     -461.41259      1920.3708      0.9969611
   1170000  -598.96419      125.80908     -724.77327      332.33338     -72.694178      1920.3708      0.9969611
   1171000  -634.58668      110.41645     -745.00313      291.67268      3936.7213      1920.3708      0.9969611
   1172000  -623.58197      110.63991     -734.22188      292.26296      147.91922      1920.3708      0.9969611
   1173000  -630.98921      111.85397     -742.84318      295.46998     -1363.4569      1920.3708      0.9969611
   1174000  -646.08317      115.69204     -761.77521      305.60852     -491.78826      1920.3708      0.9969611
   1175000  -616.66605      116.20829     -732.87434      306.97224     -329.27081      1920.3708      0.9969611
   1176000  -616.01607      116.27068     -732.28676      307.13704      1273.1418      1920.3708      0.9969611
   1177000  -630.80612      107.09701     -737.90313      282.90415      3097.2696      1920.3708      0.9969611
   1178000  -606.25008      119.28444     -725.53452      315.09808      1532.9882      1920.3708      0.9969611
   1179000  -636.59554      120.08311     -756.67865      317.20783      325.04657      1920.3708      0.9969611
   1180000  -612.08654      124.28683     -736.37337      328.31225     -2043.7216      1920.3708      0.9969611
   1181000  -600.61265      127.90315     -728.51581      337.86502      256.46069      1920.3708      0.9969611
   1182000  -622.00297      113.53117     -735.53414      299.90042      311.06495      1920.3708      0.9969611
   1183000  -649.8962       106.06986     -755.96606      280.19088     -868.21691      1920.3708      0.9969611
   1184000  -627.32799      112.91508     -740.24307      298.27298     -532.88272      1920.3708      0.9969611
   1185000  -647.76255      100.81706     -748.57961      266.31523      790.28585      1920.3708      0.9969611
   1186000  -626.41813      126.64353     -753.06166      334.53763      52.760511      1920.3708      0.9969611
   1187000  -640.24763      107.44869     -747.69632      283.83314     -1255.2392      1920.3708      0.9969611
   1188000  -631.06512      108.24398     -739.3091       285.93396     -2329.6928      1920.3708      0.9969611
   1189000  -610.97741      123.79085     -734.76826      327.00209      803.75748      1920.3708      0.9969611
   1190000  -629.79287      102.74562     -732.5385       271.40966      1766.4631      1920.3708      0.9969611
   1191000  -632.79975      106.06778     -738.86754      280.18538      1636.0927      1920.3708      0.9969611
   1192000  -617.55409      113.8208      -731.37489      300.66551      3263.0573      1920.3708      0.9969611
   1193000  -633.52078      107.22378     -740.74456      283.23903     -453.82298      1920.3708      0.9969611
   1194000  -632.79711      121.1936      -753.99071      320.14127     -1404.8273      1920.3708      0.9969611
   1195000  -646.39257      111.17368     -757.56625      293.67297      1751.9247      1920.3708      0.9969611
   1196000  -653.45056      101.37488     -754.82544      267.78876     -3805.802       1920.3708      0.9969611
   1197000  -631.88733      118.48105     -750.36838      312.97588      630.94439      1920.3708      0.9969611
   1198000  -612.27228      130.569       -742.84128      344.90704     -449.55753      1920.3708      0.9969611
   1199000  -637.75679      108.69172     -746.44851      287.11669     -672.47309      1920.3708      0.9969611
   1200000  -611.67343      111.22109     -722.89451      293.79819      1493.2363      1920.3708      0.9969611
   1201000  -609.76087      123.29065     -733.05153      325.68079      863.50549      1920.3708      0.9969611
   1202000  -599.24431      125.54159     -724.7859       331.62679     -1331.0734      1920.3708      0.9969611
   1203000  -623.12201      134.06892     -757.19093      354.15232     -427.28343      1920.3708      0.9969611
   1204000  -621.39195      114.0111      -735.40305      301.1682      -746.83621      1920.3708      0.9969611
   1205000  -632.19314      110.35431     -742.54745      291.50854      1091.8021      1920.3708      0.9969611
   1206000  -606.81836      115.00775     -721.82611      303.80092      1176.0504      1920.3708      0.9969611
   1207000  -623.50178      116.99157     -740.49336      309.04133     -725.74475      1920.3708      0.9969611
   1208000  -632.35557      104.12162     -736.47719      275.04445      633.43756      1920.3708      0.9969611
   1209000  -626.53276      122.67673     -749.20949      324.05907      1001.9489      1920.3708      0.9969611
   1210000  -613.27473      122.04303     -735.31775      322.38509      845.24024      1920.3708      0.9969611
   1211000  -624.64536      117.21557     -741.86093      309.63302     -930.94507      1920.3708      0.9969611
   1212000  -612.69258      118.21895     -730.91153      312.28352      52.696386      1920.3708      0.9969611
   1213000  -627.62181      112.58584     -740.20765      297.40329      440.16334      1920.3708      0.9969611
   1214000  -627.31622      112.01479     -739.33102      295.89481      1674.4697      1920.3708      0.9969611
   1215000  -619.40352      107.96141     -727.36493      285.18752      3527.2998      1920.3708      0.9969611
   1216000  -637.00835      112.50134     -749.50969      297.18005      392.33488      1920.3708      0.9969611
   1217000  -618.54332      130.74659     -749.28991      345.37615     -1562.2689      1920.3708      0.9969611
   1218000  -612.67812      123.87335     -736.55146      327.22        -2009.6596      1920.3708      0.9969611
   1219000  -643.7007       107.15463     -750.85533      283.05636      1352.0794      1920.3708      0.9969611
   1220000  -602.60568      110.72471     -713.33039      292.48697     -498.43661      1920.3708      0.9969611
   1221000  -629.50308      124.4337      -753.93678      328.70021      1967.5863      1920.3708      0.9969611
   1222000  -604.90124      119.96099     -724.86223      316.88523     -1915.3284      1920.3708      0.9969611
   1223000  -631.9164       100.19916     -732.11555      264.683        926.86549      1920.3708      0.9969611
   1224000  -644.0806       87.10511      -731.18571      230.09417     -2373.41        1920.3708      0.9969611
   1225000  -624.10657      119.14997     -743.25655      314.74289      954.28992      1920.3708      0.9969611
   1226000  -628.05872      114.14666     -742.20538      301.52628      378.35323      1920.3708      0.9969611
   1227000  -642.1612       113.49606     -755.65726      299.8077      -353.95341      1920.3708      0.9969611
   1228000  -664.36138      105.73889     -770.10027      279.31659     -57.531394      1920.3708      0.9969611
   1229000  -624.56652      121.53536     -746.10187      321.04404      1204.7232      1920.3708      0.9969611
   1230000  -637.85995      103.65128     -741.51124      273.80203      525.05464      1920.3708      0.9969611
   1231000  -624.28114      124.24491     -748.52606      328.20153      1538.3948      1920.3708      0.9969611
   1232000  -650.82684      98.491684     -749.31852      260.17259      191.95396      1920.3708      0.9969611
   1233000  -652.2539       96.887704     -749.1416       255.93557     -211.54047      1920.3708      0.9969611
   1234000  -644.38735      111.96712     -756.35447      295.76889      458.68116      1920.3708      0.9969611
   1235000  -631.33906      115.40796     -746.74702      304.8581      -2011.0757      1920.3708      0.9969611
   1236000  -635.26772      114.46777     -749.73549      302.37452      3451.7895      1920.3708      0.9969611
   1237000  -645.8171       99.639797     -745.4569       263.20541     -710.94728      1920.3708      0.9969611
   1238000  -616.22668      112.2437      -728.47038      296.49948      675.52241      1920.3708      0.9969611
   1239000  -630.16569      108.53338     -738.69906      286.69841     -222.19951      1920.3708      0.9969611
   1240000  -640.61705      107.78952     -748.40657      284.73346      10.026513      1920.3708      0.9969611
   1241000  -631.606        106.75821     -738.36421      282.00919      125.71635      1920.3708      0.9969611
   1242000  -639.37614      120.22373     -759.59986      317.57928     -1283.6869      1920.3708      0.9969611
   1243000  -649.71277      106.31648     -756.02925      280.84233     -1252.843       1920.3708      0.9969611
   1244000  -625.44481      125.25059     -750.6954       330.85809      1688.3296      1920.3708      0.9969611
   1245000  -636.75217      128.87566     -765.62783      340.43396      2746.522       1920.3708      0.9969611
   1246000  -657.43323      100.72866     -758.16189      266.08171     -442.51968      1920.3708      0.9969611
   1247000  -642.87179      108.91573     -751.78752      287.70843      577.11584      1920.3708      0.9969611
   1248000  -644.24136      109.67369     -753.91505      289.71063      197.7517       1920.3708      0.9969611
   1249000  -629.96735      110.2285      -740.19585      291.17619     -10.190943      1920.3708      0.9969611
   1250000  -607.416        121.49773     -728.91373      320.94466     -1602.5365      1920.3708      0.9969611
   1251000  -633.73823      114.18161     -747.91983      301.6186       710.49509      1920.3708      0.9969611
   1252000  -679.22078      106.12431     -785.34509      280.3347       620.62579      1920.3708      0.9969611
   1253000  -632.96772      119.57214     -752.53986      315.85807      962.43514      1920.3708      0.9969611
   1254000  -613.09134      125.46363     -738.55497      331.42085      1120.6219      1920.3708      0.9969611
   1255000  -648.51581      104.92934     -753.44516      277.17811      858.38182      1920.3708      0.9969611
   1256000  -606.04475      122.52891     -728.57366      323.66859      953.73958      1920.3708      0.9969611
   1257000  -631.21133      102.66597     -733.8773       271.19925     -54.924716      1920.3708      0.9969611
   1258000  -628.3802       106.64255     -735.02276      281.70367     -57.815347      1920.3708      0.9969611
   1259000  -613.38783      114.49544     -727.88326      302.44761      671.53093      1920.3708      0.9969611
   1260000  -586.69776      125.91145     -712.60922      332.60381     -922.22976      1920.3708      0.9969611
   1261000  -631.62372      107.42286     -739.04659      283.76492     -1170.7456      1920.3708      0.9969611
   1262000  -605.95856      127.93751     -733.89607      337.95577      1630.9623      1920.3708      0.9969611
   1263000  -653.88119      100.26559     -754.14678      264.85849      1846.0043      1920.3708      0.9969611
   1264000  -618.45203      127.88548     -746.33751      337.81833      2310.9085      1920.3708      0.9969611
   1265000  -637.87219      112.11754     -749.98972      296.16622     -3123.6952      1920.3708      0.9969611
   1266000  -632.01907      122.10838     -754.12745      322.55772      2397.4637      1920.3708      0.9969611
   1267000  -646.59467      109.65388     -756.24855      289.65831      2608.3412      1920.3708      0.9969611
   1268000  -615.9781       95.152487     -711.13058      251.35187     -765.08607      1920.3708      0.9969611
   1269000  -622.34448      110.72369     -733.06817      292.48427      1425.363       1920.3708      0.9969611
   1270000  -644.19023      104.76574     -748.95597      276.74593      3375.3627      1920.3708      0.9969611
   1271000  -645.93237      105.47471     -751.40708      278.61874     -40.255574      1920.3708      0.9969611
   1272000  -634.26444      112.2433      -746.50774      296.49844     -784.68651      1920.3708      0.9969611
   1273000  -637.90184      110.439       -748.34084      291.73224      808.12137      1920.3708      0.9969611
   1274000  -635.14475      110.24519     -745.38994      291.2203      -1471.1402      1920.3708      0.9969611
   1275000  -615.41944      111.6236      -727.04305      294.86147      2494.5778      1920.3708      0.9969611
   1276000  -607.75364      119.28234     -727.03598      315.09254     -1860.404       1920.3708      0.9969611
   1277000  -601.4958       127.57197     -729.06777      336.99017      2203.3551      1920.3708      0.9969611
   1278000  -620.21716      105.99842     -726.21558      280.00216      531.23312      1920.3708      0.9969611
   1279000  -633.6108       114.82199     -748.43279      303.31021     -893.62926      1920.3708      0.9969611
   1280000  -619.68603      128.16637     -747.85239      338.56032      733.75017      1920.3708      0.9969611
   1281000  -614.55044      107.00502     -721.55546      282.66116      1276.8812      1920.3708      0.9969611
   1282000  -630.68337      111.37692     -742.06029      294.20982     -1532.5924      1920.3708      0.9969611
   1283000  -646.95216      111.14845     -758.10061      293.60632     -188.27095      1920.3708      0.9969611
   1284000  -638.14797      117.23176     -755.37973      309.67578      3444.0241      1920.3708      0.9969611
   1285000  -666.51208      103.39897     -769.91105      273.13552     -281.43648      1920.3708      0.9969611
   1286000  -640.76345      110.4911      -751.25455      291.86987      2112.7178      1920.3708      0.9969611
   1287000  -653.82509      104.25222     -758.07731      275.38944      1394.0336      1920.3708      0.9969611
   1288000  -620.63636      119.27798     -739.91434      315.08104      148.63231      1920.3708      0.9969611
   1289000  -634.09025      110.13105     -744.2213       290.91878     -1671.8308      1920.3708      0.9969611
   1290000  -642.20701      113.05293     -755.25994      298.63712      2551.0446      1920.3708      0.9969611
   1291000  -616.84545      123.25089     -740.09634      325.57574      2.2013227      1920.3708      0.9969611
   1292000  -625.73642      116.10137     -741.83779      306.68978      148.23536      1920.3708      0.9969611
   1293000  -614.37126      125.37256     -739.74382      331.18028      3328.9044      1920.3708      0.9969611
   1294000  -632.44047      104.09971     -736.54017      274.98657     -907.59816      1920.3708      0.9969611
   1295000  -626.95726      111.83153     -738.78879      295.41072     -402.38177      1920.3708      0.9969611
   1296000  -617.54525      110.93266     -728.47791      293.0363       3064.4307      1920.3708      0.9969611
   1297000  -626.52176      105.52819     -732.04995      278.76        -232.13188      1920.3708      0.9969611
   1298000  -609.63333      128.40705     -738.04038      339.19609     -988.70061      1920.3708      0.9969611
   1299000  -617.16626      115.87101     -733.03727      306.08129      1329.7336      1920.3708      0.9969611
   1300000  -635.83107      102.49108     -738.32215      270.73727     -24.225782      1920.3708      0.9969611
   1301000  -630.93852      111.10919     -742.04772      293.50261     -617.06907      1920.3708      0.9969611
   1302000  -600.19281      114.34959     -714.5424       302.06235      106.09898      1920.3708      0.9969611
   1303000  -618.79309      110.29377     -729.08686      291.34863      1608.8879      1920.3708      0.9969611
   1304000  -602.77545      125.06271     -727.83815      330.36178     -363.00495      1920.3708      0.9969611
   1305000  -629.1464       97.602771     -726.74917      257.82447      733.75379      1920.3708      0.9969611
   1306000  -634.77452      112.57235     -747.34686      297.36764      922.19966      1920.3708      0.9969611
   1307000  -648.21181      111.8888      -760.10061      295.562        261.31636      1920.3708      0.9969611
   1308000  -615.79613      114.62705     -730.42318      302.79528     -341.7037       1920.3708      0.9969611
   1309000  -633.5616       107.54625     -741.10784      284.09084      645.67846      1920.3708      0.9969611
   1310000  -613.60938      118.25156     -731.86094      312.36967      273.61128      1920.3708      0.9969611
   1311000  -624.35607      118.21293     -742.569        312.26763     -376.76808      1920.3708      0.9969611
   1312000  -614.7474       119.76344     -734.51084      316.36341     -2283.4756      1920.3708      0.9969611
   1313000  -610.22255      101.00469     -711.22725      266.81088     -2381.6723      1920.3708      0.9969611
   1314000  -677.49339      91.042195     -768.53559      240.49425     -2779.1493      1920.3708      0.9969611
   1315000  -625.64829      115.50713     -741.15543      305.12008     -2016.6997      1920.3708      0.9969611
   1316000  -654.57138      96.678408     -751.24979      255.3827       459.04209      1920.3708      0.9969611
   1317000  -645.62245      114.78279     -760.40524      303.20666     -1925.0362      1920.3708      0.9969611
   1318000  -627.35774      108.71108     -736.06883      287.16783      2616.5083      1920.3708      0.9969611
   1319000  -600.47433      124.09567     -724.57         327.80728     -114.4454       1920.3708      0.9969611
   1320000  -624.53382      124.37734     -748.91115      328.55133      802.81417      1920.3708      0.9969611
   1321000  -617.85801      114.28673     -732.14474      301.8963      -1587.7861      1920.3708      0.9969611
   1322000  -633.26194      112.91214     -746.17408      298.26522     -534.86786      1920.3708      0.9969611
   1323000  -630.47973      114.68584     -745.16557      302.95058      217.79344      1920.3708      0.9969611
   1324000  -678.0268       91.992064     -770.01886      243.00339     -422.85282      1920.3708      0.9969611
   1325000  -622.99831      117.93532     -740.93363      311.5343       1175.6756      1920.3708      0.9969611
   1326000  -615.66979      125.20314     -740.87293      330.73275      4925.6986      1920.3708      0.9969611
   1327000  -640.91545      110.01755     -750.93301      290.61897     -544.1114       1920.3708      0.9969611
   1328000  -634.77041      113.13937     -747.90978      298.86546     -320.15985      1920.3708      0.9969611
   1329000  -620.68696      101.63562     -722.32258      268.47751      2503.4334      1920.3708      0.9969611
   1330000  -642.66341      111.20944     -753.87284      293.76742      968.65         1920.3708      0.9969611
   1331000  -614.50021      106.20927     -720.70948      280.55912      210.24061      1920.3708      0.9969611
   1332000  -621.0057       112.79827     -733.80396      297.96441     -2875.0609      1920.3708      0.9969611
   1333000  -615.49145      112.47178     -727.96323      297.10198     -154.67862      1920.3708      0.9969611
   1334000  -622.34428      112.57225     -734.91653      297.36737      1215.1866      1920.3708      0.9969611
   1335000  -637.99505      111.82626     -749.82131      295.39679     -624.52938      1920.3708      0.9969611
   1336000  -626.27935      116.84601     -743.12537      308.65682     -829.63956      1920.3708      0.9969611
   1337000  -633.83349      110.46117     -744.29466      291.79081     -2080.2254      1920.3708      0.9969611
   1338000  -613.96164      125.25238     -739.21402      330.86282      425.78459      1920.3708      0.9969611
   1339000  -641.80207      104.00422     -745.80629      274.73433      1948.9845      1920.3708      0.9969611
   1340000  -619.89514      120.11842     -740.01355      317.3011      -3164.8383      1920.3708      0.9969611
   1341000  -646.43084      107.35235     -753.78319      283.57865      1243.3189      1920.3708      0.9969611
   1342000  -602.17317      125.87867     -728.05184      332.5172      -771.88301      1920.3708      0.9969611
   1343000  -638.83962      106.90831     -745.74793      282.40569      194.27291      1920.3708      0.9969611
   1344000  -625.11283      124.32584     -749.43867      328.41531     -1158.7288      1920.3708      0.9969611
   1345000  -661.24455      101.92692     -763.17148      269.24701      492.65106      1920.3708      0.9969611
   1346000  -632.37001      107.62822     -739.99822      284.30738      2245.7571      1920.3708      0.9969611
   1347000  -639.81268      111.30042     -751.1131       294.00776      766.01796      1920.3708      0.9969611
   1348000  -601.58524      113.58188     -715.16711      300.03438      871.04218      1920.3708      0.9969611
   1349000  -610.43739      114.99872     -725.43611      303.77707      433.73772      1920.3708      0.9969611
   1350000  -630.08326      114.78733     -744.87059      303.21867     -1604.8362      1920.3708      0.9969611
   1351000  -633.38683      101.35382     -734.74065      267.73313      410.57033      1920.3708      0.9969611
   1352000  -634.14374      111.04651     -745.19025      293.33702      247.70128      1920.3708      0.9969611
   1353000  -624.51371      115.70151     -740.21522      305.63355     -127.4181       1920.3708      0.9969611
   1354000  -643.31819      108.42752     -751.74571      286.41879     -12.308614      1920.3708      0.9969611
   1355000  -628.14837      116.00234     -744.15071      306.4282       2052.3056      1920.3708      0.9969611
   1356000  -591.55239      117.81608     -709.36847      311.21932      57.657907      1920.3708      0.9969611
   1357000  -633.27114      107.92298     -741.19412      285.08601     -641.45694      1920.3708      0.9969611
   1358000  -641.59829      102.59036     -744.18865      270.99954     -4202.2669      1920.3708      0.9969611
   1359000  -607.69758      114.2643      -721.96188      301.83704      1062.5463      1920.3708      0.9969611
   1360000  -632.79422      98.372996     -731.16722      259.85907      2059.0284      1920.3708      0.9969611
   1361000  -619.9644       118.80365     -738.76805      313.82805      1280.0342      1920.3708      0.9969611
   1362000  -645.1959       113.38471     -758.58061      299.51355     -1061.3678      1920.3708      0.9969611
   1363000  -651.70114      99.875787     -751.57693      263.82879      947.00463      1920.3708      0.9969611
   1364000  -645.46179      115.31671     -760.77849      304.61705     -205.33479      1920.3708      0.9969611
   1365000  -639.12605      100.70252     -739.82857      266.01266     -1116.8535      1920.3708      0.9969611
   1366000  -649.57672      99.333108     -748.90983      262.39527      1559.9254      1920.3708      0.9969611
   1367000  -612.71692      118.95167     -731.66859      314.21905     -1160.4942      1920.3708      0.9969611
   1368000  -613.85073      122.15119     -736.00192      322.67081     -1717.1111      1920.3708      0.9969611
   1369000  -629.21346      118.75777     -747.97123      313.70684     -892.03785      1920.3708      0.9969611
   1370000  -620.67144      104.56013     -725.23157      276.20282      1042.8009      1920.3708      0.9969611
   1371000  -616.6624       122.35629     -739.01869      323.2126      -845.54168      1920.3708      0.9969611
   1372000  -614.25679      126.7134      -740.97019      334.72219      1707.6806      1920.3708      0.9969611
   1373000  -621.58859      98.851299     -720.43989      261.12254      3179.1339      1920.3708      0.9969611
   1374000  -594.34872      119.01039     -713.35911      314.37417     -910.30845      1920.3708      0.9969611
   1375000  -637.18268      104.75842     -741.9411       276.72662     -1770.7606      1920.3708      0.9969611
   1376000  -642.80465      111.14122     -753.94586      293.58721     -1250.1133      1920.3708      0.9969611
   1377000  -644.08352      97.541843     -741.62536      257.66352     -184.74503      1920.3708      0.9969611
   1378000  -602.07089      103.57667     -705.64756      273.60493      962.93954      1920.3708      0.9969611
   1379000  -621.36076      132.08444     -753.44521      348.91019     -150.117        1920.3708      0.9969611
   1380000  -646.02614      103.60966     -749.6358       273.69207      237.12143      1920.3708      0.9969611
   1381000  -620.70162      121.00033     -741.70195      319.63074     -1009.0089      1920.3708      0.9969611
   1382000  -656.09128      101.66295     -757.75423      268.54971     -743.4104       1920.3708      0.9969611
   1383000  -627.88846      122.57861     -750.46706      323.79986     -673.19084      1920.3708      0.9969611
   1384000  -620.82658      112.29066     -733.11724      296.62354      2100.6352      1920.3708      0.9969611
   1385000  -607.08043      116.54572     -723.62615      307.86359      2177.0652      1920.3708      0.9969611
   1386000  -606.14915      136.21507     -742.36422      359.82152     -1427.4904      1920.3708      0.9969611
   1387000  -634.39549      108.94187     -743.33736      287.77749      1481.5712      1920.3708      0.9969611
   1388000  -629.92131      112.26217     -742.18349      296.54829      2825.2411      1920.3708      0.9969611
   1389000  -641.26178      109.46525     -750.72703      289.16004      1057.7763      1920.3708      0.9969611
   1390000  -620.42788      116.16351     -736.59139      306.85394      1010.0169      1920.3708      0.9969611
   1391000  -626.39183      106.08724     -732.47907      280.23677      288.44857      1920.3708      0.9969611
   1392000  -637.29133      107.67488     -744.96621      284.43063     -964.69935      1920.3708      0.9969611
   1393000  -643.03049      103.41475     -746.44523      273.1772      -296.56503      1920.3708      0.9969611
   1394000  -615.37986      110.89917     -726.27903      292.94782     -747.69605      1920.3708      0.9969611
   1395000  -629.61517      102.47717     -732.09234      270.70053      987.11585      1920.3708      0.9969611
   1396000  -598.65336      117.09208     -715.74544      309.30683     -130.67676      1920.3708      0.9969611
   1397000  -646.51429      104.49175     -751.00604      276.02219      462.72228      1920.3708      0.9969611
   1398000  -606.80865      118.26442     -725.07307      312.40364      666.44334      1920.3708      0.9969611
   1399000  -632.07911      98.714063     -730.79317      260.76002      605.29804      1920.3708      0.9969611
   1400000  -619.43498      120.62594     -740.06092      318.64175      749.81003      1920.3708      0.9969611
   1401000  -619.95971      122.92759     -742.8873       324.72171     -432.49455      1920.3708      0.9969611
   1402000  -642.71594      115.1819      -757.89784      304.26094     -671.00899      1920.3708      0.9969611
   1403000  -640.35976      107.98842     -748.34818      285.25888      57.651466      1920.3708      0.9969611
   1404000  -669.10002      106.22194     -775.32195      280.59259     -332.14659      1920.3708      0.9969611
   1405000  -646.95894      117.2783      -764.23724      309.79874     -34.794163      1920.3708      0.9969611
   1406000  -652.65841      102.50787     -755.16628      270.78163      1773.156       1920.3708      0.9969611
   1407000  -626.62811      115.23963     -741.86774      304.41345      5595.1376      1920.3708      0.9969611
   1408000  -598.05163      129.41325     -727.46488      341.85405     -374.63834      1920.3708      0.9969611
   1409000  -633.76699      106.42956     -740.19655      281.14104      352.78228      1920.3708      0.9969611
   1410000  -646.50303      99.944557     -746.44759      264.01046     -1914.1787      1920.3708      0.9969611
   1411000  -598.31607      121.7727      -720.08877      321.671       -199.13893      1920.3708      0.9969611
   1412000  -641.96471      116.55551     -758.52022      307.88943      2086.4439      1920.3708      0.9969611
   1413000  -653.18029      99.560801     -752.74109      262.99674     -476.36806      1920.3708      0.9969611
   1414000  -634.91511      111.23026     -746.14537      293.82242      599.38666      1920.3708      0.9969611
   1415000  -629.29384      115.52238     -744.81623      305.16036     -513.04397      1920.3708      0.9969611
   1416000  -627.40414      117.56967     -744.97381      310.56842     -663.27335      1920.3708      0.9969611
   1417000  -619.95658      111.3987      -731.35529      294.26737     -620.61198      1920.3708      0.9969611
   1418000  -626.9511       116.68044     -743.63154      308.21945      1520.5633      1920.3708      0.9969611
   1419000  -633.68551      109.31033     -742.99583      288.75078     -1339.0103      1920.3708      0.9969611
   1420000  -650.14965      119.08567     -769.23532      314.57304      482.56009      1920.3708      0.9969611
   1421000  -631.95734      114.61858     -746.57592      302.77291     -369.63637      1920.3708      0.9969611
   1422000  -659.43263      98.146446     -757.57908      259.26062      1503.6554      1920.3708      0.9969611
   1423000  -638.71986      109.58025     -748.30011      289.4638      -3057.2332      1920.3708      0.9969611
   1424000  -621.0706       105.92954     -727.00014      279.8202      -723.44715      1920.3708      0.9969611
   1425000  -637.91312      108.34072     -746.25385      286.18951     -2633.7849      1920.3708      0.9969611
   1426000  -618.31492      119.82719     -738.1421       316.53179      870.91211      1920.3708      0.9969611
   1427000  -641.58613      111.98026     -753.56639      295.80358     -2176.2653      1920.3708      0.9969611
   1428000  -619.98469      125.07064     -745.05533      330.38273      1529.7566      1920.3708      0.9969611
   1429000  -635.71449      121.94723     -757.66172      322.13204     -1703.3544      1920.3708      0.9969611
   1430000  -646.7799       108.30638     -755.08628      286.09879     -485.92368      1920.3708      0.9969611
   1431000  -624.15472      115.41613     -739.57085      304.87967      243.08085      1920.3708      0.9969611
   1432000  -605.73575      114.6165      -720.35225      302.7674      -2450.7431      1920.3708      0.9969611
   1433000  -625.14784      115.55258     -740.70042      305.24014      777.64296      1920.3708      0.9969611
   1434000  -612.96841      122.77464     -735.74305      324.3177      -1074.2455      1920.3708      0.9969611
   1435000  -631.59516      112.83587     -744.43103      298.06375      3120.2357      1920.3708      0.9969611
   1436000  -635.00494      118.40405     -753.409        312.77248      131.42307      1920.3708      0.9969611
   1437000  -596.64463      130.08774     -726.73236      343.63575      934.29844      1920.3708      0.9969611
   1438000  -616.77113      114.16963     -730.94076      301.58696      1801.2463      1920.3708      0.9969611
   1439000  -634.25274      110.21567     -744.46841      291.1423      -3405.3212      1920.3708      0.9969611
   1440000  -652.31677      98.646382     -750.96315      260.58124     -1867.6239      1920.3708      0.9969611
   1441000  -620.89913      108.73542     -729.63455      287.23213     -52.269656      1920.3708      0.9969611
   1442000  -629.44495      110.99237     -740.43732      293.19401      502.64252      1920.3708      0.9969611
   1443000  -654.17928      97.32714      -751.50642      257.09637      4650.4368      1920.3708      0.9969611
   1444000  -657.06617      112.99135     -770.05752      298.47447      389.80672      1920.3708      0.9969611
   1445000  -609.89102      113.30644     -723.19747      299.3068      -427.64214      1920.3708      0.9969611
   1446000  -645.20837      112.03854     -757.24692      295.95756     -1748.2587      1920.3708      0.9969611
   1447000  -613.31947      122.67726     -735.99672      324.06045     -161.17316      1920.3708      0.9969611
   1448000  -637.97076      119.60857     -757.57933      315.95431      3457.1493      1920.3708      0.9969611
   1449000  -633.19667      113.71407     -746.91074      300.38358     -555.94627      1920.3708      0.9969611
   1450000  -627.64789      119.89558     -747.54347      316.71247      1508.3355      1920.3708      0.9969611
   1451000  -653.87368      124.65778     -778.53146      329.29214     -1614.6233      1920.3708      0.9969611
   1452000  -638.76391      107.76369     -746.5276       284.66525     -233.80196      1920.3708      0.9969611
   1453000  -651.60002      111.81984     -763.41986      295.37984     -298.1496       1920.3708      0.9969611
   1454000  -638.12661      118.00307     -756.12968      311.71327      2438.6734      1920.3708      0.9969611
   1455000  -646.90928      108.76118     -755.67046      287.30016     -387.24076      1920.3708      0.9969611
   1456000  -623.79435      132.68158     -756.47593      350.48756      1220.3014      1920.3708      0.9969611
   1457000  -660.6558       102.2836      -762.9394       270.1892       657.20987      1920.3708      0.9969611
   1458000  -619.73525      118.33049     -738.06575      312.57817     -1174.6225      1920.3708      0.9969611
   1459000  -621.55555      122.10975     -743.6653       322.56136      920.00901      1920.3708      0.9969611
   1460000  -659.86199      110.99372     -770.85571      293.19759     -1182.4907      1920.3708      0.9969611
   1461000  -638.38512      106.66236     -745.04748      281.756       -2026.199       1920.3708      0.9969611
   1462000  -632.07604      112.34071     -744.41675      296.75576     -2.9279794      1920.3708      0.9969611
   1463000  -619.2873       110.56062     -729.84791      292.05351      459.90024      1920.3708      0.9969611
   1464000  -630.37826      121.1872      -751.56545      320.12435      489.38229      1920.3708      0.9969611
   1465000  -601.18351      127.27622     -728.45973      336.20892      371.01544      1920.3708      0.9969611
   1466000  -642.53937      98.882333     -741.4217       261.20452      1490.8267      1920.3708      0.9969611
   1467000  -653.38679      98.61387      -752.00066      260.49535      340.74397      1920.3708      0.9969611
   1468000  -631.66778      122.30197     -753.96976      323.06912     -410.43343      1920.3708      0.9969611
   1469000  -623.67976      114.10883     -737.78859      301.42635      1172.8186      1920.3708      0.9969611
   1470000  -651.98816      100.73021     -752.71837      266.08581      1086.6588      1920.3708      0.9969611
   1471000  -608.76035      131.68142     -740.44177      347.84556     -434.61937      1920.3708      0.9969611
   1472000  -654.59461      103.16285     -757.75746      272.51181     -1665.302       1920.3708      0.9969611
   1473000  -631.61906      115.9037      -747.52276      306.16764     -275.63458      1920.3708      0.9969611
   1474000  -615.36755      127.01471     -742.38227      335.51815     -608.38195      1920.3708      0.9969611
   1475000  -618.51627      104.62084     -723.13711      276.36317      2571.0594      1920.3708      0.9969611
   1476000  -643.25676      105.72139     -748.97815      279.27035     -1463.2834      1920.3708      0.9969611
   1477000  -627.79402      113.75554     -741.54956      300.49311     -1101.2251      1920.3708      0.9969611
   1478000  -645.79845      107.51424     -753.31269      284.0063       1072.5012      1920.3708      0.9969611
   1479000  -636.72727      107.42396     -744.15123      283.76782     -272.55112      1920.3708      0.9969611
   1480000  -647.99443      100.67304     -748.66747      265.9348       1600.8221      1920.3708      0.9969611
   1481000  -625.60923      122.15846     -747.76769      322.69001      4625.1688      1920.3708      0.9969611
   1482000  -651.71466      118.60046     -770.31512      313.29132     -836.0609       1920.3708      0.9969611
   1483000  -616.47275      122.488       -738.96075      323.56052      47.897057      1920.3708      0.9969611
   1484000  -633.11634      122.17733     -755.29366      322.73985      1208.9432      1920.3708      0.9969611
   1485000  -617.21914      125.34426     -742.56341      331.10553      571.30674      1920.3708      0.9969611
   1486000  -625.60307      109.25632     -734.85939      288.60811     -792.4466       1920.3708      0.9969611
   1487000  -637.8273       109.59724     -747.42454      289.50869      1767.2884      1920.3708      0.9969611
   1488000  -629.21914      119.51246     -748.73159      315.70041     -223.92045      1920.3708      0.9969611
   1489000  -618.61694      125.97538     -744.59232      332.77268      60.297399      1920.3708      0.9969611
   1490000  -642.05567      101.0972      -743.15287      267.05524     -1023.7031      1920.3708      0.9969611
   1491000  -627.62679      113.11255     -740.73934      298.79462     -516.52699      1920.3708      0.9969611
   1492000  -634.50813      109.44463     -743.95276      289.10555      2788.0987      1920.3708      0.9969611
   1493000  -631.05383      112.78367     -743.83751      297.92587      2104.6159      1920.3708      0.9969611
   1494000  -592.30273      131.11637     -723.41909      346.35294      995.83302      1920.3708      0.9969611
   1495000  -635.0047       99.7992       -734.8039       263.62648      214.40633      1920.3708      0.9969611
   1496000  -633.88548      106.88306     -740.76854      282.339        2409.7935      1920.3708      0.9969611
   1497000  -619.09694      123.05043     -742.14737      325.04622     -1370.3946      1920.3708      0.9969611
   1498000  -627.75261      103.80233     -731.55494      274.20102     -1270.1482      1920.3708      0.9969611
   1499000  -593.04127      122.91577     -715.95704      324.69051      82.705327      1920.3708      0.9969611
   1500000  -630.96938      106.6467      -737.61609      281.71464      200.96781      1920.3708      0.9969611
   1501000  -612.71335      123.5855      -736.29885      326.45963     -578.93257      1920.3708      0.9969611
   1502000  -625.41853      117.18676     -742.60528      309.55692     -2600.6418      1920.3708      0.9969611
   1503000  -627.84919      121.08266     -748.93185      319.84821      658.57571      1920.3708      0.9969611
   1504000  -611.35908      118.72207     -730.08114      313.61254     -786.14152      1920.3708      0.9969611
   1505000  -629.82195      118.2729      -748.09486      312.42605     -3024.7343      1920.3708      0.9969611
   1506000  -630.83466      111.21083     -742.04549      293.77109      2457.5778      1920.3708      0.9969611
   1507000  -653.77605      104.29648     -758.07253      275.50636     -712.95076      1920.3708      0.9969611
   1508000  -641.13533      102.55107     -743.68639      270.89573      796.43166      1920.3708      0.9969611
   1509000  -625.87165      113.47122     -739.34286      299.74207     -485.72094      1920.3708      0.9969611
   1510000  -648.96947      109.39519     -758.36466      288.97497      741.27151      1920.3708      0.9969611
   1511000  -627.29366      122.78447     -750.07813      324.34366      1605.8748      1920.3708      0.9969611
   1512000  -627.48799      110.83621     -738.3242       292.7815       1753.7357      1920.3708      0.9969611
   1513000  -651.40511      108.0952      -759.50031      285.54094     -1713.6246      1920.3708      0.9969611
   1514000  -623.92866      108.36466     -732.29331      286.25273      1803.5583      1920.3708      0.9969611
   1515000  -633.97419      118.14501     -752.11919      312.0882      -977.16438      1920.3708      0.9969611
   1516000  -637.65332      115.93732     -753.59064      306.25645      1.5064587      1920.3708      0.9969611
   1517000  -639.32977      110.6807      -750.01047      292.37071     -147.37859      1920.3708      0.9969611
   1518000  -621.49969      108.77806     -730.27774      287.34475      3.0449686      1920.3708      0.9969611
   1519000  -633.8692       121.36122     -755.23042      320.58404      707.18853      1920.3708      0.9969611
   1520000  -629.52109      108.15559     -737.67668      285.70047      1971.9046      1920.3708      0.9969611
   1521000  -623.95365      115.91478     -739.86842      306.19689      173.7856       1920.3708      0.9969611
   1522000  -660.97807      111.1257      -772.10377      293.54622      2042.6212      1920.3708      0.9969611
   1523000  -622.63682      117.55815     -740.19497      310.53798      2239.0748      1920.3708      0.9969611
   1524000  -626.54154      116.5715      -743.11304      307.93166      61.143908      1920.3708      0.9969611
   1525000  -647.98454      98.85378      -746.83832      261.12909      975.14314      1920.3708      0.9969611
   1526000  -623.35412      111.90561     -735.25973      295.60641     -840.1913       1920.3708      0.9969611
   1527000  -608.17584      122.63367     -730.80951      323.94531      106.96905      1920.3708      0.9969611
   1528000  -615.30517      105.74361     -721.04877      279.32904     -1398.2774      1920.3708      0.9969611
   1529000  -624.02493      118.28976     -742.31469      312.47057      283.05543      1920.3708      0.9969611
   1530000  -631.7795       109.34395     -741.12345      288.8396      -1583.2268      1920.3708      0.9969611
   1531000  -619.04625      114.30265     -733.34889      301.93834     -1657.9529      1920.3708      0.9969611
   1532000  -631.74962      108.323       -740.07262      286.14269      3471.1434      1920.3708      0.9969611
   1533000  -634.26369      111.91462     -746.17831      295.6302      -87.960571      1920.3708      0.9969611
   1534000  -604.04783      122.09198     -726.13982      322.51441     -2227.5703      1920.3708      0.9969611
   1535000  -624.44802      116.13018     -740.5782       306.76589     -71.524991      1920.3708      0.9969611
   1536000  -621.64474      113.25522     -734.89996      299.17149     -2170.3714      1920.3708      0.9969611
   1537000  -621.55563      114.74822     -736.30385      303.11534     -1754.6998      1920.3708      0.9969611
   1538000  -644.4309       109.10205     -753.53295      288.2006       603.51038      1920.3708      0.9969611
   1539000  -630.34184      116.53841     -746.88025      307.84427     -601.69705      1920.3708      0.9969611
   1540000  -642.95742      112.87249     -755.82992      298.16049      2506.1238      1920.3708      0.9969611
   1541000  -657.47139      105.00528     -762.47667      277.37869     -2919.2842      1920.3708      0.9969611
   1542000  -652.91483      93.428404     -746.34323      246.79759      433.14754      1920.3708      0.9969611
   1543000  -619.40378      103.79851     -723.20229      274.19094      388.78747      1920.3708      0.9969611
   1544000  -606.7279       126.23394     -732.96184      333.45567      1206.6169      1920.3708      0.9969611
   1545000  -634.79852      118.60816     -753.40668      313.31166      372.48142      1920.3708      0.9969611
   1546000  -630.19541      110.11696     -740.31237      290.88155      1198.7806      1920.3708      0.9969611
   1547000  -617.31934      118.46511     -735.78444      312.93376      1496.052       1920.3708      0.9969611
   1548000  -620.89574      112.15226     -733.04801      296.25795      1464.5299      1920.3708      0.9969611
   1549000  -624.76769      110.54542     -735.31311      292.01337     -1148.585       1920.3708      0.9969611
   1550000  -624.93876      109.44529     -734.38405      289.10731      2450.5944      1920.3708      0.9969611
   1551000  -642.1514       115.07876     -757.23016      303.98849      2071.1679      1920.3708      0.9969611
   1552000  -653.21273      100.47581     -753.68854      265.41379      923.87979      1920.3708      0.9969611
   1553000  -621.34971      114.79881     -736.14852      303.249       -320.91691      1920.3708      0.9969611
   1554000  -620.8485       116.03138     -736.87987      306.5049      -179.05579      1920.3708      0.9969611
   1555000  -599.77785      113.91402     -713.69188      300.91176      2073.6664      1920.3708      0.9969611
   1556000  -597.20623      105.56193     -702.76816      278.84913      3391.766       1920.3708      0.9969611
   1557000  -615.66943      117.8216      -733.49102      311.23389     -804.94225      1920.3708      0.9969611
   1558000  -645.32972      122.12377     -767.45349      322.59838      1602.5636      1920.3708      0.9969611
   1559000  -657.88423      108.76032     -766.64455      287.2979       2506.4364      1920.3708      0.9969611
   1560000  -635.7502       119.86597     -755.61617      316.63424      2760.212       1920.3708      0.9969611
   1561000  -673.30251      102.21411     -775.51662      270.00564      1756.9834      1920.3708      0.9969611
   1562000  -655.11056      104.65547     -759.76603      276.45466      2336.6826      1920.3708      0.9969611
   1563000  -622.91749      107.22685     -730.14435      283.24714      2260.7387      1920.3708      0.9969611
   1564000  -617.74215      116.78874     -734.53089      308.50552     -695.70372      1920.3708      0.9969611
   1565000  -627.5066       123.01533     -750.52193      324.95349     -747.30517      1920.3708      0.9969611
   1566000  -645.69574      102.64712     -748.34286      271.14946     -1879.1275      1920.3708      0.9969611
   1567000  -643.64617      112.54752     -756.19369      297.30206     -493.29377      1920.3708      0.9969611
   1568000  -659.03439      113.4827      -772.5171       299.77241     -2.8650597      1920.3708      0.9969611
   1569000  -647.95761      106.04506     -754.00267      280.12535      1683.391       1920.3708      0.9969611
   1570000  -668.33403      97.366263     -765.70029      257.19971     -2057.0676      1920.3708      0.9969611
   1571000  -638.32248      108.04289     -746.36536      285.40275     -1052.8993      1920.3708      0.9969611
   1572000  -619.64396      105.59847     -725.24243      278.94565      361.55997      1920.3708      0.9969611
   1573000  -625.05272      113.12685     -738.17956      298.83239     -432.07853      1920.3708      0.9969611
   1574000  -643.26943      110.09703     -753.36646      290.82891      1530.9235      1920.3708      0.9969611
   1575000  -626.95533      117.63741     -744.59274      310.74735      1944.1847      1920.3708      0.9969611
   1576000  -662.13803      93.66334      -755.80137      247.41819      533.21589      1920.3708      0.9969611
   1577000  -636.03414      103.04595     -739.08009      272.20301     -1260.8452      1920.3708      0.9969611
   1578000  -621.6877       120.52856     -742.21626      318.38452     -1183.7066      1920.3708      0.9969611
   1579000  -638.38948      120.78513     -759.17462      319.06228      1441.285       1920.3708      0.9969611
   1580000  -644.85149      107.7033      -752.55479      284.50571     -633.16956      1920.3708      0.9969611
   1581000  -645.31433      124.36853     -769.68287      328.52807     -2506.4081      1920.3708      0.9969611
   1582000  -627.36196      123.77479     -751.13675      326.95965      1264.4341      1920.3708      0.9969611
   1583000  -637.26012      113.94471     -751.20484      300.99283     -1920.6004      1920.3708      0.9969611
   1584000  -618.901        113.02187     -731.92287      298.55507      92.491162      1920.3708      0.9969611
   1585000  -626.85213      114.92658     -741.77872      303.58651      132.28053      1920.3708      0.9969611
   1586000  -628.58539      120.79194     -749.37733      319.08025      3765.6675      1920.3708      0.9969611
   1587000  -649.92271      106.32139     -756.2441       280.8553      -1676.052       1920.3708      0.9969611
   1588000  -601.97357      113.50335     -715.47693      299.82695     -127.10187      1920.3708      0.9969611
   1589000  -644.07293      114.92778     -759.00071      303.58968      2089.6951      1920.3708      0.9969611
   1590000  -602.40762      106.00591     -708.41352      280.02193      234.38293      1920.3708      0.9969611
   1591000  -616.29136      125.11093     -741.40229      330.48917      1518.6129      1920.3708      0.9969611
   1592000  -652.03085      102.59453     -754.62538      271.01055      1060.4573      1920.3708      0.9969611
   1593000  -635.68812      119.1815      -754.86962      314.82618      1194.1984      1920.3708      0.9969611
   1594000  -613.71292      126.58819     -740.30111      334.39145      2163.9676      1920.3708      0.9969611
   1595000  -627.74671      107.85811     -735.60482      284.91464      1058.6602      1920.3708      0.9969611
   1596000  -615.0642       117.19915     -732.26336      309.58967     -983.13855      1920.3708      0.9969611
   1597000  -638.00152      97.640446     -735.64197      257.92399      2124.0695      1920.3708      0.9969611
   1598000  -651.73694      112.11216     -763.8491       296.15203      400.75896      1920.3708      0.9969611
   1599000  -634.28267      104.60168     -738.88435      276.31257      376.24476      1920.3708      0.9969611
   1600000  -669.06301      95.449667     -764.51268      252.13689     -2751.2972      1920.3708      0.9969611
   1601000  -613.07708      117.01076     -730.08784      309.09202      443.95406      1920.3708      0.9969611
   1602000  -648.24703      120.17897     -768.426        317.46106      378.9439       1920.3708      0.9969611
   1603000  -631.94474      118.63858     -750.58331      313.392        1264.423       1920.3708      0.9969611
   1604000  -605.39233      112.98916     -718.38149      298.46868     -397.18073      1920.3708      0.9969611
   1605000  -621.55808      111.51508     -733.07316      294.57479     -220.09401      1920.3708      0.9969611
   1606000  -647.15041      109.38502     -756.53543      288.94808      3086.8343      1920.3708      0.9969611
   1607000  -589.40941      115.30181     -704.71121      304.57769      1621.8365      1920.3708      0.9969611
   1608000  -622.57074      109.21788     -731.78862      288.50658      1146.9766      1920.3708      0.9969611
   1609000  -630.7531       107.77987     -738.53297      284.70798     -688.73006      1920.3708      0.9969611
   1610000  -609.40028      116.78574     -726.18602      308.4976      -311.2708       1920.3708      0.9969611
   1611000  -638.89213      109.90977     -748.8019       290.33426     -958.7593       1920.3708      0.9969611
   1612000  -619.58504      119.48354     -739.06858      315.62403     -40.354635      1920.3708      0.9969611
   1613000  -628.40475      115.64153     -744.04628      305.47509      439.56979      1920.3708      0.9969611
   1614000  -641.75255      104.06189     -745.81445      274.88668     -938.87355      1920.3708      0.9969611
   1615000  -638.59568      108.73008     -747.32576      287.21803     -452.26392      1920.3708      0.9969611
   1616000  -633.56326      116.62968     -750.19293      308.08535     -2809.8308      1920.3708      0.9969611
   1617000  -621.03993      115.40369     -736.44363      304.84683     -233.44631      1920.3708      0.9969611
   1618000  -621.96         117.85036     -739.81035      311.30986      678.39328      1920.3708      0.9969611
   1619000  -627.27848      119.91356     -747.19204      316.75996      2114.9116      1920.3708      0.9969611
   1620000  -644.46538      113.09088     -757.55626      298.73738     -2026.886       1920.3708      0.9969611
   1621000  -622.5472       119.34511     -741.89231      315.25836     -2633.0591      1920.3708      0.9969611
   1622000  -651.71644      114.73927     -766.4557       303.0917      -1454.809       1920.3708      0.9969611
   1623000  -633.40399      117.84737     -751.25136      311.30198      433.23536      1920.3708      0.9969611
   1624000  -620.56339      119.29183     -739.85522      315.11763     -252.83173      1920.3708      0.9969611
   1625000  -620.92996      119.02665     -739.95661      314.41712     -1538.7542      1920.3708      0.9969611
   1626000  -632.13373      121.8716      -754.00533      321.93225      4.5508563      1920.3708      0.9969611
   1627000  -644.10217      114.71806     -758.82023      303.03568     -116.54791      1920.3708      0.9969611
   1628000  -639.86577      119.11817     -758.98394      314.65887     -1649.9083      1920.3708      0.9969611
   1629000  -650.24822      102.9725      -753.22073      272.00898     -3405.6468      1920.3708      0.9969611
   1630000  -621.86192      107.5813      -729.44322      284.18345      2773.6294      1920.3708      0.9969611
   1631000  -583.48208      113.50601     -696.98809      299.83396     -1334.6735      1920.3708      0.9969611
   1632000  -635.07614      107.80285     -742.87898      284.76867     -179.24946      1920.3708      0.9969611
   1633000  -636.25831      96.610429     -732.86874      255.20312      1238.5427      1920.3708      0.9969611
   1634000  -600.3668       120.22649     -720.59329      317.58659     -208.35795      1920.3708      0.9969611
   1635000  -641.67432      108.00719     -749.68151      285.30845     -906.62079      1920.3708      0.9969611
   1636000  -614.97924      117.70287     -732.68211      310.92027      539.82201      1920.3708      0.9969611
   1637000  -614.08644      109.71777     -723.80421      289.82706      132.22307      1920.3708      0.9969611
   1638000  -638.67486      102.81949     -741.49435      271.60478      795.82401      1920.3708      0.9969611
   1639000  -625.64092      100.79653     -726.43745      266.261       -483.62791      1920.3708      0.9969611
   1640000  -634.69834      117.00034     -751.69868      309.06447     -61.873636      1920.3708      0.9969611
   1641000  -626.83943      112.00951     -738.84894      295.88086     -1598.5589      1920.3708      0.9969611
   1642000  -634.08753      114.60546     -748.693        302.73825      265.21531      1920.3708      0.9969611
   1643000  -620.00469      120.16065     -740.16534      317.41267     -2402.9234      1920.3708      0.9969611
   1644000  -625.05046      122.13301     -747.18348      322.6228       1440.8488      1920.3708      0.9969611
   1645000  -628.4493       119.92712     -748.37642      316.79578      1977.5676      1920.3708      0.9969611
   1646000  -628.88676      128.8129      -757.69966      340.26818      2449.9004      1920.3708      0.9969611
   1647000  -621.19576      107.46562     -728.66138      283.87786     -103.99838      1920.3708      0.9969611
   1648000  -625.08547      103.016       -728.10147      272.12388     -628.39913      1920.3708      0.9969611
   1649000  -626.92522      119.51524     -746.44046      315.70778     -1898.9194      1920.3708      0.9969611
   1650000  -636.24213      97.069544     -733.31167      256.41591     -1120.1954      1920.3708      0.9969611
   1651000  -632.86046      111.15757     -744.01804      293.63041      118.45123      1920.3708      0.9969611
   1652000  -624.05379      113.51414     -737.56793      299.85545     -537.97778      1920.3708      0.9969611
   1653000  -642.76386      94.63431      -737.39817      249.98307     -322.12531      1920.3708      0.9969611
   1654000  -613.43727      122.36012     -735.79739      323.2227       3261.4367      1920.3708      0.9969611
   1655000  -637.85694      117.67345     -755.53038      310.84255      2365.398       1920.3708      0.9969611
   1656000  -623.96152      116.05159     -740.01311      306.55831      2409.3991      1920.3708      0.9969611
   1657000  -636.74146      106.21563     -742.95708      280.57592     -1228.0628      1920.3708      0.9969611
   1658000  -610.9569       117.32288     -728.27977      309.91648     -2145.8759      1920.3708      0.9969611
   1659000  -625.53635      115.44578     -740.98213      304.95801      431.10407      1920.3708      0.9969611
   1660000  -599.32009      126.68884     -726.00893      334.65732      1494.6382      1920.3708      0.9969611
   1661000  -651.71357      107.44208     -759.15566      283.81569     -2591.6037      1920.3708      0.9969611
   1662000  -619.94761      112.07919     -732.0268       296.06491     -1683.2577      1920.3708      0.9969611
   1663000  -643.67452      111.05869     -754.73321      293.3692      -619.92385      1920.3708      0.9969611
   1664000  -630.76229      110.08474     -740.84703      290.79646     -630.68355      1920.3708      0.9969611
   1665000  -627.32048      106.65334     -733.97382      281.73217      897.05984      1920.3708      0.9969611
   1666000  -615.21751      112.36525     -727.58276      296.82057      2705.4697      1920.3708      0.9969611
   1667000  -628.51651      122.15525     -750.67175      322.68153     -2466.124       1920.3708      0.9969611
   1668000  -617.47258      117.95496     -735.42754      311.58618      1984.0089      1920.3708      0.9969611
   1669000  -633.08992      110.40746     -743.49738      291.64893      2410.5192      1920.3708      0.9969611
   1670000  -630.48675      112.72165     -743.20841      297.76204      3988.2188      1920.3708      0.9969611
   1671000  -658.28308      106.87066     -765.15374      282.30622     -2426.3175      1920.3708      0.9969611
   1672000  -628.31246      101.17405     -729.4865       267.25824     -1895.4031      1920.3708      0.9969611
   1673000  -634.76284      104.99818     -739.76103      277.35996     -1396.3006      1920.3708      0.9969611
   1674000  -620.03094      117.58798     -737.61892      310.61677      407.31474      1920.3708      0.9969611
   1675000  -645.404        112.21112     -757.61513      296.41344      1411.1554      1920.3708      0.9969611
   1676000  -640.57369      111.86419     -752.43788      295.49698      2224.4726      1920.3708      0.9969611
   1677000  -611.50971      120.60505     -732.11476      318.58657     -436.08661      1920.3708      0.9969611
   1678000  -627.53379      103.91063     -731.44442      274.4871      -185.08028      1920.3708      0.9969611
   1679000  -630.92268      106.90418     -737.82686      282.39479     -213.5328       1920.3708      0.9969611
   1680000  -648.88283      109.16201     -758.04484      288.359        2673.437       1920.3708      0.9969611
   1681000  -610.53531      117.92283     -728.45814      311.5013      -241.83144      1920.3708      0.9969611
   1682000  -637.43789      110.80161     -748.2395       292.69011      527.07365      1920.3708      0.9969611
   1683000  -655.76349      95.856621     -751.62011      253.21189      2262.1562      1920.3708      0.9969611
   1684000  -641.40306      117.02208     -758.42514      309.12192     -2848.1082      1920.3708      0.9969611
   1685000  -622.73535      121.11887     -743.85422      319.94386     -1140.2479      1920.3708      0.9969611
   1686000  -644.12825      110.37395     -754.5022       291.56042     -821.2572       1920.3708      0.9969611
   1687000  -610.22358      120.30756     -730.53113      317.80073      216.49843      1920.3708      0.9969611
   1688000  -618.50241      111.10995     -729.61236      293.50461      2119.071       1920.3708      0.9969611
   1689000  -587.83294      127.2255      -715.05844      336.07495      2640.7071      1920.3708      0.9969611
   1690000  -621.44716      125.60883     -747.05599      331.80442     -2702.9692      1920.3708      0.9969611
   1691000  -632.77579      105.94295     -738.71874      279.85562     -920.1591       1920.3708      0.9969611
   1692000  -604.35051      133.3103      -737.66081      352.14837     -544.35179      1920.3708      0.9969611
   1693000  -644.91012      100.10333     -745.01345      264.42985     -576.13314      1920.3708      0.9969611
   1694000  -645.30482      92.946915     -738.25174      245.5257      -1634.6136      1920.3708      0.9969611
   1695000  -634.76072      114.32565     -749.08637      301.9991       3305.7995      1920.3708      0.9969611
   1696000  -662.20937      97.168598     -759.37797      256.67757      261.00976      1920.3708      0.9969611
   1697000  -634.97509      112.15784     -747.13293      296.27269      982.40125      1920.3708      0.9969611
   1698000  -622.14447      113.60982     -735.75429      300.1082       960.35459      1920.3708      0.9969611
   1699000  -644.94115      102.64852     -747.58967      271.15316      799.44106      1920.3708      0.9969611
   1700000  -622.77021      111.7096      -734.47981      295.08863     -1298.8841      1920.3708      0.9969611
   1701000  -632.3949       98.975663     -731.37056      261.45105      1552.1972      1920.3708      0.9969611
   1702000  -637.1609       98.430722     -735.59162      260.01155      1139.8883      1920.3708      0.9969611
   1703000  -634.40661      126.4738      -760.88041      334.08928      1412.87        1920.3708      0.9969611
   1704000  -624.23051      122.12616     -746.35667      322.6047      -1610.6831      1920.3708      0.9969611
   1705000  -624.77108      118.96377     -743.73485      314.25102     -327.47679      1920.3708      0.9969611
   1706000  -628.85112      113.35653     -742.20764      299.4391      -25.217524      1920.3708      0.9969611
   1707000  -637.18738      128.0504      -765.23777      338.25397      809.51366      1920.3708      0.9969611
   1708000  -612.9775       126.23108     -739.20857      333.44811     -114.53755      1920.3708      0.9969611
   1709000  -628.98769      107.80271     -736.7904       284.76831      2529.8488      1920.3708      0.9969611
   1710000  -617.02567      112.46507     -729.49074      297.08426     -18.505062      1920.3708      0.9969611
   1711000  -630.34391      107.80491     -738.14883      284.77413      213.54095      1920.3708      0.9969611
   1712000  -627.45566      108.03648     -735.49214      285.38582      2811.2885      1920.3708      0.9969611
   1713000  -623.30137      125.11621     -748.41757      330.50311      4355.4934      1920.3708      0.9969611
   1714000  -633.62509      120.05534     -753.68043      317.13447      585.28594      1920.3708      0.9969611
   1715000  -632.76332      119.26302     -752.02634      315.04152      413.88287      1920.3708      0.9969611
   1716000  -656.8912       109.01132     -765.90252      287.96095     -765.82652      1920.3708      0.9969611
   1717000  -620.24362      126.79687     -747.04049      334.9427       155.06389      1920.3708      0.9969611
   1718000  -594.14148      123.88983     -718.03131      327.26356      2894.8966      1920.3708      0.9969611
   1719000  -653.72564      104.39635     -758.12199      275.77017     -3219.0148      1920.3708      0.9969611
   1720000  -642.99137      117.65665     -760.64802      310.79818      1291.1922      1920.3708      0.9969611
   1721000  -631.12119      102.97273     -734.09392      272.00959      659.21112      1920.3708      0.9969611
   1722000  -600.83168      130.5818      -731.41348      344.94086      1125.4702      1920.3708      0.9969611
   1723000  -653.99408      106.24614     -760.24023      280.65653     -1194.8537      1920.3708      0.9969611
   1724000  -635.55161      110.29458     -745.84618      291.35074      406.07755      1920.3708      0.9969611
   1725000  -594.632        122.77875     -717.41075      324.32855      2186.849       1920.3708      0.9969611
   1726000  -626.51798      114.44363     -740.96161      302.31076     -2771.805       1920.3708      0.9969611
   1727000  -607.55559      108.43466     -715.99024      286.43764      593.19221      1920.3708      0.9969611
   1728000  -657.11452      104.05662     -761.17114      274.87274     -549.69995      1920.3708      0.9969611
   1729000  -610.28418      114.20507     -724.48925      301.68059      764.10728      1920.3708      0.9969611
   1730000  -638.15023      118.85264     -757.00287      313.95746     -145.25299      1920.3708      0.9969611
   1731000  -621.44168      131.85504     -753.29672      348.3042       1565.8901      1920.3708      0.9969611
   1732000  -651.18878      113.03257     -764.22135      298.58335      1165.0244      1920.3708      0.9969611
   1733000  -662.67723      109.36475     -772.04198      288.89455      1262.9336      1920.3708      0.9969611
   1734000  -641.03054      130.01918     -771.04972      343.45464      3161.1756      1920.3708      0.9969611
   1735000  -625.60444      115.01396     -740.6184       303.81732      2083.9139      1920.3708      0.9969611
   1736000  -623.45637      103.11163     -726.568        272.37648      392.7084       1920.3708      0.9969611
   1737000  -638.25771      109.60365     -747.86137      289.52563     -455.26968      1920.3708      0.9969611
   1738000  -655.4884       100.76027     -756.24867      266.16523     -1490.8102      1920.3708      0.9969611
   1739000  -639.54661      108.17371     -747.72032      285.74833      2445.5858      1920.3708      0.9969611
   1740000  -656.42973      103.66646     -760.09619      273.84211     -1300.6625      1920.3708      0.9969611
   1741000  -633.62941      109.1247      -742.75411      288.26044      314.33144      1920.3708      0.9969611
   1742000  -635.20494      102.10214     -737.30708      269.70985      2100.9481      1920.3708      0.9969611
   1743000  -635.87511      111.55352     -747.42863      294.67634      1161.3559      1920.3708      0.9969611
   1744000  -638.14095      103.0525      -741.19345      272.22031      827.53432      1920.3708      0.9969611
   1745000  -620.70744      125.12843     -745.83587      330.5354      -626.32818      1920.3708      0.9969611
   1746000  -621.18865      121.36515     -742.5538       320.59443      1843.8259      1920.3708      0.9969611
   1747000  -648.84442      107.92374     -756.76816      285.08802      2072.1034      1920.3708      0.9969611
   1748000  -624.87024      126.85712     -751.72736      335.10185      827.44962      1920.3708      0.9969611
   1749000  -645.8857       105.1351      -751.0208       277.72164     -1095.2678      1920.3708      0.9969611
   1750000  -631.24889      111.59483     -742.84373      294.78547      346.11464      1920.3708      0.9969611
   1751000  -635.25024      106.27274     -741.52297      280.72678     -464.87095      1920.3708      0.9969611
   1752000  -618.9155       123.43061     -742.34611      326.05048      1821.6513      1920.3708      0.9969611
   1753000  -614.9178       125.45776     -740.37557      331.40535      5834.6001      1920.3708      0.9969611
   1754000  -605.12088      121.74107     -726.86195      321.58745      362.97367      1920.3708      0.9969611
   1755000  -633.50932      110.50827     -744.01759      291.91523      3147.0732      1920.3708      0.9969611
   1756000  -615.88402      125.59263     -741.47665      331.7616      -995.76441      1920.3708      0.9969611
   1757000  -610.85703      123.54817     -734.4052       326.36102      825.56194      1920.3708      0.9969611
   1758000  -648.25739      97.380565     -745.63795      257.23749     -1788.7857      1920.3708      0.9969611
   1759000  -610.57042      116.91208     -727.48251      308.83135      1266.6244      1920.3708      0.9969611
   1760000  -614.31967      113.51584     -727.83551      299.85994      1984.4242      1920.3708      0.9969611
   1761000  -628.29299      101.1817      -729.4747       267.27847     -36.473796      1920.3708      0.9969611
   1762000  -642.04845      120.59404     -762.64249      318.55748      1098.982       1920.3708      0.9969611
   1763000  -589.29461      121.95639     -711.251        322.15623      2950.0835      1920.3708      0.9969611
   1764000  -649.56833      100.23982     -749.80815      264.7904      -891.66087      1920.3708      0.9969611
   1765000  -628.88004      109.73548     -738.61552      289.87387     -995.5079       1920.3708      0.9969611
   1766000  -629.75907      115.98152     -745.7406       306.37321      487.71837      1920.3708      0.9969611
   1767000  -613.123        125.52013     -738.64313      331.5701      -785.25328      1920.3708      0.9969611
   1768000  -647.45035      99.208486     -746.65884      262.06607     -1221.6614      1920.3708      0.9969611
   1769000  -623.75818      124.97161     -748.72979      330.12115      1013.1953      1920.3708      0.9969611
   1770000  -635.35243      95.285334     -730.63776      251.7028      -882.86812      1920.3708      0.9969611
   1771000  -652.68933      112.42692     -765.11625      296.98348      1515.9602      1920.3708      0.9969611
   1772000  -666.16883      102.73182     -768.90065      271.37319     -424.76108      1920.3708      0.9969611
   1773000  -631.36272      124.72338     -756.0861       329.46543     -2326.8079      1920.3708      0.9969611
   1774000  -643.06925      112.712       -755.78125      297.73655      641.68035      1920.3708      0.9969611
   1775000  -638.73879      117.7947      -756.53349      311.16284     -637.13164      1920.3708      0.9969611
   1776000  -628.86132      118.26119     -747.12251      312.3951      -612.07638      1920.3708      0.9969611
   1777000  -616.8642       127.7045      -744.5687       337.34026     -2639.5136      1920.3708      0.9969611
   1778000  -638.05457      97.142481     -735.19706      256.60858     -51.086333      1920.3708      0.9969611
   1779000  -638.83114      102.4638      -741.29494      270.66521     -46.102165      1920.3708      0.9969611
   1780000  -632.1746       109.44975     -741.62434      289.11907     -30.075202      1920.3708      0.9969611
   1781000  -638.7018       106.97258     -745.67438      282.57547     -652.0626       1920.3708      0.9969611
   1782000  -660.42089      99.207273     -759.62816      262.06287      158.22644      1920.3708      0.9969611
   1783000  -621.7805       108.18423     -729.96472      285.77611      3573.7235      1920.3708      0.9969611
   1784000  -637.02253      102.2777      -739.30023      270.17361     -493.91426      1920.3708      0.9969611
   1785000  -601.53268      114.4468      -715.97948      302.31912     -1363.7289      1920.3708      0.9969611
   1786000  -637.85595      113.21502     -751.07096      299.06529     -863.0131       1920.3708      0.9969611
   1787000  -627.46504      102.73477     -730.1998       271.38099      1314.0192      1920.3708      0.9969611
   1788000  -654.12041      103.93022     -758.05063      274.53885     -476.33778      1920.3708      0.9969611
   1789000  -646.44879      115.07328     -761.52207      303.97403     -1941.7752      1920.3708      0.9969611
   1790000  -651.78724      106.93273     -758.71997      282.47019      303.92172      1920.3708      0.9969611
   1791000  -642.01141      115.54742     -757.55882      305.22648     -2214.0413      1920.3708      0.9969611
   1792000  -644.50294      114.87388     -759.37682      303.4473      -998.26758      1920.3708      0.9969611
   1793000  -640.44861      111.96142     -752.41003      295.75382     -437.76309      1920.3708      0.9969611
   1794000  -622.56425      112.40856     -734.97281      296.93499     -538.85818      1920.3708      0.9969611
   1795000  -647.20637      112.53652     -759.74289      297.27299     -291.09822      1920.3708      0.9969611
   1796000  -655.671        106.75044     -762.42144      281.98866      1630.8823      1920.3708      0.9969611
   1797000  -639.85053      116.83354     -756.68407      308.62388      2000.7808      1920.3708      0.9969611
   1798000  -630.05795      108.77945     -738.8374       287.34842      2446.4011      1920.3708      0.9969611
   1799000  -598.18474      119.09754     -717.28228      314.60438     -2237.3774      1920.3708      0.9969611
   1800000  -584.83705      133.53159     -718.36864      352.73292     -361.32449      1920.3708      0.9969611
   1801000  -611.71314      112.52383     -724.23697      297.23947     -2735.1821      1920.3708      0.9969611
   1802000  -608.63042      128.65941     -737.28984      339.86273      2051.9112      1920.3708      0.9969611
   1803000  -658.35383      95.569197     -753.92302      252.45264     -1994.9765      1920.3708      0.9969611
   1804000  -624.30629      127.17312     -751.47941      335.9366       2527.4242      1920.3708      0.9969611
   1805000  -632.76097      105.35418     -738.11515      278.30035     -857.61651      1920.3708      0.9969611
   1806000  -634.62942      121.08101     -755.71043      319.84385     -407.83907      1920.3708      0.9969611
   1807000  -612.58385      110.71921     -723.30305      292.47243     -208.60126      1920.3708      0.9969611
   1808000  -617.06359      113.75419     -730.81778      300.48955     -2066.5748      1920.3708      0.9969611
   1809000  -654.35719      103.50332     -757.8605       273.41117      737.61299      1920.3708      0.9969611
   1810000  -614.96586      120.67669     -735.64254      318.77581      589.55354      1920.3708      0.9969611
   1811000  -631.11249      115.00991     -746.1224       303.80662      2051.7738      1920.3708      0.9969611
   1812000  -607.60639      118.69356     -726.29995      313.53724     -1357.8999      1920.3708      0.9969611
   1813000  -606.95147      121.44995     -728.40142      320.81843      98.689368      1920.3708      0.9969611
   1814000  -640.42079      107.61409     -748.03488      284.27005      1207.7882      1920.3708      0.9969611
   1815000  -615.16215      114.26805     -729.43021      301.84696     -575.47866      1920.3708      0.9969611
   1816000  -638.52174      106.82356     -745.3453       282.18181     -267.37961      1920.3708      0.9969611
   1817000  -638.14729      128.14793     -766.29523      338.51163     -798.30318      1920.3708      0.9969611
   1818000  -632.31604      98.015241     -730.33128      258.91403     -633.70741      1920.3708      0.9969611
   1819000  -604.97452      120.90349     -725.87801      319.37492      2470.1677      1920.3708      0.9969611
   1820000  -613.63511      109.23129     -722.8664       288.54201      1880.1265      1920.3708      0.9969611
   1821000  -605.70096      115.78561     -721.48657      305.85569      1131.0576      1920.3708      0.9969611
   1822000  -627.01321      109.05574     -736.06894      288.07827     -641.17692      1920.3708      0.9969611
   1823000  -623.12431      134.29967     -757.42398      354.76185     -862.15082      1920.3708      0.9969611
   1824000  -601.19205      122.56859     -723.76064      323.7734       2960.9614      1920.3708      0.9969611
   1825000  -622.37514      130.26509     -752.64023      344.10423     -285.88315      1920.3708      0.9969611
   1826000  -640.08898      109.16092     -749.2499       288.35612      656.32661      1920.3708      0.9969611
   1827000  -619.24859      118.61281     -737.8614       313.32393     -483.97333      1920.3708      0.9969611
   1828000  -612.43015      113.85131     -726.28146      300.74611      1972.7423      1920.3708      0.9969611
   1829000  -625.26743      119.24879     -744.51622      315.00391      212.16864      1920.3708      0.9969611
   1830000  -626.38773      118.87897     -745.2667       314.02701      568.51817      1920.3708      0.9969611
   1831000  -654.57462      103.43828     -758.0129       273.23935     -677.9647       1920.3708      0.9969611
   1832000  -633.75454      107.48839     -741.24293      283.938        1261.0646      1920.3708      0.9969611
   1833000  -664.63921      105.87903     -770.51824      279.68677      117.94632      1920.3708      0.9969611
   1834000  -626.2899       125.77642     -752.06631      332.24709      925.13481      1920.3708      0.9969611
   1835000  -615.4433       120.96903     -736.41233      319.54804      1439.8247      1920.3708      0.9969611
   1836000  -650.70985      110.74136     -761.45121      292.53097     -2358.5708      1920.3708      0.9969611
   1837000  -620.23345      129.92526     -750.15871      343.20656      2493.9253      1920.3708      0.9969611
   1838000  -623.92476      125.78367     -749.70842      332.26625      1481.1003      1920.3708      0.9969611
   1839000  -612.95085      117.2922      -730.24305      309.83544     -2173.7963      1920.3708      0.9969611
   1840000  -639.04969      108.86456     -747.91425      287.57326      449.87426      1920.3708      0.9969611
   1841000  -642.11852      115.7634      -757.88192      305.79701     -1928.2506      1920.3708      0.9969611
   1842000  -607.11315      119.74491     -726.85806      316.31446     -356.30636      1920.3708      0.9969611
   1843000  -641.3569       124.61169     -765.96859      329.17038      145.44862      1920.3708      0.9969611
   1844000  -615.93733      105.35393     -721.29126      278.29969     -1055.5164      1920.3708      0.9969611
   1845000  -642.48142      112.51927     -755.00069      297.22741      1984.0406      1920.3708      0.9969611
   1846000  -600.41193      136.58875     -737.00067      360.80862      2807.738       1920.3708      0.9969611
   1847000  -611.66654      118.37135     -730.03789      312.6861       1370.8599      1920.3708      0.9969611
   1848000  -615.60789      111.63539     -727.24329      294.89261     -280.74992      1920.3708      0.9969611
   1849000  -649.84614      109.1522      -758.99834      288.33309      2061.616       1920.3708      0.9969611
   1850000  -630.15023      116.45368     -746.60391      307.62044      540.28042      1920.3708      0.9969611
   1851000  -635.12911      107.50021     -742.62932      283.96923      1357.7249      1920.3708      0.9969611
   1852000  -640.63651      105.44353     -746.08004      278.53637     -2589.6979      1920.3708      0.9969611
   1853000  -613.29748      116.95533     -730.25281      308.94557     -514.19927      1920.3708      0.9969611
   1854000  -636.8385       94.323347     -731.16184      249.16164      1192.3119      1920.3708      0.9969611
   1855000  -622.54552      112.01291     -734.55843      295.88985     -986.1409       1920.3708      0.9969611
   1856000  -651.99351      100.7592      -752.75272      266.1624      -1183.4556      1920.3708      0.9969611
   1857000  -640.68251      116.09585     -756.77836      306.67522     -156.35928      1920.3708      0.9969611
   1858000  -651.97082      107.81828     -759.7891       284.80943      2168.7715      1920.3708      0.9969611
   1859000  -652.24579      105.61581     -757.8616       278.99147      1917.9712      1920.3708      0.9969611
   1860000  -655.2272       104.13869     -759.36589      275.08955     -891.96889      1920.3708      0.9969611
   1861000  -644.48728      95.826794     -740.31407      253.1331      -2611.8037      1920.3708      0.9969611
   1862000  -628.14042      120.12154     -748.26196      317.30935     -3503.8615      1920.3708      0.9969611
   1863000  -605.90416      119.016       -724.92016      314.389       -387.72181      1920.3708      0.9969611
   1864000  -611.32225      128.20507     -739.52733      338.66256      3877.2017      1920.3708      0.9969611
   1865000  -619.32728      121.77662     -741.10391      321.68137      2829.031       1920.3708      0.9969611
   1866000  -647.38389      102.03386     -749.41775      269.5295      -1539.2885      1920.3708      0.9969611
   1867000  -631.90374      104.44231     -736.34605      275.89158     -1310.4485      1920.3708      0.9969611
   1868000  -614.01693      119.08319     -733.10012      314.56647      453.36781      1920.3708      0.9969611
   1869000  -599.95175      125.82839     -725.78014      332.3844       1850.3584      1920.3708      0.9969611
   1870000  -632.61021      120.48846     -753.09868      318.27861     -214.85809      1920.3708      0.9969611
   1871000  -633.28834      115.2519      -748.54024      304.44586      1908.0186      1920.3708      0.9969611
   1872000  -650.59063      101.86005     -752.45067      269.07036     -2152.3801      1920.3708      0.9969611
   1873000  -639.50211      102.74114     -742.24325      271.39782      896.00543      1920.3708      0.9969611
   1874000  -598.64434      122.23544     -720.87978      322.89336     -876.74246      1920.3708      0.9969611
   1875000  -633.75998      115.72302     -749.483        305.69036     -571.1461       1920.3708      0.9969611
   1876000  -628.75954      109.25658     -738.01612      288.60881      1512.1178      1920.3708      0.9969611
   1877000  -635.12091      115.62103     -750.74194      305.42094     -140.39753      1920.3708      0.9969611
   1878000  -635.26805      115.12922     -750.39727      304.1218      -1225.3791      1920.3708      0.9969611
   1879000  -617.4512       94.880691     -712.33189      250.6339       1133.4054      1920.3708      0.9969611
   1880000  -637.73949      119.22063     -756.96012      314.92953     -2262.9798      1920.3708      0.9969611
   1881000  -617.94748      110.35468     -728.30217      291.50952      108.40042      1920.3708      0.9969611
   1882000  -613.13387      125.49795     -738.63181      331.5115      -557.86473      1920.3708      0.9969611
   1883000  -657.26447      99.26164      -756.52611      262.20648      1631.9095      1920.3708      0.9969611
   1884000  -646.17198      106.07501     -752.24698      280.20446     -866.45838      1920.3708      0.9969611
   1885000  -642.30944      104.17685     -746.48629      275.19035      480.91336      1920.3708      0.9969611
   1886000  -623.35579      118.5869      -741.94269      313.25549     -1609.3873      1920.3708      0.9969611
   1887000  -610.30498      119.81562     -730.12059      316.50123     -547.52753      1920.3708      0.9969611
   1888000  -618.74327      112.61888     -731.36214      297.49055     -877.77345      1920.3708      0.9969611
   1889000  -606.77754      102.62927     -709.40681      271.10231     -98.80391       1920.3708      0.9969611
   1890000  -624.11867      115.87506     -739.99373      306.09198     -320.67034      1920.3708      0.9969611
   1891000  -645.17478      105.45198     -750.62676      278.55868      183.42759      1920.3708      0.9969611
   1892000  -651.18592      112.4294      -763.61532      296.99003     -1457.2001      1920.3708      0.9969611
   1893000  -633.15587      112.45975     -745.61562      297.07021      1273.8949      1920.3708      0.9969611
   1894000  -636.27219      121.75486     -758.02705      321.62388     -761.98132      1920.3708      0.9969611
   1895000  -637.35608      112.31596     -749.67204      296.69037      686.42364      1920.3708      0.9969611
   1896000  -643.20537      104.87873     -748.0841       277.04442     -155.48087      1920.3708      0.9969611
   1897000  -628.61834      121.33602     -749.95435      320.51747     -302.61986      1920.3708      0.9969611
   1898000  -615.65767      118.64744     -734.30511      313.4154      -2052.8756      1920.3708      0.9969611
   1899000  -613.74346      122.17744     -735.9209       322.74014     -795.00936      1920.3708      0.9969611
   1900000  -659.42642      97.548403     -756.97483      257.68085      1531.3224      1920.3708      0.9969611
   1901000  -624.69138      114.10758     -738.79896      301.42306      3317.9831      1920.3708      0.9969611
   1902000  -645.3218       107.77626     -753.09806      284.69843      633.90919      1920.3708      0.9969611
   1903000  -620.75373      112.99772     -733.75145      298.49129      1335.9058      1920.3708      0.9969611
   1904000  -623.96065      124.90355     -748.8642       329.94136      438.88016      1920.3708      0.9969611
   1905000  -635.41523      96.40031      -731.81554      254.64808     -538.97152      1920.3708      0.9969611
   1906000  -633.70469      111.12845     -744.83314      293.55349      819.36953      1920.3708      0.9969611
   1907000  -652.5668       106.27052     -758.83732      280.72091      414.00388      1920.3708      0.9969611
   1908000  -626.18231      122.54882     -748.73112      323.72117     -1561.0379      1920.3708      0.9969611
   1909000  -642.50551      121.06234     -763.56785      319.79453      3462.5696      1920.3708      0.9969611
   1910000  -659.40493      102.84972     -762.25466      271.68465      520.94062      1920.3708      0.9969611
   1911000  -613.19685      109.59005     -722.7869       289.4897       1022.5264      1920.3708      0.9969611
   1912000  -630.27204      118.43053     -748.70257      312.84243     -330.10329      1920.3708      0.9969611
   1913000  -640.32236      124.94524     -765.2676       330.05148     -1134.1926      1920.3708      0.9969611
   1914000  -621.75952      113.08703     -734.84655      298.7272      -1772.2153      1920.3708      0.9969611
   1915000  -643.12094      114.37025     -757.49119      302.11692      2669.285       1920.3708      0.9969611
   1916000  -624.40154      115.36665     -739.7682       304.74899     -910.22755      1920.3708      0.9969611
   1917000  -649.7777       112.88801     -762.66571      298.20147      1333.1791      1920.3708      0.9969611
   1918000  -634.08317      107.52692     -741.61009      284.03979     -1332.803       1920.3708      0.9969611
   1919000  -657.90619      102.55076     -760.45695      270.89492      960.3293       1920.3708      0.9969611
   1920000  -627.91009      115.67712     -743.58721      305.56911      1297.8648      1920.3708      0.9969611
   1921000  -631.79963      106.6463      -738.44592      281.71356      1244.3281      1920.3708      0.9969611
   1922000  -642.41565      108.77143     -751.18708      287.32726      599.49163      1920.3708      0.9969611
   1923000  -634.94575      110.73285     -745.6786       292.50848     -1701.0744      1920.3708      0.9969611
   1924000  -635.5058       126.34174     -761.84754      333.74043      2253.2325      1920.3708      0.9969611
   1925000  -599.40179      120.3973      -719.7991       318.0378       467.62128      1920.3708      0.9969611
   1926000  -638.98522      109.92307     -748.90829      290.36939      2108.4814      1920.3708      0.9969611
   1927000  -620.26579      117.19315     -737.45894      309.5738      -674.78612      1920.3708      0.9969611
   1928000  -608.54054      110.98146     -719.52199      293.16518     -2411.7374      1920.3708      0.9969611
   1929000  -629.69119      110.90461     -740.5958       292.96219      38.730925      1920.3708      0.9969611
   1930000  -657.29356      108.86474     -766.1583       287.57372      369.27926      1920.3708      0.9969611
   1931000  -633.81118      107.20196     -741.01314      283.18139      1172.7897      1920.3708      0.9969611
   1932000  -627.90889      98.690606     -726.59949      260.69806      641.12017      1920.3708      0.9969611
   1933000  -584.65409      133.05958     -717.71367      351.48607     -288.8471       1920.3708      0.9969611
   1934000  -596.7874       126.62117     -723.40856      334.47856      816.70249      1920.3708      0.9969611
   1935000  -631.79628      107.40423     -739.2005       283.71569     -411.94529      1920.3708      0.9969611
   1936000  -614.63192      124.34121     -738.97313      328.45589     -1167.5211      1920.3708      0.9969611
   1937000  -631.30496      114.96256     -746.26752      303.68155     -1115.7867      1920.3708      0.9969611
   1938000  -623.57983      117.70498     -741.28481      310.92584     -344.15546      1920.3708      0.9969611
   1939000  -621.95741      111.38064     -733.33805      294.21966      786.84998      1920.3708      0.9969611
   1940000  -610.31223      126.37949     -736.69172      333.84015      3011.0556      1920.3708      0.9969611
   1941000  -641.87396      110.1029      -751.97686      290.84441      1025.3183      1920.3708      0.9969611
   1942000  -613.90314      120.50433     -734.40747      318.32052     -1380.393       1920.3708      0.9969611
   1943000  -626.79316      110.22224     -737.01539      291.15966     -1194.0849      1920.3708      0.9969611
   1944000  -643.92147      104.35855     -748.28002      275.67031     -172.03725      1920.3708      0.9969611
   1945000  -624.31376      111.47617     -735.78993      294.472       -2250.3101      1920.3708      0.9969611
   1946000  -601.69969      124.0686      -725.76829      327.73579      2296.7983      1920.3708      0.9969611
   1947000  -620.80695      108.33159     -729.13853      286.16537      1054.3738      1920.3708      0.9969611
   1948000  -629.68913      110.60672     -740.29584      292.17529      1126.7922      1920.3708      0.9969611
   1949000  -595.60871      123.54479     -719.15349      326.35209      1240.7269      1920.3708      0.9969611
   1950000  -606.30913      118.33484     -724.64397      312.58967      2017.8462      1920.3708      0.9969611
   1951000  -611.3317       122.206       -733.5377       322.8156      -853.63963      1920.3708      0.9969611
   1952000  -659.61092      114.82873     -774.43965      303.32804     -949.52893      1920.3708      0.9969611
   1953000  -628.04197      114.29709     -742.33906      301.92367     -727.05316      1920.3708      0.9969611
   1954000  -610.34591      122.78814     -733.13405      324.35335      955.67922      1920.3708      0.9969611
   1955000  -614.6389       121.01388     -735.65278      319.66653      1210.4306      1920.3708      0.9969611
   1956000  -627.67705      114.21316     -741.8902       301.70194      1627.8108      1920.3708      0.9969611
   1957000  -648.16115      105.0554      -753.21655      277.51109      55.430165      1920.3708      0.9969611
   1958000  -620.84023      112.45462     -733.29485      297.05664      2249.5368      1920.3708      0.9969611
   1959000  -607.38194      107.01471     -714.39664      282.68675     -485.09413      1920.3708      0.9969611
   1960000  -622.49304      106.47205     -728.96509      281.25328     -552.33191      1920.3708      0.9969611
   1961000  -611.33525      118.01547     -729.35072      311.74602      2961.3776      1920.3708      0.9969611
   1962000  -666.82003      87.721678     -754.54171      231.72288      19.819671      1920.3708      0.9969611
   1963000  -644.36769      98.314486     -742.68218      259.70451     -231.49189      1920.3708      0.9969611
   1964000  -629.61503      111.54572     -741.16076      294.65574      1095.008       1920.3708      0.9969611
   1965000  -665.81912      92.261203     -758.08033      243.71435      986.2457       1920.3708      0.9969611
   1966000  -613.68493      123.31088     -736.99581      325.73421      1492.8824      1920.3708      0.9969611
   1967000  -645.89905      103.47971     -749.37876      273.34879     -577.70897      1920.3708      0.9969611
   1968000  -608.33272      126.81032     -735.14304      334.97822     -1757.1311      1920.3708      0.9969611
   1969000  -625.44354      110.05111     -735.49465      290.70762      957.18144      1920.3708      0.9969611
   1970000  -609.83986      121.6248      -731.46465      321.28031      389.94225      1920.3708      0.9969611
   1971000  -601.86767      111.41694     -713.28461      294.31555     -1284.9666      1920.3708      0.9969611
   1972000  -625.47249      109.66846     -735.14095      289.69682     -726.36225      1920.3708      0.9969611
   1973000  -646.73602      107.6814      -754.41741      284.44786     -2186.1359      1920.3708      0.9969611
   1974000  -612.59276      115.67884     -728.2716       305.57365     -1155.9937      1920.3708      0.9969611
   1975000  -638.81225      110.8987      -749.71095      292.94658     -529.43678      1920.3708      0.9969611
   1976000  -653.83588      99.624546     -753.46043      263.16512      2419.3895      1920.3708      0.9969611
   1977000  -636.46566      103.35087     -739.81653      273.00846     -4294.1678      1920.3708      0.9969611
   1978000  -643.98348      115.53204     -759.51552      305.18586      1195.349       1920.3708      0.9969611
   1979000  -641.61768      114.0081      -755.62578      301.16027      1558.5466      1920.3708      0.9969611
   1980000  -645.99403      104.06825     -750.06228      274.90347     -1370.26        1920.3708      0.9969611
   1981000  -608.04303      127.31361     -735.35664      336.30769     -1400.6825      1920.3708      0.9969611
   1982000  -659.56536      107.46147     -767.02683      283.8669      -2226.3411      1920.3708      0.9969611
   1983000  -631.2225       121.05366     -752.27615      319.7716       2156.9241      1920.3708      0.9969611
   1984000  -629.27259      126.83616     -756.10875      335.04648      1324.7275      1920.3708      0.9969611
   1985000  -629.5317       111.99073     -741.52243      295.83124     -1226.3031      1920.3708      0.9969611
   1986000  -662.00562      98.900518     -760.90614      261.25255     -830.49458      1920.3708      0.9969611
   1987000  -618.83919      125.33363     -744.17282      331.07745      1109.4693      1920.3708      0.9969611
   1988000  -640.48901      108.71498     -749.20399      287.17812      941.0093       1920.3708      0.9969611
   1989000  -605.21675      138.40075     -743.6175       365.59515      1039.7923      1920.3708      0.9969611
   1990000  -622.44539      123.05477     -745.50016      325.05768      832.54646      1920.3708      0.9969611
   1991000  -643.14159      115.25291     -758.3945       304.44852     -982.98522      1920.3708      0.9969611
   1992000  -645.49515      104.18735     -749.68251      275.21809     -2265.2298      1920.3708      0.9969611
   1993000  -608.89067      121.26507     -730.15574      320.33006      474.15776      1920.3708      0.9969611
   1994000  -630.29753      113.54277     -743.84031      299.93108     -1269.2419      1920.3708      0.9969611
   1995000  -631.47967      109.60818     -741.08785      289.53758     -426.652        1920.3708      0.9969611
   1996000  -632.92599      111.98097     -744.90696      295.80548      1650.7186      1920.3708      0.9969611
   1997000  -636.17247      104.1903      -740.36277      275.22587      133.48918      1920.3708      0.9969611
   1998000  -627.19959      113.14403     -740.34362      298.87776      1350.1016      1920.3708      0.9969611
   1999000  -646.98568      101.30214     -748.28782      267.59662     -997.90132      1920.3708      0.9969611
   2000000  -617.89594      126.02929     -743.92523      332.91507      181.29861      1920.3708      0.9969611
   2001000  -637.34137      96.019867     -733.36124      253.64312      4306.0908      1920.3708      0.9969611
   2002000  -627.38567      106.6685      -734.05418      281.77222      507.11956      1920.3708      0.9969611
   2003000  -617.51868      108.80627     -726.32495      287.41928     -128.72971      1920.3708      0.9969611
   2004000  -619.95122      115.86209     -735.81331      306.05771      1492.6507      1920.3708      0.9969611
   2005000  -639.23562      112.69172     -751.92735      297.68297     -1391.8664      1920.3708      0.9969611
   2006000  -631.73168      102.20956     -733.94124      269.99362     -1703.6117      1920.3708      0.9969611
   2007000  -615.99001      123.25676     -739.24678      325.59126     -286.50354      1920.3708      0.9969611
   2008000  -588.07295      125.79035     -713.8633       332.28391      1127.5394      1920.3708      0.9969611
   2009000  -632.26237      120.11703     -752.37939      317.29742      936.35345      1920.3708      0.9969611
   2010000  -633.07252      109.76032     -742.83283      289.93946     -1083.8505      1920.3708      0.9969611
   2011000  -625.32797      122.32452     -747.65249      323.12866     -554.72236      1920.3708      0.9969611
   2012000  -651.4052       113.08351     -764.48871      298.7179      -2093.8321      1920.3708      0.9969611
   2013000  -618.82949      112.34449     -731.17397      296.76572     -134.20088      1920.3708      0.9969611
   2014000  -655.56316      113.95105     -769.51421      301.00957      2249.2144      1920.3708      0.9969611
   2015000  -648.90687      108.82828     -757.73515      287.47742      1790.6534      1920.3708      0.9969611
   2016000  -636.86373      112.8852      -749.74892      298.19405      289.3676       1920.3708      0.9969611
   2017000  -668.68272      104.42543     -773.10815      275.847       -1156.7928      1920.3708      0.9969611
   2018000  -655.82259      96.743846     -752.56644      255.55556     -504.23674      1920.3708      0.9969611
   2019000  -631.29156      117.84115     -749.13271      311.28553      1246.5847      1920.3708      0.9969611
   2020000  -620.93932      119.2775      -740.21682      315.07975      700.60832      1920.3708      0.9969611
   2021000  -628.89515      110.23711     -739.13226      291.19894     -496.09517      1920.3708      0.9969611
   2022000  -626.93824      110.86705     -737.80529      292.86298      2945.6042      1920.3708      0.9969611
   2023000  -656.53016      100.07974     -756.6099       264.36755     -258.78273      1920.3708      0.9969611
   2024000  -613.27188      121.248       -734.51988      320.28498      1636.2265      1920.3708      0.9969611
   2025000  -641.73436      98.997744     -740.7321       261.50938      1339.6445      1920.3708      0.9969611
   2026000  -642.68054      103.41541     -746.09595      273.17896     -535.88704      1920.3708      0.9969611
   2027000  -630.68566      120.24276     -750.92842      317.62956      1192.6801      1920.3708      0.9969611
   2028000  -618.08826      110.49455     -728.58282      291.879        901.82417      1920.3708      0.9969611
   2029000  -603.13619      119.20443     -722.34062      314.88673     -358.32088      1920.3708      0.9969611
   2030000  -624.15813      104.47975     -728.63788      275.99049      1094.8445      1920.3708      0.9969611
   2031000  -600.11891      113.09036     -713.20927      298.736        3006.24        1920.3708      0.9969611
   2032000  -611.96006      112.85322     -724.81328      298.10957      1805.2031      1920.3708      0.9969611
   2033000  -629.61122      110.54263     -740.15385      292.00599     -2058.5231      1920.3708      0.9969611
   2034000  -651.34998      98.998791     -750.34877      261.51215     -1118.6534      1920.3708      0.9969611
   2035000  -637.62952      119.9389      -757.56842      316.82689      508.64604      1920.3708      0.9969611
   2036000  -637.38711      116.35793     -753.74504      307.3675       1834.5771      1920.3708      0.9969611
   2037000  -621.42939      108.77465     -730.20404      287.33575      1741.6027      1920.3708      0.9969611
   2038000  -619.87818      107.65301     -727.53119      284.37287      75.209152      1920.3708      0.9969611
   2039000  -629.80937      104.74699     -734.55636      276.6964      -714.20429      1920.3708      0.9969611
   2040000  -624.75746      101.76608     -726.52354      268.82213     -731.97692      1920.3708      0.9969611
   2041000  -645.50603      108.84558     -754.35161      287.52311      1934.6396      1920.3708      0.9969611
   2042000  -632.40557      104.58528     -736.99085      276.26925     -20.23498       1920.3708      0.9969611
   2043000  -633.32553      107.15505     -740.48058      283.05748      216.0877       1920.3708      0.9969611
   2044000  -632.74787      109.06954     -741.81741      288.11472     -387.21311      1920.3708      0.9969611
   2045000  -612.54807      107.84593     -720.394        284.88248      3647.1908      1920.3708      0.9969611
   2046000  -610.14608      134.53795     -744.68403      355.39128      2063.9187      1920.3708      0.9969611
   2047000  -639.5299       107.95688     -747.48678      285.17556     -57.339141      1920.3708      0.9969611
   2048000  -625.98737      126.51404     -752.5014       334.19558      2083.2592      1920.3708      0.9969611
   2049000  -640.19139      107.94085     -748.13223      285.1332      -3248.9106      1920.3708      0.9969611
   2050000  -643.18124      107.68325     -750.86449      284.45274     -1013.1686      1920.3708      0.9969611
   2051000  -624.05625      104.93393     -728.99018      277.19024     -1482.4203      1920.3708      0.9969611
   2052000  -642.69317      115.58854     -758.28172      305.33512     -856.34732      1920.3708      0.9969611
   2053000  -632.96289      111.34253     -744.30542      294.11899     -590.99218      1920.3708      0.9969611
   2054000  -629.41826      105.25213     -734.67039      278.03077     -1086.1855      1920.3708      0.9969611
   2055000  -646.26421      111.96208     -758.22629      295.75557      472.43631      1920.3708      0.9969611
   2056000  -634.09499      123.92343     -758.01842      327.3523       924.25126      1920.3708      0.9969611
   2057000  -623.40554      104.45144     -727.85698      275.9157      -1554.589       1920.3708      0.9969611
   2058000  -641.62319      103.31704     -744.94023      272.91911      3755.9302      1920.3708      0.9969611
   2059000  -600.95527      123.21833     -724.1736       325.48973      2856.8621      1920.3708      0.9969611
   2060000  -622.47595      122.90104     -745.37698      324.65158      4700.3759      1920.3708      0.9969611
   2061000  -619.37728      115.87197     -735.24926      306.08382      2968.761       1920.3708      0.9969611
   2062000  -657.69112      109.37101     -767.06213      288.91108      2310.4228      1920.3708      0.9969611
   2063000  -640.69402      115.15892     -755.85294      304.20026      690.20662      1920.3708      0.9969611
   2064000  -665.34306      102.96644     -768.3095       271.99296      617.27222      1920.3708      0.9969611
   2065000  -623.39598      111.02045     -734.41643      293.26818     -1408.5236      1920.3708      0.9969611
   2066000  -624.37517      127.7522      -752.12737      337.46626     -712.52735      1920.3708      0.9969611
   2067000  -655.8326       101.27374     -757.10635      267.52159      558.06918      1920.3708      0.9969611
   2068000  -613.29723      129.90922     -743.20646      343.16419      124.97786      1920.3708      0.9969611
   2069000  -619.44584      105.5641      -725.00995      278.85488      1355.789       1920.3708      0.9969611
   2070000  -636.7841       108.66827     -745.45237      287.05475      856.93895      1920.3708      0.9969611
   2071000  -637.8412       103.3718      -741.213        273.06375     -189.70885      1920.3708      0.9969611
   2072000  -631.60376      115.09907     -746.70283      304.04214      1304.9886      1920.3708      0.9969611
   2073000  -645.01512      109.03056     -754.04568      288.01176     -149.93069      1920.3708      0.9969611
   2074000  -625.60666      117.04163     -742.6483       309.17357     -44.730788      1920.3708      0.9969611
   2075000  -636.40371      115.57886     -751.98257      305.30955      1849.101       1920.3708      0.9969611
   2076000  -623.00234      117.85694     -740.85928      311.32726     -2279.2195      1920.3708      0.9969611
   2077000  -629.94642      105.58728     -735.5337       278.9161       855.80921      1920.3708      0.9969611
   2078000  -604.60017      119.60873     -724.2089       315.95472      571.24039      1920.3708      0.9969611
   2079000  -631.41765      108.43098     -739.84864      286.42794      4193.0922      1920.3708      0.9969611
   2080000  -624.2844       117.36597     -741.65037      310.03033     -591.35621      1920.3708      0.9969611
   2081000  -610.26953      121.66237     -731.9319       321.37956      1410.7379      1920.3708      0.9969611
   2082000  -608.53288      134.15354     -742.68642      354.37585      1171.7356      1920.3708      0.9969611
   2083000  -634.20576      105.13865     -739.34441      277.73102      101.86547      1920.3708      0.9969611
   2084000  -625.44102      112.21168     -737.6527       296.41491     -1205.5129      1920.3708      0.9969611
   2085000  -651.94779      100.90815     -752.85594      266.55586     -269.27881      1920.3708      0.9969611
   2086000  -625.5721       116.45354     -742.02563      307.62006      3139.3062      1920.3708      0.9969611
   2087000  -618.62524      114.57734     -733.20258      302.66397      1297.3786      1920.3708      0.9969611
   2088000  -605.35859      116.44217     -721.80075      307.59003     -316.70611      1920.3708      0.9969611
   2089000  -633.48432      113.82152     -747.30584      300.66742      217.93275      1920.3708      0.9969611
   2090000  -633.29514      108.60468     -741.89982      286.88677     -902.74074      1920.3708      0.9969611
   2091000  -630.96871      115.91687     -746.88557      306.20241      1783.5417      1920.3708      0.9969611
   2092000  -650.92754      104.42034     -755.34789      275.83355     -460.17046      1920.3708      0.9969611
   2093000  -624.9824       118.86825     -743.85064      313.99869     -501.726        1920.3708      0.9969611
   2094000  -588.62768      116.53476     -705.16244      307.83462      73.151631      1920.3708      0.9969611
   2095000  -637.90229      99.91301      -737.8153       263.92712      483.77214      1920.3708      0.9969611
   2096000  -618.11502      124.30277     -742.41779      328.35435     -2620.0816      1920.3708      0.9969611
   2097000  -616.50307      118.38491     -734.88797      312.72191      1278.0805      1920.3708      0.9969611
   2098000  -631.6061       103.44022     -735.04632      273.24449      1182.9791      1920.3708      0.9969611
   2099000  -619.49417      112.019       -731.51316      295.90592      2563.3964      1920.3708      0.9969611
   2100000  -645.16141      105.89836     -751.05977      279.73784     -526.21115      1920.3708      0.9969611
   2101000  -627.07447      112.33377     -739.40825      296.73743      1101.3367      1920.3708      0.9969611
   2102000  -627.75017      112.57969     -740.32986      297.38703      231.20568      1920.3708      0.9969611
   2103000  -657.96583      107.10314     -765.06897      282.92035      69.894619      1920.3708      0.9969611
   2104000  -631.63961      123.82338     -755.46299      327.08801     -661.96598      1920.3708      0.9969611
   2105000  -658.66144      99.485876     -758.14732      262.79882      658.96616      1920.3708      0.9969611
   2106000  -626.05257      117.04623     -743.0988       309.18571      89.314727      1920.3708      0.9969611
   2107000  -633.34605      106.12192     -739.46796      280.32838      233.70828      1920.3708      0.9969611
   2108000  -603.87788      117.26154     -721.13942      309.75446     -574.8662       1920.3708      0.9969611
   2109000  -631.25309      108.93856     -740.19165      287.76873     -93.95055       1920.3708      0.9969611
   2110000  -645.09893      108.85258     -753.95151      287.54162      1141.8797      1920.3708      0.9969611
   2111000  -635.69543      108.79806     -744.49349      287.3976      -932.44144      1920.3708      0.9969611
   2112000  -614.1388       114.72088     -728.85968      303.04314     -2438.926       1920.3708      0.9969611
   2113000  -640.39656      101.98147     -742.37802      269.39109     -350.02713      1920.3708      0.9969611
   2114000  -632.9622       127.38693     -760.34913      336.50139     -743.66991      1920.3708      0.9969611
   2115000  -647.17183      112.73015     -759.90198      297.78448      472.88818      1920.3708      0.9969611
   2116000  -617.47718      123.79184     -741.26903      327.00471      3156.1865      1920.3708      0.9969611
   2117000  -616.45644      106.83301     -723.28944      282.20677      625.51352      1920.3708      0.9969611
   2118000  -637.70482      112.22919     -749.93402      296.46117     -1393.769       1920.3708      0.9969611
   2119000  -612.27952      117.46473     -729.74424      310.29119      1241.126       1920.3708      0.9969611
   2120000  -626.11169      113.3991      -739.51079      299.55156      2862.8338      1920.3708      0.9969611
   2121000  -624.60792      114.76926     -739.37718      303.17094     -1193.152       1920.3708      0.9969611
   2122000  -644.76971      114.35921     -759.12892      302.08777     -1086.7864      1920.3708      0.9969611
   2123000  -620.90808      119.37001     -740.27809      315.32413     -562.86029      1920.3708      0.9969611
   2124000  -618.43677      114.15821     -732.59498      301.55679     -203.51697      1920.3708      0.9969611
   2125000  -607.34442      119.66749     -727.01191      316.10993      786.67587      1920.3708      0.9969611
   2126000  -648.85671      127.9654      -776.8221       338.02944     -3342.6695      1920.3708      0.9969611
   2127000  -631.66925      111.21051     -742.87976      293.77024      29.558663      1920.3708      0.9969611
   2128000  -608.8491       122.98218     -731.83128      324.86593      445.54597      1920.3708      0.9969611
   2129000  -620.01832      109.47893     -729.49725      289.19615      419.55169      1920.3708      0.9969611
   2130000  -583.06273      129.68051     -712.74324      342.56002     -882.51722      1920.3708      0.9969611
   2131000  -628.89589      109.33668     -738.23257      288.82039      4695.6275      1920.3708      0.9969611
   2132000  -637.6078       110.86251     -748.47031      292.85098     -3278.6023      1920.3708      0.9969611
   2133000  -646.54801      115.15212     -761.70014      304.18229     -319.50463      1920.3708      0.9969611
   2134000  -651.79199      103.63323     -755.42521      273.75433      142.29322      1920.3708      0.9969611
   2135000  -623.57892      116.70212     -740.28104      308.27672     -454.47993      1920.3708      0.9969611
   2136000  -643.02963      111.77572     -754.80535      295.26329     -1678.5443      1920.3708      0.9969611
   2137000  -621.19647      118.64185     -739.83832      313.40064      778.75966      1920.3708      0.9969611
   2138000  -622.06022      112.39059     -734.45082      296.88752      3521.7666      1920.3708      0.9969611
   2139000  -643.13464      104.68841     -747.82305      276.54168      717.88038      1920.3708      0.9969611
   2140000  -640.5256       102.83031     -743.35591      271.63337     -2595.3018      1920.3708      0.9969611
   2141000  -646.66823      114.33032     -760.99855      302.01145      882.88807      1920.3708      0.9969611
   2142000  -636.00637      114.10131     -750.10768      301.40649      2454.211       1920.3708      0.9969611
   2143000  -630.33019      108.31646     -738.64665      286.12543     -1100.833       1920.3708      0.9969611
   2144000  -631.8          113.01909     -744.81908      298.54772     -154.1729       1920.3708      0.9969611
   2145000  -623.19004      117.49326     -740.68329      310.36656     -1577.9611      1920.3708      0.9969611
   2146000  -649.82469      106.89928     -756.72397      282.38184     -3995.9345      1920.3708      0.9969611
   2147000  -637.47133      110.27744     -747.74876      291.30547     -372.9985       1920.3708      0.9969611
   2148000  -626.51075      117.33908     -743.84984      309.9593      -1080.1769      1920.3708      0.9969611
   2149000  -650.60103      103.44164     -754.04268      273.24825      1391.4576      1920.3708      0.9969611
   2150000  -643.48959      103.86666     -747.35624      274.37096     -1206.3443      1920.3708      0.9969611
   2151000  -591.25459      122.35097     -713.60556      323.19854      842.31227      1920.3708      0.9969611
   2152000  -627.29651      110.88002     -738.17653      292.89724     -2347.1173      1920.3708      0.9969611
   2153000  -614.43947      132.00346     -746.44293      348.69626     -1542.2404      1920.3708      0.9969611
   2154000  -646.24601      99.455505     -745.70152      262.71859      1496.1913      1920.3708      0.9969611
   2155000  -619.26556      110.77803     -730.04359      292.62782      2581.5596      1920.3708      0.9969611
   2156000  -639.51051      102.0498      -741.56031      269.57161      211.52406      1920.3708      0.9969611
   2157000  -639.51577      113.93555     -753.45132      300.96863     -316.55461      1920.3708      0.9969611
   2158000  -630.04201      109.57304     -739.61505      289.44475      124.24598      1920.3708      0.9969611
   2159000  -644.51981      114.08887     -758.60868      301.37363     -2096.1185      1920.3708      0.9969611
   2160000  -626.28895      121.9678      -748.25675      322.18637      636.12385      1920.3708      0.9969611
   2161000  -642.51102      113.27937     -755.79039      299.23528      626.25607      1920.3708      0.9969611
   2162000  -620.42246      118.1432      -738.56566      312.08342      2683.9388      1920.3708      0.9969611
   2163000  -606.66576      128.47856     -735.14433      339.38501      1440.3032      1920.3708      0.9969611
   2164000  -612.73755      126.17416     -738.91171      333.29777     -1850.039       1920.3708      0.9969611
   2165000  -633.6464       107.89959     -741.54599      285.02423     -1450.1355      1920.3708      0.9969611
   2166000  -650.34831      107.52267     -757.87098      284.02858      51.326779      1920.3708      0.9969611
   2167000  -626.27791      114.89199     -741.1699       303.49513      627.47604      1920.3708      0.9969611
   2168000  -651.93872      98.489544     -750.42827      260.16694      1454.9706      1920.3708      0.9969611
   2169000  -613.86672      121.30117     -735.16789      320.42542      695.21765      1920.3708      0.9969611
   2170000  -632.00314      109.96895     -741.97209      290.49059      1483.3504      1920.3708      0.9969611
   2171000  -655.35063      111.22753     -766.57816      293.8152      -286.11763      1920.3708      0.9969611
   2172000  -632.05527      107.43735     -739.49262      283.80317      704.77278      1920.3708      0.9969611
   2173000  -604.10552      137.41123     -741.51675      362.98127      902.10109      1920.3708      0.9969611
   2174000  -638.27112      102.75068     -741.02181      271.42303     -185.867        1920.3708      0.9969611
   2175000  -628.45238      116.25835     -744.71074      307.10448     -111.4387       1920.3708      0.9969611
   2176000  -653.39951      110.20695     -763.60646      291.11926      559.24032      1920.3708      0.9969611
   2177000  -639.04875      102.45177     -741.50052      270.63343      1929.5929      1920.3708      0.9969611
   2178000  -636.56122      113.1703      -749.73152      298.94716      741.06405      1920.3708      0.9969611
   2179000  -642.15353      117.92496     -760.07849      311.50693     -379.21614      1920.3708      0.9969611
   2180000  -607.14023      112.70152     -719.84174      297.70885     -486.94214      1920.3708      0.9969611
   2181000  -632.50924      109.77586     -742.2851       289.98052     -2742.6855      1920.3708      0.9969611
   2182000  -607.57622      120.82676     -728.40297      319.17223     -2929.091       1920.3708      0.9969611
   2183000  -640.80746      111.17412     -751.98158      293.67411      701.94242      1920.3708      0.9969611
   2184000  -622.82722      103.90772     -726.73494      274.47941     -863.39817      1920.3708      0.9969611
   2185000  -624.33966      114.2829      -738.62256      301.88617      1054.6736      1920.3708      0.9969611
   2186000  -614.51418      109.11656     -723.63074      288.23893      216.8017       1920.3708      0.9969611
   2187000  -630.51479      117.45192     -747.96671      310.25737      189.38782      1920.3708      0.9969611
   2188000  -615.09477      113.07358     -728.16835      298.69169      2387.2935      1920.3708      0.9969611
   2189000  -630.3784       116.25262     -746.63102      307.08933      1975.3538      1920.3708      0.9969611
   2190000  -624.81647      114.55389     -739.37036      302.60202     -997.15278      1920.3708      0.9969611
   2191000  -602.51377      121.12927     -723.64304      319.97133     -143.5159       1920.3708      0.9969611
   2192000  -632.62189      114.25373     -746.87562      301.80912     -3053.4219      1920.3708      0.9969611
   2193000  -621.04432      112.1506      -733.19492      296.25355      2456.7896      1920.3708      0.9969611
   2194000  -641.78806      121.1259      -762.91396      319.96244      1843.9806      1920.3708      0.9969611
   2195000  -616.82626      124.45371     -741.27997      328.75307     -659.49849      1920.3708      0.9969611
   2196000  -645.39714      115.6607      -761.05784      305.52573      1531.7651      1920.3708      0.9969611
   2197000  -621.76961      114.87952     -736.64912      303.46219     -954.16384      1920.3708      0.9969611
   2198000  -673.23809      99.547084     -772.78517      262.9605       1164.9958      1920.3708      0.9969611
   2199000  -649.68408      115.47729     -765.16137      305.04125     -327.65349      1920.3708      0.9969611
   2200000  -632.24508      122.05832     -754.3034       322.42549      2493.4631      1920.3708      0.9969611
   2201000  -632.3931       115.0634      -747.4565       303.94793     -1029.5708      1920.3708      0.9969611
   2202000  -638.09769      113.95123     -752.04891      301.01004      417.99175      1920.3708      0.9969611
   2203000  -640.62985      106.41555     -747.0454       281.10403      335.19985      1920.3708      0.9969611
   2204000  -630.66386      104.70855     -735.37241      276.59487      1614.39        1920.3708      0.9969611
   2205000  -645.49164      110.77068     -756.26232      292.60842     -510.96553      1920.3708      0.9969611
   2206000  -624.13623      119.04151     -743.17774      314.45637     -813.85444      1920.3708      0.9969611
   2207000  -646.91505      105.20592     -752.12097      277.90871      1605.128       1920.3708      0.9969611
   2208000  -660.5521       103.34816     -763.90026      273.00129      205.88648      1920.3708      0.9969611
   2209000  -625.10696      112.14533     -737.25229      296.23963      192.46         1920.3708      0.9969611
   2210000  -609.20125      108.17901     -717.38026      285.76232      826.16396      1920.3708      0.9969611
   2211000  -641.93071      108.29112     -750.22183      286.05847     -2038.3998      1920.3708      0.9969611
   2212000  -609.14918      111.69558     -720.84476      295.05158     -369.13234      1920.3708      0.9969611
   2213000  -622.73283      112.94185     -735.67469      298.34371     -718.62067      1920.3708      0.9969611
   2214000  -629.96079      120.6127      -750.57349      318.60679     -188.49114      1920.3708      0.9969611
   2215000  -636.8002       106.65345     -743.45365      281.73245      1058.0032      1920.3708      0.9969611
   2216000  -621.24083      107.55647     -728.7973       284.11785     -859.14002      1920.3708      0.9969611
   2217000  -616.15593      116.03308     -732.18901      306.5094       2510.3483      1920.3708      0.9969611
   2218000  -642.97463      99.218926     -742.19355      262.09365      3237.7302      1920.3708      0.9969611
   2219000  -625.11731      126.49023     -751.60754      334.13269     -2722.4287      1920.3708      0.9969611
   2220000  -636.78257      120.39366     -757.17623      318.02819     -586.03014      1920.3708      0.9969611
   2221000  -616.51699      124.02874     -740.54572      327.63048      478.04527      1920.3708      0.9969611
   2222000  -627.86337      132.80722     -760.67059      350.81944      478.82821      1920.3708      0.9969611
   2223000  -621.01448      125.17144     -746.18592      330.64902     -2442.0905      1920.3708      0.9969611
   2224000  -593.56397      122.17107     -715.73504      322.72333     -1249.0193      1920.3708      0.9969611
   2225000  -614.8395       121.18052     -736.02002      320.10672      1674.3858      1920.3708      0.9969611
   2226000  -625.44213      113.50124     -738.94337      299.82138      17.373023      1920.3708      0.9969611
   2227000  -621.76607      120.99572     -742.76179      319.61856     -482.12592      1920.3708      0.9969611
   2228000  -629.38992      109.18382     -738.57374      288.4166      -1070.4584      1920.3708      0.9969611
   2229000  -610.83032      112.81387     -723.64419      298.00564     -2412.7779      1920.3708      0.9969611
   2230000  -623.13167      112.39365     -735.52532      296.8956       376.7342       1920.3708      0.9969611
   2231000  -634.53736      107.60445     -742.14181      284.24459      1059.4337      1920.3708      0.9969611
   2232000  -635.40794      101.8251      -737.23304      268.97804     -1421.2713      1920.3708      0.9969611
   2233000  -607.47756      131.2158      -738.69337      346.61561      970.09519      1920.3708      0.9969611
   2234000  -637.29386      105.37122     -742.66508      278.34536      1432.7342      1920.3708      0.9969611
   2235000  -629.30813      124.05347     -753.3616       327.69581     -449.11806      1920.3708      0.9969611
   2236000  -650.29872      113.82851     -764.12723      300.68587      1163.57        1920.3708      0.9969611
   2237000  -646.21091      108.4677      -754.67861      286.52494      786.65202      1920.3708      0.9969611
   2238000  -630.40809      113.67019     -744.07828      300.26766      561.7483       1920.3708      0.9969611
   2239000  -629.73134      116.92208     -746.65341      308.85775      169.71556      1920.3708      0.9969611
   2240000  -625.60409      106.4141      -732.01819      281.1002       73.517998      1920.3708      0.9969611
   2241000  -627.13433      106.67124     -733.80557      281.77945      191.87086      1920.3708      0.9969611
   2242000  -610.66679      110.67497     -721.34177      292.35559     -671.48942      1920.3708      0.9969611
   2243000  -599.82225      127.91055     -727.73279      337.88455     -760.33975      1920.3708      0.9969611
   2244000  -629.41201      112.78612     -742.19813      297.93234      1514.5289      1920.3708      0.9969611
   2245000  -622.60546      117.82327     -740.42873      311.23831      1269.5392      1920.3708      0.9969611
   2246000  -618.41354      114.78294     -733.19648      303.20706      2738.3447      1920.3708      0.9969611
   2247000  -604.38019      136.42599     -740.80618      360.37867      415.99529      1920.3708      0.9969611
   2248000  -643.56886      100.23386     -743.80272      264.77467     -1828.1454      1920.3708      0.9969611
   2249000  -648.33163      114.40062     -762.73225      302.19715     -2735.9191      1920.3708      0.9969611
   2250000  -641.64741      102.06865     -743.71606      269.62139     -974.91093      1920.3708      0.9969611
   2251000  -613.27866      117.56396     -730.84262      310.55331      1061.1521      1920.3708      0.9969611
   2252000  -626.08651      110.34829     -736.43481      291.49265     -211.42587      1920.3708      0.9969611
   2253000  -605.98868      110.26096     -716.24964      291.26194     -355.94085      1920.3708      0.9969611
   2254000  -607.76085      119.079       -726.83984      314.5554      -75.910296      1920.3708      0.9969611
   2255000  -623.19193      101.2111      -724.40304      267.35612     -637.8818       1920.3708      0.9969611
   2256000  -631.39329      102.56839     -733.96168      270.94149      681.90556      1920.3708      0.9969611
   2257000  -617.91977      117.59738     -735.51715      310.6416       67.437281      1920.3708      0.9969611
   2258000  -629.62694      125.06187     -754.68881      330.35958      1637.4583      1920.3708      0.9969611
   2259000  -634.34263      106.00951     -740.35214      280.03145     -937.00142      1920.3708      0.9969611
   2260000  -630.51172      113.30831     -743.82003      299.31173      561.74283      1920.3708      0.9969611
   2261000  -640.44373      99.245481     -739.68922      262.1638      -1396.1284      1920.3708      0.9969611
   2262000  -635.21015      112.00145     -747.2116       295.85958     -1607.5764      1920.3708      0.9969611
   2263000  -607.73794      118.19088     -725.92882      312.20938      128.53779      1920.3708      0.9969611
   2264000  -627.84385      104.9655      -732.80934      277.27362     -123.04075      1920.3708      0.9969611
   2265000  -610.24755      130.6114      -740.85895      345.01904      2872.2772      1920.3708      0.9969611
   2266000  -624.84179      106.23108     -731.07287      280.61675     -801.46375      1920.3708      0.9969611
   2267000  -644.05904      105.21455     -749.27359      277.9315       428.31613      1920.3708      0.9969611
   2268000  -645.42383      104.5765      -750.00033      276.24606     -1489.9893      1920.3708      0.9969611
   2269000  -614.92501      127.44347     -742.36847      336.65072      1587.9634      1920.3708      0.9969611
   2270000  -636.90241      118.04963     -754.95204      311.83626      858.21905      1920.3708      0.9969611
   2271000  -642.01591      103.75147     -745.76738      274.06669     -1420.899       1920.3708      0.9969611
   2272000  -634.30683      97.05171      -731.35854      256.3688      -1081.6967      1920.3708      0.9969611
   2273000  -622.09827      123.96356     -746.06183      327.45832      658.37037      1920.3708      0.9969611
   2274000  -607.80623      122.89739     -730.70362      324.64194     -2818.8843      1920.3708      0.9969611
   2275000  -617.7103       105.60763     -723.31793      278.96985     -1026.0021      1920.3708      0.9969611
   2276000  -592.35501      127.83645     -720.19146      337.68882     -2275.4656      1920.3708      0.9969611
   2277000  -639.3876       101.05069     -740.43828      266.93237      216.89551      1920.3708      0.9969611
   2278000  -630.29122      108.28263     -738.57385      286.03605     -1832.6594      1920.3708      0.9969611
   2279000  -618.32135      108.83021     -727.15156      287.48252      133.59379      1920.3708      0.9969611
   2280000  -636.84932      119.27973     -756.12905      315.08565     -460.76452      1920.3708      0.9969611
   2281000  -606.64486      109.07648     -715.72133      288.13305     -912.26893      1920.3708      0.9969611
   2282000  -633.28608      112.74235     -746.02844      297.81672      1030.8817      1920.3708      0.9969611
   2283000  -629.97273      119.8318      -749.80453      316.54399     -188.98393      1920.3708      0.9969611
   2284000  -628.88185      117.62294     -746.50479      310.70913      698.21545      1920.3708      0.9969611
   2285000  -613.7645       117.86256     -731.62705      311.34209     -600.63265      1920.3708      0.9969611
   2286000  -629.97246      113.33492     -743.30738      299.38201      724.43216      1920.3708      0.9969611
   2287000  -633.55644      116.57731     -750.13375      307.94702      2941.8788      1920.3708      0.9969611
   2288000  -647.95875      107.03306     -754.99181      282.73522      976.2936       1920.3708      0.9969611
   2289000  -630.44671      119.48223     -749.92894      315.62056      411.63519      1920.3708      0.9969611
   2290000  -611.50169      117.96669     -729.46838      311.61716     -227.27749      1920.3708      0.9969611
   2291000  -662.45109      96.623841     -759.07493      255.23855      138.06022      1920.3708      0.9969611
   2292000  -627.54283      117.1808      -744.72363      309.54118      134.57946      1920.3708      0.9969611
   2293000  -623.35511      109.64788     -733.00299      289.64245      269.01195      1920.3708      0.9969611
   2294000  -612.89897      131.17128     -744.07026      346.49801     -1062.8484      1920.3708      0.9969611
   2295000  -618.18027      114.11992     -732.3002       301.45566     -545.99915      1920.3708      0.9969611
   2296000  -631.67062      107.83329     -739.50391      284.84908      1412.1935      1920.3708      0.9969611
   2297000  -600.03315      121.57005     -721.6032       321.13569      577.00691      1920.3708      0.9969611
   2298000  -627.51808      113.44533     -740.96341      299.67369     -1506.2222      1920.3708      0.9969611
   2299000  -627.61953      121.87609     -749.49562      321.94412     -979.70534      1920.3708      0.9969611
   2300000  -638.10178      103.32199     -741.42377      272.93218      3132.7429      1920.3708      0.9969611
   2301000  -614.97272      108.0411      -723.01382      285.39803     -1516.1074      1920.3708      0.9969611
   2302000  -635.62683      104.31242     -739.93925      275.54847     -4008.722       1920.3708      0.9969611
   2303000  -619.96825      118.14747     -738.11572      312.09471      151.85505      1920.3708      0.9969611
   2304000  -636.51844      113.23721     -749.75566      299.12392      1413.8873      1920.3708      0.9969611
   2305000  -667.52968      104.18087     -771.71055      275.20097     -336.44079      1920.3708      0.9969611
   2306000  -649.32736      120.06048     -769.38784      317.14806      1105.084       1920.3708      0.9969611
   2307000  -617.35046      128.69705     -746.04751      339.96215      1009.5051      1920.3708      0.9969611
   2308000  -621.79578      111.62502     -733.4208       294.86521     -1334.8507      1920.3708      0.9969611
   2309000  -647.78273      124.92488     -772.70762      329.99771      1365.7472      1920.3708      0.9969611
   2310000  -642.2655       107.4763      -749.74181      283.90609     -2993.6382      1920.3708      0.9969611
   2311000  -638.96874      110.49854     -749.46729      291.88954      161.12766      1920.3708      0.9969611
   2312000  -654.81713      98.553807     -753.37094      260.33669     -5.6101788      1920.3708      0.9969611
   2313000  -645.72176      110.06706     -755.78881      290.74974     -575.50167      1920.3708      0.9969611
   2314000  -613.8092       124.89488     -738.70408      329.91846     -3452.8056      1920.3708      0.9969611
   2315000  -611.17113      103.98981     -715.16094      274.69627     -44.32008       1920.3708      0.9969611
   2316000  -620.05421      110.50641     -730.56062      291.91031      1131.003       1920.3708      0.9969611
   2317000  -628.79026      122.5332      -751.32346      323.67992     -353.185        1920.3708      0.9969611
   2318000  -629.36093      119.34052     -748.70145      315.24624     -2882.4132      1920.3708      0.9969611
   2319000  -659.47732      97.331352     -756.80867      257.10749      2047.7506      1920.3708      0.9969611
   2320000  -635.74786      104.99863     -740.74649      277.36113     -554.73396      1920.3708      0.9969611
   2321000  -600.33509      129.14292     -729.47801      341.13996      1674.9778      1920.3708      0.9969611
   2322000  -611.64919      121.17929     -732.82848      320.10346      238.37606      1920.3708      0.9969611
   2323000  -629.639        108.27358     -737.91258      286.01215     -807.66906      1920.3708      0.9969611
   2324000  -620.39528      120.77946     -741.17474      319.0473       529.25413      1920.3708      0.9969611
   2325000  -629.02402      126.48517     -755.50919      334.11931      3277.9758      1920.3708      0.9969611
   2326000  -633.4491       120.33457     -753.78367      317.87208     -2097.084       1920.3708      0.9969611
   2327000  -655.63341      100.18689     -755.8203       264.6506      -1448.4758      1920.3708      0.9969611
   2328000  -616.09083      130.28064     -746.37147      344.14533     -1348.8011      1920.3708      0.9969611
   2329000  -642.83927      116.46845     -759.30772      307.65946     -378.93204      1920.3708      0.9969611
   2330000  -616.6187       106.20124     -722.81994      280.53791     -1523.0194      1920.3708      0.9969611
   2331000  -651.28476      103.84169     -755.12645      274.30499      1189.7508      1920.3708      0.9969611
   2332000  -618.79723      118.35254     -737.14977      312.63643      1850.939       1920.3708      0.9969611
   2333000  -630.01585      108.89401     -738.90985      287.65105     -2019.0711      1920.3708      0.9969611
   2334000  -635.87488      114.93436     -750.80924      303.60707      318.60845      1920.3708      0.9969611
   2335000  -625.19415      116.83665     -742.0308       308.63208      641.32217      1920.3708      0.9969611
   2336000  -628.36807      110.86795     -739.23602      292.86535      2199.5658      1920.3708      0.9969611
   2337000  -640.24682      103.65202     -743.89884      273.80396      132.1564       1920.3708      0.9969611
   2338000  -616.39903      125.41008     -741.80911      331.27939     -2283.8534      1920.3708      0.9969611
   2339000  -629.61399      112.85877     -742.47277      298.12425      221.22155      1920.3708      0.9969611
   2340000  -611.16347      105.84338     -717.00685      279.5926      -163.55686      1920.3708      0.9969611
   2341000  -657.96554      105.4051      -763.37064      278.43486     -1911.0697      1920.3708      0.9969611
   2342000  -618.79809      125.98666     -744.78475      332.80247      884.63094      1920.3708      0.9969611
   2343000  -629.17671      111.24334     -740.42005      293.85697     -1591.9875      1920.3708      0.9969611
   2344000  -651.2076       105.46212     -756.66972      278.58549      1424.6715      1920.3708      0.9969611
   2345000  -638.61383      106.32282     -744.93665      280.85908      2181.166       1920.3708      0.9969611
   2346000  -651.15192      103.72747     -754.87939      274.00328     -428.38603      1920.3708      0.9969611
   2347000  -632.05482      123.65283     -755.70765      326.6375       478.11519      1920.3708      0.9969611
   2348000  -616.26141      113.79087     -730.05227      300.58644      1600.1676      1920.3708      0.9969611
   2349000  -612.15109      121.03781     -733.1889       319.72974     -1402.6453      1920.3708      0.9969611
   2350000  -651.0548       100.61682     -751.67162      265.78629     -1543.8125      1920.3708      0.9969611
   2351000  -624.36936      119.7961      -744.16546      316.44967     -980.60671      1920.3708      0.9969611
   2352000  -644.40833      109.13936     -753.54769      288.29916      489.84061      1920.3708      0.9969611
   2353000  -631.6958       116.61602     -748.31182      308.04928     -686.49092      1920.3708      0.9969611
   2354000  -633.2431       115.69774     -748.94084      305.62359     -3656.6179      1920.3708      0.9969611
   2355000  -617.46834      106.72603     -724.19437      281.92417      2759.2516      1920.3708      0.9969611
   2356000  -634.55321      108.86805     -743.42127      287.58249      1981.8514      1920.3708      0.9969611
   2357000  -612.22283      111.01055     -723.23337      293.24203     -405.20545      1920.3708      0.9969611
   2358000  -608.12583      115.63288     -723.75871      305.45225      855.14275      1920.3708      0.9969611
   2359000  -635.90243      112.07888     -747.9813       296.06409      1517.3985      1920.3708      0.9969611
   2360000  -623.33958      103.44864     -726.78822      273.26672      135.85698      1920.3708      0.9969611
   2361000  -649.2361       110.1782      -759.41429      291.04332     -3164.9833      1920.3708      0.9969611
   2362000  -610.27444      120.98483     -731.25927      319.58979     -1112.2224      1920.3708      0.9969611
   2363000  -628.34354      106.37898     -734.72252      281.00742      3364.0673      1920.3708      0.9969611
   2364000  -616.30418      114.43231     -730.73649      302.28085      3280.284       1920.3708      0.9969611
   2365000  -619.9524       118.42345     -738.37584      312.82372     -1177.558       1920.3708      0.9969611
   2366000  -600.07811      117.95776     -718.03587      311.59357      2746.7247      1920.3708      0.9969611
   2367000  -620.02659      119.70361     -739.7302       316.20535     -1537.3135      1920.3708      0.9969611
   2368000  -653.40425      110.2209      -763.62515      291.15612      1555.1996      1920.3708      0.9969611
   2369000  -628.78312      99.190255     -727.97338      262.01791      2598.0154      1920.3708      0.9969611
   2370000  -621.37519      110.70123     -732.07641      292.42494      615.24561      1920.3708      0.9969611
   2371000  -592.01886      119.13715     -711.156        314.709        1689.1236      1920.3708      0.9969611
   2372000  -625.35937      118.22859     -743.58797      312.309        1960.8024      1920.3708      0.9969611
   2373000  -634.02913      105.88752     -739.91665      279.70919     -451.95599      1920.3708      0.9969611
   2374000  -627.54371      113.7279      -741.27161      300.42012      706.67253      1920.3708      0.9969611
   2375000  -628.50218      101.9412      -730.44338      269.28472     -1608.8079      1920.3708      0.9969611
   2376000  -628.03629      96.177795     -724.21408      254.06029      1917.7543      1920.3708      0.9969611
   2377000  -634.38047      115.91447     -750.29494      306.19608      176.03875      1920.3708      0.9969611
   2378000  -637.94094      117.74331     -755.68425      311.02709      1475.2472      1920.3708      0.9969611
   2379000  -620.87711      114.19457     -735.07167      301.65284      177.75529      1920.3708      0.9969611
   2380000  -620.53296      129.27446     -749.80742      341.48743     -3139.2913      1920.3708      0.9969611
   2381000  -642.01921      109.90095     -751.92016      290.31095      1250.0263      1920.3708      0.9969611
   2382000  -625.09516      109.74317     -734.83833      289.89417     -554.02772      1920.3708      0.9969611
   2383000  -632.40623      109.54669     -741.95292      289.37514     -773.76094      1920.3708      0.9969611
   2384000  -645.31279      107.06407     -752.37686      282.81714     -1346.0038      1920.3708      0.9969611
   2385000  -629.87401      115.71739     -745.5914       305.67547      242.94296      1920.3708      0.9969611
   2386000  -648.06982      110.10946     -758.17928      290.86175      1728.6562      1920.3708      0.9969611
   2387000  -647.9577       113.1633      -761.12099      298.92867      2582.2132      1920.3708      0.9969611
   2388000  -601.53967      110.36377     -711.90344      291.53352     -302.54185      1920.3708      0.9969611
   2389000  -629.65344      96.590634     -726.24407      255.15084      16.487061      1920.3708      0.9969611
   2390000  -617.83776      117.45385     -735.29161      310.26245     -2012.9215      1920.3708      0.9969611
   2391000  -629.30808      111.16186     -740.46994      293.64174     -231.97143      1920.3708      0.9969611
   2392000  -642.24032      114.56488     -756.8052       302.63106     -1798.9518      1920.3708      0.9969611
   2393000  -616.2098       111.53682     -727.74662      294.63221     -1231.3495      1920.3708      0.9969611
   2394000  -634.80389      116.17776     -750.98165      306.89158      385.63636      1920.3708      0.9969611
   2395000  -657.88634      108.61827     -766.50462      286.92267      18.023981      1920.3708      0.9969611
   2396000  -637.84294      119.30214     -757.14508      315.14485     -1809.9586      1920.3708      0.9969611
   2397000  -646.53817      117.13101     -763.66918      309.40966     -345.01738      1920.3708      0.9969611
   2398000  -651.77181      118.91902     -770.69083      314.13281      964.19273      1920.3708      0.9969611
   2399000  -648.05466      104.75194     -752.8066       276.70949      2243.7865      1920.3708      0.9969611
   2400000  -624.97942      111.52698     -736.5064       294.60623      2318.7485      1920.3708      0.9969611
   2401000  -634.83962      125.52729     -760.36691      331.58901     -1356.8087      1920.3708      0.9969611
   2402000  -636.92754      113.58194     -750.50949      300.03456     -3342.6429      1920.3708      0.9969611
   2403000  -627.88844      108.60019     -736.48864      286.87492     -1172.316       1920.3708      0.9969611
   2404000  -619.50891      107.32222     -726.83113      283.49907      35.381833      1920.3708      0.9969611
   2405000  -618.77726      110.77768     -729.55494      292.62688      1549.9271      1920.3708      0.9969611
   2406000  -633.17046      103.04821     -736.21867      272.20896      288.10118      1920.3708      0.9969611
   2407000  -616.54458      115.08428     -731.62886      304.00308      414.60129      1920.3708      0.9969611
   2408000  -624.00657      106.36804     -730.37461      280.97854      2436.8687      1920.3708      0.9969611
   2409000  -633.5721       118.01321     -751.58531      311.74005     -414.66052      1920.3708      0.9969611
   2410000  -656.19141      100.76858     -756.95999      266.18717      814.43025      1920.3708      0.9969611
   2411000  -636.4508       102.63927     -739.09007      271.12872     -236.76613      1920.3708      0.9969611
   2412000  -615.98106      120.31776     -736.29883      317.82769      596.86378      1920.3708      0.9969611
   2413000  -629.36633      109.77416     -739.14049      289.97603      2933.2315      1920.3708      0.9969611
   2414000  -628.69368      110.88577     -739.57945      292.91242     -1051.2011      1920.3708      0.9969611
   2415000  -643.61333      106.76174     -750.37508      282.01852      346.57717      1920.3708      0.9969611
   2416000  -608.88779      118.15384     -727.04163      312.11152     -1841.4057      1920.3708      0.9969611
   2417000  -613.75894      124.73333     -738.49226      329.49171     -2410.7064      1920.3708      0.9969611
   2418000  -624.82554      104.71678     -729.54231      276.6166       1521.8193      1920.3708      0.9969611
   2419000  -645.45887      113.16773     -758.62659      298.94037     -438.95494      1920.3708      0.9969611
   2420000  -624.75814      120.92366     -745.68179      319.4282       1477.1918      1920.3708      0.9969611
   2421000  -620.8606       127.67847     -748.53907      337.2715       420.1972       1920.3708      0.9969611
   2422000  -625.93704      104.07304     -730.01007      274.91612     -331.74597      1920.3708      0.9969611
   2423000  -640.66292      103.63367     -744.29658      273.7555      -2090.0544      1920.3708      0.9969611
   2424000  -619.08754      109.55692     -728.64447      289.40219      64.615033      1920.3708      0.9969611
   2425000  -632.15488      101.72677     -733.88165      268.71829     -2128.084       1920.3708      0.9969611
   2426000  -660.98583      90.513397     -751.49922      239.09739     -2250.6625      1920.3708      0.9969611
   2427000  -622.09765      122.8716      -744.96926      324.57383     -910.12813      1920.3708      0.9969611
   2428000  -628.00995      115.23085     -743.2408       304.39025      1155.1203      1920.3708      0.9969611
   2429000  -636.83489      100.61172     -737.4466       265.7728       98.155727      1920.3708      0.9969611
   2430000  -634.26529      109.06006     -743.32535      288.08968     -3.4754723      1920.3708      0.9969611
   2431000  -610.11144      122.51212     -732.62356      323.62424      15.555355      1920.3708      0.9969611
   2432000  -648.11821      107.70272     -755.82093      284.50419     -1172.4667      1920.3708      0.9969611
   2433000  -624.30228      114.6628      -738.96507      302.8897      -2334.0128      1920.3708      0.9969611
   2434000  -614.22057      123.57671     -737.79727      326.43641     -1563.6383      1920.3708      0.9969611
   2435000  -616.7549       114.06588     -730.82077      301.31289      3200.2328      1920.3708      0.9969611
   2436000  -623.16206      123.80218     -746.96424      327.03201     -106.90186      1920.3708      0.9969611
   2437000  -624.80179      120.30323     -745.10502      317.7893      -904.29597      1920.3708      0.9969611
   2438000  -613.94986      114.88908     -728.83894      303.48744     -1262.3408      1920.3708      0.9969611
   2439000  -624.82817      121.63609     -746.46426      321.31013     -2107.9221      1920.3708      0.9969611
   2440000  -611.42408      118.80499     -730.22907      313.83158      1159.8779      1920.3708      0.9969611
   2441000  -641.54187      109.18129     -750.72316      288.40991      636.49792      1920.3708      0.9969611
   2442000  -640.23631      116.77597     -757.01228      308.47178      1242.7156      1920.3708      0.9969611
   2443000  -618.91422      123.4649      -742.37912      326.14107     -1390.4976      1920.3708      0.9969611
   2444000  -611.97878      117.91663     -729.89541      311.48492     -1631.6239      1920.3708      0.9969611
   2445000  -620.0588       120.9934      -741.05219      319.61242      486.03561      1920.3708      0.9969611
   2446000  -633.33176      112.27877     -745.61054      296.59214     -1344.9991      1920.3708      0.9969611
   2447000  -620.18394      109.42599     -729.60993      289.05632      167.06366      1920.3708      0.9969611
   2448000  -647.17212      96.923157     -744.09528      256.02922      2515.5308      1920.3708      0.9969611
   2449000  -596.56354      133.2951      -729.85864      352.10822     -129.1621       1920.3708      0.9969611
   2450000  -622.39623      112.38545     -734.78168      296.87392      573.55277      1920.3708      0.9969611
   2451000  -614.68521      114.2633      -728.94851      301.83439     -1964.922       1920.3708      0.9969611
   2452000  -630.94903      105.24725     -736.19628      278.01787     -399.01372      1920.3708      0.9969611
   2453000  -628.07992      124.49675     -752.57667      328.86676      648.29721      1920.3708      0.9969611
   2454000  -631.74945      114.53125     -746.2807       302.54222      1283.7099      1920.3708      0.9969611
   2455000  -608.67037      109.66853     -718.3389       289.697       -848.08546      1920.3708      0.9969611
   2456000  -627.69667      110.73227     -738.42894      292.50695      1359.7356      1920.3708      0.9969611
   2457000  -612.89182      128.68891     -741.58073      339.94066      736.4612       1920.3708      0.9969611
   2458000  -610.61635      117.73357     -728.34992      311.00135     -3985.6135      1920.3708      0.9969611
   2459000  -604.97519      116.40319     -721.37838      307.48707     -1621.155       1920.3708      0.9969611
   2460000  -656.08773      105.5506      -761.63833      278.81921      1272.99        1920.3708      0.9969611
   2461000  -625.76594      116.33782     -742.10376      307.3144      -2815.868       1920.3708      0.9969611
   2462000  -629.1814       111.46529     -740.64668      294.44325      340.24022      1920.3708      0.9969611
   2463000  -649.05606      118.60407     -767.66012      313.30084     -422.31825      1920.3708      0.9969611
   2464000  -660.87321      102.98441     -763.85761      272.04043      330.38746      1920.3708      0.9969611
   2465000  -629.35735      112.42615     -741.7835       296.98143      3254.7065      1920.3708      0.9969611
   2466000  -637.02076      108.20655     -745.22731      285.83508      352.39239      1920.3708      0.9969611
   2467000  -632.64744      102.47852     -735.12596      270.7041       128.32885      1920.3708      0.9969611
   2468000  -628.03601      108.50422     -736.54023      286.62139     -1557.1481      1920.3708      0.9969611
   2469000  -649.6828       104.07815     -753.76095      274.92962     -339.82789      1920.3708      0.9969611
   2470000  -653.70451      108.02827     -761.73278      285.36415     -813.79947      1920.3708      0.9969611
   2471000  -639.77085      104.80873     -744.57958      276.85951     -99.863826      1920.3708      0.9969611
   2472000  -627.50117      124.1448      -751.64596      327.93706      1354.4055      1920.3708      0.9969611
   2473000  -620.62411      116.04995     -736.67406      306.55395      802.82687      1920.3708      0.9969611
   2474000  -644.41542      103.26445     -747.67988      272.78019      3222.3948      1920.3708      0.9969611
   2475000  -641.82853      103.78165     -745.61019      274.14641     -27.540531      1920.3708      0.9969611
   2476000  -626.88223      115.38195     -742.26418      304.7894       974.39586      1920.3708      0.9969611
   2477000  -622.68784      120.10107     -742.78892      317.25529      415.92296      1920.3708      0.9969611
   2478000  -633.59253      107.83353     -741.42606      284.84971      1823.1013      1920.3708      0.9969611
   2479000  -609.54491      121.00013     -730.54504      319.63021     -2197.946       1920.3708      0.9969611
   2480000  -631.50847      122.47189     -753.98036      323.51795     -997.99789      1920.3708      0.9969611
   2481000  -610.68701      114.43442     -725.12143      302.28643      488.75628      1920.3708      0.9969611
   2482000  -648.08158      96.288496     -744.37007      254.35272      1562.2121      1920.3708      0.9969611
   2483000  -643.48346      117.33759     -760.82105      309.95535      1254.9775      1920.3708      0.9969611
   2484000  -622.41173      108.89566     -731.3074       287.65542      67.98222       1920.3708      0.9969611
   2485000  -605.79032      113.96133     -719.75166      301.03674     -2202.5683      1920.3708      0.9969611
   2486000  -607.2679       123.49136     -730.75927      326.21097     -1593.8232      1920.3708      0.9969611
   2487000  -627.55719      112.31703     -739.87422      296.6932       2005.6264      1920.3708      0.9969611
   2488000  -632.60209      118.39768     -750.99977      312.75566      1547.4006      1920.3708      0.9969611
   2489000  -638.02077      109.89763     -747.91841      290.30219     -1229.0644      1920.3708      0.9969611
   2490000  -623.03617      120.24738     -743.28355      317.64176      1320.07        1920.3708      0.9969611
   2491000  -639.53517      109.50881     -749.04399      289.2751       1744.5784      1920.3708      0.9969611
   2492000  -653.32478      122.51545     -775.84023      323.63303      1864.9919      1920.3708      0.9969611
   2493000  -631.94619      121.33382     -753.28         320.51166     -1093.4039      1920.3708      0.9969611
   2494000  -613.25959      106.96402     -720.22361      282.55285     -1296.3908      1920.3708      0.9969611
   2495000  -642.96818      101.50008     -744.46825      268.11947      503.57262      1920.3708      0.9969611
   2496000  -625.83536      111.07151     -736.90687      293.40308     -1687.7042      1920.3708      0.9969611
   2497000  -614.91695      120.06042     -734.97737      317.14789     -1252.4695      1920.3708      0.9969611
   2498000  -620.1575       121.21637     -741.37387      320.20142     -530.046        1920.3708      0.9969611
   2499000  -632.84673      110.653       -743.49974      292.29755     -1411.7373      1920.3708      0.9969611
   2500000  -612.3823       117.27665     -729.65895      309.79436     -444.58227      1920.3708      0.9969611
   2501000  -626.96906      107.42494     -734.394        283.7704       287.31065      1920.3708      0.9969611
   2502000  -639.65088      109.11892     -748.7698       288.24516     -640.08688      1920.3708      0.9969611
   2503000  -654.25017      93.633046     -747.88322      247.33816     -495.25259      1920.3708      0.9969611
   2504000  -644.14201      99.694644     -743.83665      263.35029     -2502.5294      1920.3708      0.9969611
   2505000  -619.2308       112.27084     -731.50164      296.57119     -1215.5384      1920.3708      0.9969611
   2506000  -640.12027      121.26859     -761.38887      320.33936     -885.23266      1920.3708      0.9969611
   2507000  -625.75187      108.82622     -734.57809      287.47198      1594.0003      1920.3708      0.9969611
   2508000  -608.2293       117.38192     -725.61122      310.07245      1413.9597      1920.3708      0.9969611
   2509000  -640.04465      106.91697     -746.96162      282.42857      2972.6402      1920.3708      0.9969611
   2510000  -650.35506      107.55845     -757.91351      284.12308      2170.5241      1920.3708      0.9969611
   2511000  -629.74093      99.157932     -728.89886      261.93253     -1717.1089      1920.3708      0.9969611
   2512000  -619.8658       108.36401     -728.2298       286.25102     -1026.753       1920.3708      0.9969611
   2513000  -632.68257      111.53653     -744.2191       294.63145     -1250.9136      1920.3708      0.9969611
   2514000  -647.44813      106.69314     -754.14127      281.8373       195.9349       1920.3708      0.9969611
   2515000  -608.94698      118.991       -727.93798      314.32295     -930.05123      1920.3708      0.9969611
   2516000  -623.7404       103.88427     -727.62467      274.41747      1464.3992      1920.3708      0.9969611
   2517000  -622.51299      111.37255     -733.88554      294.19829      1591.0757      1920.3708      0.9969611
   2518000  -634.44098      105.58514     -740.02612      278.91045     -220.80908      1920.3708      0.9969611
   2519000  -633.69541      99.321084     -733.01649      262.36351      318.12302      1920.3708      0.9969611
   2520000  -637.51298      107.78483     -745.29781      284.72108      383.84193      1920.3708      0.9969611
   2521000  -623.17964      119.60607     -742.78571      315.94769      221.45926      1920.3708      0.9969611
   2522000  -650.67884      107.08193     -757.76077      282.86432     -1594.645       1920.3708      0.9969611
   2523000  -647.08566      114.462       -761.54766      302.35929      232.77193      1920.3708      0.9969611
   2524000  -617.20666      108.98899     -726.19565      287.90196     -64.415911      1920.3708      0.9969611
   2525000  -657.91779      105.36782     -763.28562      278.33639      1907.7439      1920.3708      0.9969611
   2526000  -630.61503      111.7854      -742.40043      295.28886      1437.6076      1920.3708      0.9969611
   2527000  -631.26345      105.23799     -736.50145      277.99344      655.17288      1920.3708      0.9969611
   2528000  -628.10948      120.64219     -748.75167      318.68468      2508.0147      1920.3708      0.9969611
   2529000  -654.57313      106.19685     -760.76998      280.52632     -402.32636      1920.3708      0.9969611
   2530000  -651.45373      100.39964     -751.85337      265.21259      181.60639      1920.3708      0.9969611
   2531000  -635.20417      119.05091     -754.25509      314.48121      1221.8519      1920.3708      0.9969611
   2532000  -652.43675      101.90454     -754.34129      269.18788     -285.72683      1920.3708      0.9969611
   2533000  -624.30995      110.62696     -734.93691      292.22875      1666.3467      1920.3708      0.9969611
   2534000  -659.30572      100.41288     -759.7186       265.24757     -1571.2684      1920.3708      0.9969611
   2535000  -645.29496      107.95527     -753.25022      285.17129      1126.0415      1920.3708      0.9969611
   2536000  -627.5633       106.09953     -733.66282      280.26923      560.48892      1920.3708      0.9969611
   2537000  -625.58127      118.62658     -744.20785      313.36031     -604.90439      1920.3708      0.9969611
   2538000  -606.48066      130.76727     -737.24793      345.43077     -1503.3212      1920.3708      0.9969611
   2539000  -618.31454      118.71688     -737.03142      313.59884     -1978.2962      1920.3708      0.9969611
   2540000  -641.75243      103.69223     -745.44466      273.91019     -1564.5102      1920.3708      0.9969611
   2541000  -625.20067      107.92247     -733.12313      285.08466     -3175.2128      1920.3708      0.9969611
   2542000  -643.41666      116.68299     -760.09966      308.22619     -2353.4407      1920.3708      0.9969611
   2543000  -592.73893      123.79064     -716.52957      327.00153     -890.83584      1920.3708      0.9969611
   2544000  -642.44856      108.10233     -750.5509       285.55978     -2081.5662      1920.3708      0.9969611
   2545000  -609.83407      128.26775     -738.10182      338.82812     -1967.3466      1920.3708      0.9969611
   2546000  -615.68694      118.3007      -733.98765      312.49948     -1107.6966      1920.3708      0.9969611
   2547000  -637.68186      106.14545     -743.82731      280.39055      239.02618      1920.3708      0.9969611
   2548000  -628.22315      118.72102     -746.94416      313.60978      1842.4448      1920.3708      0.9969611
   2549000  -647.18076      84.404902     -731.58566      222.96138      2572.3081      1920.3708      0.9969611
   2550000  -636.59708      109.13112     -745.7282       288.27739      1167.3711      1920.3708      0.9969611
   2551000  -615.13836      109.02454     -724.1629       287.99585     -1178.6008      1920.3708      0.9969611
   2552000  -630.7057       107.88107     -738.58676      284.97529     -1479.2081      1920.3708      0.9969611
   2553000  -634.74256      98.458122     -733.20068      260.08393      1227.3819      1920.3708      0.9969611
   2554000  -633.86534      106.82151     -740.68685      282.1764      -741.91147      1920.3708      0.9969611
   2555000  -601.04627      121.03119     -722.07746      319.71225      2387.0682      1920.3708      0.9969611
   2556000  -612.13313      123.18834     -735.32147      325.41051     -540.84518      1920.3708      0.9969611
   2557000  -620.71503      131.53728     -752.25232      347.46482      2908.481       1920.3708      0.9969611
   2558000  -631.27705      108.06532     -739.34238      285.46202      2236.7979      1920.3708      0.9969611
   2559000  -622.38586      119.97054     -742.3564       316.91047      232.07424      1920.3708      0.9969611
   2560000  -613.87502      107.8112      -721.68621      284.79072      1124.6374      1920.3708      0.9969611
   2561000  -616.6677       124.72165     -741.38935      329.46085      1814.3605      1920.3708      0.9969611
   2562000  -645.43259      113.93997     -759.37256      300.98031      3247.6164      1920.3708      0.9969611
   2563000  -640.85643      120.9041      -761.76052      319.37652      2816.5541      1920.3708      0.9969611
   2564000  -633.91044      110.49591     -744.40635      291.88258      2117.695       1920.3708      0.9969611
   2565000  -604.5764       123.48334     -728.05974      326.18978      1953.0092      1920.3708      0.9969611
   2566000  -638.00827      110.5311      -748.53937      291.97553      1445.3104      1920.3708      0.9969611
   2567000  -648.8544       98.861323     -747.71573      261.14902     -1259.6524      1920.3708      0.9969611
   2568000  -621.40341      115.30697     -736.71038      304.59134      1926.4714      1920.3708      0.9969611
   2569000  -646.49084      109.61596     -756.1068       289.55814     -490.03872      1920.3708      0.9969611
   2570000  -642.27902      103.90333     -746.18235      274.46782     -2346.2062      1920.3708      0.9969611
   2571000  -622.89527      121.15012     -744.0454       320.02643      1260.6779      1920.3708      0.9969611
   2572000  -618.85642      127.59421     -746.45063      337.04892     -461.59598      1920.3708      0.9969611
   2573000  -599.11958      108.90775     -708.02732      287.68734     -69.587628      1920.3708      0.9969611
   2574000  -612.95207      103.58134     -716.53342      273.61728      3440.0702      1920.3708      0.9969611
   2575000  -589.01934      113.83511     -702.85446      300.70332     -111.38725      1920.3708      0.9969611
   2576000  -613.40691      114.96022     -728.36713      303.67536      512.7795       1920.3708      0.9969611
   2577000  -629.07325      124.4681      -753.54135      328.79109      1861.1642      1920.3708      0.9969611
   2578000  -614.50981      118.24826     -732.75807      312.36095      1208.0169      1920.3708      0.9969611
   2579000  -626.68322      108.75206     -735.43528      287.27608      773.29622      1920.3708      0.9969611
   2580000  -596.12532      116.04378     -712.1691       306.53766     -255.67451      1920.3708      0.9969611
   2581000  -652.57006      115.32369     -767.89374      304.63549     -1308.9456      1920.3708      0.9969611
   2582000  -630.84769      101.62897     -732.47666      268.45994      1108.5208      1920.3708      0.9969611
   2583000  -613.54707      128.26871     -741.81579      338.83067     -1458.0692      1920.3708      0.9969611
   2584000  -623.41346      109.59661     -733.01008      289.50703      1110.2699      1920.3708      0.9969611
   2585000  -618.68697      115.8902      -734.57717      306.13198      676.78952      1920.3708      0.9969611
   2586000  -635.67084      109.17766     -744.84851      288.40034     -1055.1857      1920.3708      0.9969611
   2587000  -656.72439      102.40987     -759.13426      270.52275      834.22524      1920.3708      0.9969611
   2588000  -641.68597      108.19741     -749.88338      285.81093      232.89787      1920.3708      0.9969611
   2589000  -631.04028      120.30909     -751.34937      317.80478     -86.48902       1920.3708      0.9969611
   2590000  -647.18067      96.800862     -743.98154      255.70617     -238.16684      1920.3708      0.9969611
   2591000  -615.69126      115.40875     -731.10001      304.86019     -460.11143      1920.3708      0.9969611
   2592000  -649.17329      103.65025     -752.82355      273.79931      1135.6022      1920.3708      0.9969611
   2593000  -636.64995      112.78856     -749.43851      297.93878     -126.59784      1920.3708      0.9969611
   2594000  -623.92464      113.80685     -737.73148      300.62865     -63.783334      1920.3708      0.9969611
   2595000  -623.99667      108.55966     -732.55633      286.76785      906.51937      1920.3708      0.9969611
   2596000  -639.05458      112.29577     -751.35035      296.63704      1273.6945      1920.3708      0.9969611
   2597000  -635.03141      117.13672     -752.16814      309.42475      3492.4468      1920.3708      0.9969611
   2598000  -647.83658      101.08284     -748.91942      267.01731     -1430.8642      1920.3708      0.9969611
   2599000  -648.90414      109.98025     -758.8844       290.52044      388.12276      1920.3708      0.9969611
   2600000  -650.05063      106.10569     -756.15633      280.28552     -404.53197      1920.3708      0.9969611
   2601000  -671.17502      96.404023     -767.57904      254.65789      525.19406      1920.3708      0.9969611
   2602000  -630.20198      115.69617     -745.89815      305.61944     -1537.1248      1920.3708      0.9969611
   2603000  -658.41119      102.35648     -760.76766      270.3817       529.45735      1920.3708      0.9969611
   2604000  -651.69257      107.21446     -758.90703      283.21441     -450.39506      1920.3708      0.9969611
   2605000  -615.7827       105.92091     -721.70361      279.79741      927.59767      1920.3708      0.9969611
   2606000  -642.99199      102.55328     -745.54528      270.90159      700.94617      1920.3708      0.9969611
   2607000  -644.52411      115.19169     -759.7158       304.2868      -1365.4049      1920.3708      0.9969611
   2608000  -611.2137       129.5035      -740.7172       342.09244     -558.1124       1920.3708      0.9969611
   2609000  -610.35395      123.72321     -734.07715      326.8234      -1458.0936      1920.3708      0.9969611
   2610000  -657.79296      101.7405      -759.53345      268.75455     -1720.9712      1920.3708      0.9969611
   2611000  -657.42754      98.463786     -755.89133      260.09889      891.48587      1920.3708      0.9969611
   2612000  -631.04428      119.00323     -750.04751      314.35526      946.59207      1920.3708      0.9969611
   2613000  -631.10705      119.13461     -750.24166      314.70232     -528.25787      1920.3708      0.9969611
   2614000  -626.8597       127.10566     -753.96536      335.75838      916.52798      1920.3708      0.9969611
   2615000  -627.28281      111.33283     -738.61564      294.09336      133.2102       1920.3708      0.9969611
   2616000  -589.36113      117.13828     -706.49941      309.42887      906.2063       1920.3708      0.9969611
   2617000  -608.21837      115.82732     -724.04569      305.96586      1605.2517      1920.3708      0.9969611
   2618000  -636.915        95.598099     -732.5131       252.52899     -126.61439      1920.3708      0.9969611
   2619000  -650.24781      101.80299     -752.0508       268.91963      2.4250288      1920.3708      0.9969611
   2620000  -629.30286      96.545304     -725.84817      255.03109      319.13521      1920.3708      0.9969611
   2621000  -622.02129      129.08219     -751.10348      340.97954      1373.5274      1920.3708      0.9969611
   2622000  -606.58474      113.26355     -719.8483       299.19351      3338.9665      1920.3708      0.9969611
   2623000  -633.4159       108.68713     -742.10302      287.10455      1607.8474      1920.3708      0.9969611
   2624000  -606.25987      119.30588     -725.56574      315.15472      251.08627      1920.3708      0.9969611
   2625000  -623.63687      110.07324     -733.71011      290.76607      2609.206       1920.3708      0.9969611
   2626000  -640.74411      119.53785     -760.28196      315.7675      -186.50796      1920.3708      0.9969611
   2627000  -635.51298      110.16132     -745.67431      290.99875      1530.6442      1920.3708      0.9969611
   2628000  -636.29613      112.48825     -748.78438      297.14549      1206.7629      1920.3708      0.9969611
   2629000  -612.94376      119.80725     -732.75101      316.47914      231.7145       1920.3708      0.9969611
   2630000  -627.11881      121.87307     -748.99188      321.93613     -118.12484      1920.3708      0.9969611
   2631000  -645.80384      103.43712     -749.24096      273.2363      -52.593437      1920.3708      0.9969611
   2632000  -633.66271      118.04818     -751.71089      311.83242     -2778.128       1920.3708      0.9969611
   2633000  -639.57879      103.57886     -743.15765      273.61072     -292.74373      1920.3708      0.9969611
   2634000  -612.97056      126.1596      -739.13017      333.25931      1027.6803      1920.3708      0.9969611
   2635000  -626.24629      105.58942     -731.83571      278.92175     -1162.7177      1920.3708      0.9969611
   2636000  -608.08402      122.22575     -730.30977      322.86776     -1835.9318      1920.3708      0.9969611
   2637000  -618.53069      115.17562     -733.70631      304.24435     -482.59396      1920.3708      0.9969611
   2638000  -612.81721      113.64397     -726.46118      300.1984       1555.5835      1920.3708      0.9969611
   2639000  -626.66428      116.96412     -743.6284       308.96882      567.84657      1920.3708      0.9969611
   2640000  -600.32496      124.55687     -724.88182      329.02557     -1186.7071      1920.3708      0.9969611
   2641000  -632.04431      110.52742     -742.57172      291.96581     -1382.9584      1920.3708      0.9969611
   2642000  -636.49984      112.67298     -749.17282      297.63347      955.44248      1920.3708      0.9969611
   2643000  -649.4967       87.535443     -737.03214      231.23092      1158.7754      1920.3708      0.9969611
   2644000  -636.80367      101.41426     -738.21793      267.89279     -148.93545      1920.3708      0.9969611
   2645000  -610.06079      112.6101      -722.67089      297.46737      2525.5363      1920.3708      0.9969611
   2646000  -638.4299       106.11057     -744.54046      280.29839     -665.34931      1920.3708      0.9969611
   2647000  -628.90291      103.24937     -732.15228      272.74033     -675.68469      1920.3708      0.9969611
   2648000  -618.21049      119.10614     -737.31663      314.6271      -246.818        1920.3708      0.9969611
   2649000  -635.26213      105.84291     -741.10504      279.59135     -1104.0992      1920.3708      0.9969611
   2650000  -628.02618      125.19311     -753.21929      330.70626     -149.61811      1920.3708      0.9969611
   2651000  -624.91335      126.26881     -751.18216      333.5478       730.79154      1920.3708      0.9969611
   2652000  -624.5066       113.05462     -737.56122      298.6416      -84.32937       1920.3708      0.9969611
   2653000  -645.74237      117.08765     -762.83001      309.29511      1159.59        1920.3708      0.9969611
   2654000  -635.73986      109.1664      -744.90627      288.3706       3053.6443      1920.3708      0.9969611
   2655000  -612.66193      107.36758     -720.0295       283.61888      2118.8525      1920.3708      0.9969611
   2656000  -641.27631      106.43785     -747.71415      281.16293      412.66576      1920.3708      0.9969611
   2657000  -608.65523      105.37031     -714.02555      278.34297     -347.10787      1920.3708      0.9969611
   2658000  -625.13343      108.83526     -733.96869      287.49587     -1441.3084      1920.3708      0.9969611
   2659000  -634.9817       110.32467     -745.30637      291.43024     -1387.1635      1920.3708      0.9969611
   2660000  -654.22911      99.21507      -753.44418      262.08346      1969.9106      1920.3708      0.9969611
   2661000  -635.542        118.66144     -754.20344      313.45238      2457.2063      1920.3708      0.9969611
   2662000  -629.60812      115.17066     -744.77878      304.23126     -1938.3937      1920.3708      0.9969611
   2663000  -655.64857      105.26916     -760.91773      278.07576     -883.00713      1920.3708      0.9969611
   2664000  -639.55954      117.44285     -757.00239      310.23339     -212.93607      1920.3708      0.9969611
   2665000  -655.67671      100.27609     -755.9528       264.88622      2326.0122      1920.3708      0.9969611
   2666000  -665.6372       98.476017     -764.11322      260.1312      -1707.5759      1920.3708      0.9969611
   2667000  -628.29796      120.14894     -748.4469       317.38172      110.01357      1920.3708      0.9969611
   2668000  -628.45651      107.5913      -736.04781      284.20985      1196.393       1920.3708      0.9969611
   2669000  -631.02884      110.15479     -741.18363      290.9815      -513.28121      1920.3708      0.9969611
   2670000  -598.71512      124.00074     -722.71586      327.55652     -46.62375       1920.3708      0.9969611
   2671000  -620.42878      110.94426     -731.37304      293.06692      1658.4408      1920.3708      0.9969611
   2672000  -605.87588      112.97127     -718.84716      298.42143      1109.6266      1920.3708      0.9969611
   2673000  -597.6456       129.38277     -727.02837      341.77353     -2282.7213      1920.3708      0.9969611
   2674000  -616.65821      112.57181     -729.23002      297.36622      104.82357      1920.3708      0.9969611
   2675000  -647.85088      107.07818     -754.92905      282.8544      -1137.1365      1920.3708      0.9969611
   2676000  -641.86654      106.92293     -748.78947      282.4443      -986.89447      1920.3708      0.9969611
   2677000  -635.99337      118.7703      -754.76367      313.73996      39.051437      1920.3708      0.9969611
   2678000  -627.12698      99.097188     -726.22417      261.77207      1234.331       1920.3708      0.9969611
   2679000  -622.75033      111.64334     -734.39368      294.91361      1196.906       1920.3708      0.9969611
   2680000  -639.23359      114.85042     -754.08401      303.38532      655.84181      1920.3708      0.9969611
   2681000  -619.34642      107.40232     -726.74874      283.71066      1271.0829      1920.3708      0.9969611
   2682000  -601.81938      127.32624     -729.14562      336.34107      33.546175      1920.3708      0.9969611
   2683000  -641.76296      118.10174     -759.8647       311.9739      -499.58822      1920.3708      0.9969611
   2684000  -631.11635      121.34722     -752.46358      320.54708     -132.02794      1920.3708      0.9969611
   2685000  -653.81852      105.79347     -759.61199      279.46076     -253.41751      1920.3708      0.9969611
   2686000  -615.06668      121.08441     -736.15109      319.85283      255.88315      1920.3708      0.9969611
   2687000  -625.06429      105.76442     -730.82871      279.38403     -2003.8335      1920.3708      0.9969611
   2688000  -612.08281      104.92533     -717.00815      277.16752     -300.36877      1920.3708      0.9969611
   2689000  -644.93768      111.83923     -756.77691      295.43105     -202.90734      1920.3708      0.9969611
   2690000  -622.08305      111.86555     -733.9486       295.50057      388.05494      1920.3708      0.9969611
   2691000  -603.36115      123.92369     -727.28484      327.35298      2848.6888      1920.3708      0.9969611
   2692000  -619.32564      110.61357     -729.93921      292.19339      3310.1353      1920.3708      0.9969611
   2693000  -641.19847      100.8574      -742.05587      266.42178     -1613.6474      1920.3708      0.9969611
   2694000  -605.72729      120.91239     -726.63969      319.39844      1018.3794      1920.3708      0.9969611
   2695000  -629.08423      113.28712     -742.37134      299.25575     -296.07872      1920.3708      0.9969611
   2696000  -638.71519      107.31169     -746.02688      283.47124      1219.0747      1920.3708      0.9969611
   2697000  -610.3987       110.20555     -720.60425      291.11557     -1499.4114      1920.3708      0.9969611
   2698000  -635.44744      116.142       -751.58944      306.79711     -1569.4699      1920.3708      0.9969611
   2699000  -635.46677      114.09107     -749.55784      301.37945     -819.82641      1920.3708      0.9969611
   2700000  -614.35687      113.0658      -727.42267      298.67112      232.95509      1920.3708      0.9969611
   2701000  -632.45758      106.14686     -738.60444      280.39426     -2970.346       1920.3708      0.9969611
   2702000  -623.41242      110.72383     -734.13624      292.48464      2004.5761      1920.3708      0.9969611
   2703000  -650.70171      103.77816     -754.47988      274.13719      1377.9071      1920.3708      0.9969611
   2704000  -643.09764      96.617681     -739.71533      255.22228      126.15325      1920.3708      0.9969611
   2705000  -620.11903      118.61338     -738.73241      313.32543     -1530.5359      1920.3708      0.9969611
   2706000  -650.3734       117.87131     -768.24471      311.36521      1292.3398      1920.3708      0.9969611
   2707000  -635.97126      118.23787     -754.20913      312.33352      345.41407      1920.3708      0.9969611
   2708000  -647.72901      108.53969     -756.2687       286.71509     -2840.4049      1920.3708      0.9969611
   2709000  -642.04988      106.5546      -748.60448      281.47134      1855.9553      1920.3708      0.9969611
   2710000  -653.80227      109.19174     -762.99401      288.43753      2040.17        1920.3708      0.9969611
   2711000  -667.50266      101.81656     -769.31922      268.95549     -861.95089      1920.3708      0.9969611
   2712000  -645.74649      116.03362     -761.78011      306.51082      244.39879      1920.3708      0.9969611
   2713000  -656.04145      104.32888     -760.37033      275.59194      1000.7517      1920.3708      0.9969611
   2714000  -643.98465      95.325118     -739.30977      251.80789     -6.751633       1920.3708      0.9969611
   2715000  -633.23897      118.23303     -751.472        312.32072     -1083.5776      1920.3708      0.9969611
   2716000  -627.02916      121.22493     -748.25409      320.22403      522.33163      1920.3708      0.9969611
   2717000  -611.38603      117.5831      -728.96914      310.60389     -1121.415       1920.3708      0.9969611
   2718000  -618.86894      124.61695     -743.48589      329.18429     -1356.1874      1920.3708      0.9969611
   2719000  -631.67022      108.47005     -740.14027      286.53114     -537.91569      1920.3708      0.9969611
   2720000  -635.58622      110.31143     -745.89766      291.39527     -167.35823      1920.3708      0.9969611
   2721000  -660.72029      98.445582     -759.16588      260.05081     -2484.854       1920.3708      0.9969611
   2722000  -636.81073      100.27909     -737.08983      264.89415      2222.0722      1920.3708      0.9969611
   2723000  -648.96567      101.58151     -750.54719      268.33459      1544.0807      1920.3708      0.9969611
   2724000  -658.15534      104.59475     -762.75009      276.29426      2662.5907      1920.3708      0.9969611
   2725000  -638.64794      110.69508     -749.34302      292.40871     -523.79357      1920.3708      0.9969611
   2726000  -616.43977      113.43354     -729.87331      299.64252     -260.16151      1920.3708      0.9969611
   2727000  -627.40849      104.64382     -732.05231      276.42389      378.91742      1920.3708      0.9969611
   2728000  -658.86698      105.80873     -764.67572      279.50108     -281.37092      1920.3708      0.9969611
   2729000  -617.56267      121.23602     -738.79869      320.25333     -839.10309      1920.3708      0.9969611
   2730000  -607.0571       121.62113     -728.67823      321.27063      1184.1205      1920.3708      0.9969611
   2731000  -622.3681       120.25276     -742.62086      317.65597     -1317.6781      1920.3708      0.9969611
   2732000  -592.98601      133.07096     -726.05697      351.51614      918.37416      1920.3708      0.9969611
   2733000  -638.69514      101.45623     -740.15136      268.00364      1200.8694      1920.3708      0.9969611
   2734000  -618.44738      119.98334     -738.43072      316.9443       2966.8292      1920.3708      0.9969611
   2735000  -642.07624      111.46451     -753.54075      294.4412       123.99384      1920.3708      0.9969611
   2736000  -607.41931      121.13878     -728.55809      319.99646      626.22791      1920.3708      0.9969611
   2737000  -608.00511      111.646       -719.65111      294.92061     -960.69305      1920.3708      0.9969611
   2738000  -645.09511      105.23047     -750.32558      277.97357      1039.1887      1920.3708      0.9969611
   2739000  -622.89579      119.0088      -741.90459      314.36997      558.99914      1920.3708      0.9969611
   2740000  -624.03587      122.23095     -746.26682      322.88151      1810.8631      1920.3708      0.9969611
   2741000  -640.84678      111.32549     -752.17228      294.07398     -2259.6035      1920.3708      0.9969611
   2742000  -635.00005      104.74828     -739.74833      276.69983      1294.4895      1920.3708      0.9969611
   2743000  -608.29454      118.80639     -727.10093      313.83529      2866.8714      1920.3708      0.9969611
   2744000  -606.89449      121.45994     -728.35443      320.84482      631.6046       1920.3708      0.9969611
   2745000  -627.82867      103.98205     -731.81072      274.67578      1220.2637      1920.3708      0.9969611
   2746000  -626.51312      111.572       -738.08512      294.72515      2369.3993      1920.3708      0.9969611
   2747000  -637.06052      111.39889     -748.45941      294.26787     -3548.4401      1920.3708      0.9969611
   2748000  -645.43579      106.8537      -752.28949      282.26143     -941.96205      1920.3708      0.9969611
   2749000  -660.50413      108.96245     -769.46658      287.83184     -54.354033      1920.3708      0.9969611
   2750000  -622.89142      112.22322     -735.11464      296.44539      752.50755      1920.3708      0.9969611
   2751000  -654.52999      103.53509     -758.06508      273.49508     -5.1128292      1920.3708      0.9969611
   2752000  -616.21779      118.83598     -735.05377      313.91346      1267.3936      1920.3708      0.9969611
   2753000  -615.97415      113.94498     -729.91913      300.99354     -939.02887      1920.3708      0.9969611
   2754000  -612.63027      119.4882      -732.11847      315.63634     -468.09985      1920.3708      0.9969611
   2755000  -623.6809       113.71257     -737.39347      300.37961     -218.80956      1920.3708      0.9969611
   2756000  -640.89881      107.3679      -748.26671      283.61972      582.68084      1920.3708      0.9969611
   2757000  -610.8869       112.57008     -723.45698      297.36164     -1299.6964      1920.3708      0.9969611
   2758000  -629.91272      114.09692     -744.00965      301.39491      2157.9709      1920.3708      0.9969611
   2759000  -637.28733      101.93387     -739.2212       269.26536     -978.80026      1920.3708      0.9969611
   2760000  -615.0719       113.68408     -728.75598      300.30434      1729.296       1920.3708      0.9969611
   2761000  -635.61038      97.254459     -732.86484      256.90437     -64.987754      1920.3708      0.9969611
   2762000  -620.6275       110.60585     -731.23336      292.17301      354.09033      1920.3708      0.9969611
   2763000  -630.81499      112.79126     -743.60625      297.9459      -256.86221      1920.3708      0.9969611
   2764000  -621.79968      109.66912     -731.4688       289.69855     -876.85571      1920.3708      0.9969611
   2765000  -605.06595      117.03856     -722.1045       309.16544     -1222.8574      1920.3708      0.9969611
   2766000  -627.87424      113.28568     -741.15993      299.25197     -57.142765      1920.3708      0.9969611
   2767000  -649.59886      104.04625     -753.64511      274.84537      650.97223      1920.3708      0.9969611
   2768000  -623.45064      97.548495     -720.99914      257.68109     -127.36216      1920.3708      0.9969611
   2769000  -594.8291       126.04886     -720.87796      332.96677      304.852        1920.3708      0.9969611
   2770000  -631.85484      110.98522     -742.84006      293.17513      4888.0972      1920.3708      0.9969611
   2771000  -628.33502      105.22635     -733.56137      277.96268      1507.0406      1920.3708      0.9969611
   2772000  -632.0148       104.67511     -736.68991      276.50654     -1290.4058      1920.3708      0.9969611
   2773000  -638.06         118.61728     -756.67728      313.33575      647.17874      1920.3708      0.9969611
   2774000  -651.47337      106.69799     -758.17136      281.85011     -120.26976      1920.3708      0.9969611
   2775000  -617.35856      126.49624     -743.8548       334.14857      1310.3082      1920.3708      0.9969611
   2776000  -641.4488       108.73868     -750.18748      287.24074      155.10256      1920.3708      0.9969611
   2777000  -653.17936      100.28911     -753.46847      264.92062     -2358.3074      1920.3708      0.9969611
   2778000  -628.13393      116.34633     -744.48026      307.33687      670.93217      1920.3708      0.9969611
   2779000  -629.25546      100.93726     -730.19271      266.63274     -713.48878      1920.3708      0.9969611
   2780000  -623.1365       112.95488     -736.09138      298.37813     -2808.9131      1920.3708      0.9969611
   2781000  -614.91642      109.30671     -724.22313      288.74124      2925.7719      1920.3708      0.9969611
   2782000  -618.28265      109.95612     -728.23877      290.45668      1944.4482      1920.3708      0.9969611
   2783000  -634.27443      109.41176     -743.68618      289.01872     -1925.4657      1920.3708      0.9969611
   2784000  -612.22886      120.03765     -732.26651      317.08776     -499.2651       1920.3708      0.9969611
   2785000  -619.21179      113.60896     -732.82074      300.10591     -1086.7192      1920.3708      0.9969611
   2786000  -625.61592      114.99363     -740.60955      303.76362     -4.5234305      1920.3708      0.9969611
   2787000  -613.25244      111.63527     -724.88771      294.89229     -691.63237      1920.3708      0.9969611
   2788000  -625.69865      111.97844     -737.6771       295.7988       1786.6517      1920.3708      0.9969611
   2789000  -628.01743      112.50937     -740.5268       297.20129      891.9254       1920.3708      0.9969611
   2790000  -624.66252      111.49286     -736.15538      294.5161      -44.962441      1920.3708      0.9969611
   2791000  -651.09682      118.55003     -769.64685      313.1581      -1152.0098      1920.3708      0.9969611
   2792000  -645.92781      113.05128     -758.9791       298.63278      1792.8572      1920.3708      0.9969611
   2793000  -625.20908      122.41915     -747.62822      323.37864      2986.7008      1920.3708      0.9969611
   2794000  -629.13092      108.74358     -737.87451      287.25369      1249.3929      1920.3708      0.9969611
   2795000  -614.39358      123.5273      -737.92088      326.30591     -1543.0596      1920.3708      0.9969611
   2796000  -643.10953      114.78925     -757.89878      303.22374     -2638.9552      1920.3708      0.9969611
   2797000  -628.42511      116.55154     -744.97666      307.87895     -64.807802      1920.3708      0.9969611
   2798000  -608.90654      114.0498      -722.95634      301.27044      614.6186       1920.3708      0.9969611
   2799000  -630.62456      113.47598     -744.10055      299.75465     -1891.6698      1920.3708      0.9969611
   2800000  -642.44188      107.2347      -749.67658      283.26788      670.37276      1920.3708      0.9969611
   2801000  -606.47382      115.78263     -722.25645      305.84782     -1863.8347      1920.3708      0.9969611
   2802000  -596.87451      122.63956     -719.51407      323.96087      1091.1368      1920.3708      0.9969611
   2803000  -640.34257      106.63635     -746.97892      281.68729      3268.6341      1920.3708      0.9969611
   2804000  -615.03924      134.10103     -749.14027      354.23714      798.47212      1920.3708      0.9969611
   2805000  -612.54697      119.56051     -732.10748      315.82735     -306.69631      1920.3708      0.9969611
   2806000  -608.13062      114.24215     -722.37277      301.77852      309.98885      1920.3708      0.9969611
   2807000  -632.67571      117.29005     -749.96575      309.82977     -1013.3789      1920.3708      0.9969611
   2808000  -625.40494      113.25608     -738.66102      299.17376      590.44698      1920.3708      0.9969611
   2809000  -641.05004      107.83858     -748.88862      284.86305     -1350.0788      1920.3708      0.9969611
   2810000  -635.57235      107.55238     -743.12473      284.10704      1278.7298      1920.3708      0.9969611
   2811000  -659.61178      112.18991     -771.80169      296.3574       860.28404      1920.3708      0.9969611
   2812000  -631.37455      115.0291      -746.40365      303.85732     -3041.7601      1920.3708      0.9969611
   2813000  -659.08925      105.09171     -764.18096      277.60702     -1179.7122      1920.3708      0.9969611
   2814000  -625.01251      110.4129      -735.42541      291.6633      -2285.8241      1920.3708      0.9969611
   2815000  -627.2973       102.10236     -729.39966      269.71043     -1477.4087      1920.3708      0.9969611
   2816000  -623.41227      111.43708     -734.84935      294.36874     -2974.4982      1920.3708      0.9969611
   2817000  -620.66061      113.24249     -733.9031       299.13787      901.56621      1920.3708      0.9969611
   2818000  -615.69899      117.32285     -733.02184      309.91641      1132.4911      1920.3708      0.9969611
   2819000  -641.50825      112.95916     -754.46741      298.38944      1995.1268      1920.3708      0.9969611
   2820000  -616.06953      121.29234     -737.36186      320.40209      1106.8709      1920.3708      0.9969611
   2821000  -629.29877      105.37256     -734.67132      278.34889      3891.131       1920.3708      0.9969611
   2822000  -626.5894       105.93486     -732.52426      279.83425     -1226.8128      1920.3708      0.9969611
   2823000  -619.8852       121.73969     -741.62489      321.5838      -818.41387      1920.3708      0.9969611
   2824000  -613.98749      106.65313     -720.64062      281.73162     -982.17195      1920.3708      0.9969611
   2825000  -652.47793      112.18135     -764.65928      296.33479     -1750.5304      1920.3708      0.9969611
   2826000  -615.60548      122.40966     -738.01514      323.35357     -1586.5192      1920.3708      0.9969611
   2827000  -614.1686       113.18735     -727.35595      298.99222      960.2956       1920.3708      0.9969611
   2828000  -626.94007      119.33958     -746.27965      315.24375      335.1446       1920.3708      0.9969611
   2829000  -629.02066      119.85222     -748.87288      316.59793      97.939096      1920.3708      0.9969611
   2830000  -603.19642      130.78377     -733.98018      345.47436      1588.126       1920.3708      0.9969611
   2831000  -612.88994      121.97937     -734.86931      322.21694     -2231.4066      1920.3708      0.9969611
   2832000  -651.3875       97.253448     -748.64095      256.9017       368.50881      1920.3708      0.9969611
   2833000  -636.32532      104.75057     -741.07588      276.70586     -1335.9848      1920.3708      0.9969611
   2834000  -609.09569      105.59606     -714.69176      278.9393      -2694.1371      1920.3708      0.9969611
   2835000  -632.06236      114.11377     -746.17613      301.4394      -210.28968      1920.3708      0.9969611
   2836000  -624.60219      116.40463     -741.00681      307.49087      3085.1474      1920.3708      0.9969611
   2837000  -627.95314      108.93863     -736.89177      287.76891      1006.1796      1920.3708      0.9969611
   2838000  -643.97204      124.00799     -767.98003      327.57568      977.97324      1920.3708      0.9969611
   2839000  -613.30289      125.30147     -738.60435      330.99249      542.4768       1920.3708      0.9969611
   2840000  -645.35886      110.71733     -756.0762       292.46748      712.38617      1920.3708      0.9969611
   2841000  -625.83425      118.9238      -744.75805      314.14544     -404.3614       1920.3708      0.9969611
   2842000  -635.40586      110.97589     -746.38176      293.1505      -761.29119      1920.3708      0.9969611
   2843000  -621.34174      111.19368     -732.53542      293.7258      -404.1596       1920.3708      0.9969611
   2844000  -635.86858      90.181434     -726.05001      238.22049     -68.585736      1920.3708      0.9969611
   2845000  -604.41629      134.83903     -739.25533      356.18662     -241.06591      1920.3708      0.9969611
   2846000  -625.79039      122.09176     -747.88215      322.51381     -299.4076       1920.3708      0.9969611
   2847000  -637.37303      120.21782     -757.59084      317.56367     -2015.746       1920.3708      0.9969611
   2848000  -622.13827      108.64274     -730.78101      286.9873       3452.2214      1920.3708      0.9969611
   2849000  -628.17997      118.80658     -746.98655      313.83579      1396.8979      1920.3708      0.9969611
   2850000  -642.77692      111.55653     -754.33345      294.68427     -1439.3939      1920.3708      0.9969611
   2851000  -594.82872      138.58254     -733.41126      366.07535      2767.6201      1920.3708      0.9969611
   2852000  -615.04436      106.22862     -721.27298      280.61024     -1376.6461      1920.3708      0.9969611
   2853000  -637.39519      109.9377      -747.33289      290.40803     -0.30325251     1920.3708      0.9969611
   2854000  -623.40568      116.67745     -740.08313      308.21156     -2025.1999      1920.3708      0.9969611
   2855000  -615.24191      111.02769     -726.2696       293.28732      87.114396      1920.3708      0.9969611
   2856000  -629.84461      116.26706     -746.11167      307.12748      525.16935      1920.3708      0.9969611
   2857000  -627.17456      117.14603     -744.32059      309.44935      683.76115      1920.3708      0.9969611
   2858000  -625.84284      102.98209     -728.82493      272.03431      2404.5563      1920.3708      0.9969611
   2859000  -636.23854      103.54296     -739.7815       273.51589      622.14535      1920.3708      0.9969611
   2860000  -620.99231      106.68867     -727.68098      281.82549      1964.3153      1920.3708      0.9969611
   2861000  -634.8054       120.75133     -755.55673      318.97298      3015.4097      1920.3708      0.9969611
   2862000  -630.48534      108.65258     -739.13793      287.01331      1061.1383      1920.3708      0.9969611
   2863000  -641.08882      102.50839     -743.59721      270.78301     -2730.9861      1920.3708      0.9969611
   2864000  -626.89967      101.64475     -728.54442      268.50163     -88.251939      1920.3708      0.9969611
   2865000  -648.66167      111.51517     -760.17684      294.57502     -2265.4435      1920.3708      0.9969611
   2866000  -635.16396      118.54006     -753.70402      313.13176      2119.4561      1920.3708      0.9969611
   2867000  -608.60067      117.82702     -726.42769      311.24821      4668.6929      1920.3708      0.9969611
   2868000  -643.8085       106.09989     -749.90839      280.2702      -496.07278      1920.3708      0.9969611
   2869000  -672.50854      101.46511     -773.97365      268.02711     -102.57235      1920.3708      0.9969611
   2870000  -629.03556      111.11301     -740.14857      293.51268     -166.06965      1920.3708      0.9969611
   2871000  -617.92549      111.09685     -729.02234      293.47002     -1419.1656      1920.3708      0.9969611
   2872000  -648.74806      100.85209     -749.60015      266.40777      880.75377      1920.3708      0.9969611
   2873000  -626.44128      112.87342     -739.3147       298.16294     -1494.9355      1920.3708      0.9969611
   2874000  -621.34466      115.167       -736.51166      304.22159     -416.96529      1920.3708      0.9969611
   2875000  -638.5139       104.2455      -742.7594       275.37168      1212.4857      1920.3708      0.9969611
   2876000  -613.5163       110.47048     -723.98678      291.81541      1041.439       1920.3708      0.9969611
   2877000  -652.00157      99.271248     -751.27282      262.23186     -922.94117      1920.3708      0.9969611
   2878000  -630.48739      117.2588      -747.7462       309.74723      3695.085       1920.3708      0.9969611
   2879000  -662.24126      100.93832     -763.17957      266.63555     -89.685102      1920.3708      0.9969611
   2880000  -623.06018      129.15369     -752.21386      341.16839      2195.1992      1920.3708      0.9969611
   2881000  -619.34302      112.6537      -731.99672      297.58253      917.55398      1920.3708      0.9969611
   2882000  -614.80944      123.96175     -738.77118      327.45352     -1859.1365      1920.3708      0.9969611
   2883000  -609.48291      126.47534     -735.95825      334.09334     -1867.8016      1920.3708      0.9969611
   2884000  -631.86797      103.64905     -735.51702      273.79612     -1990.3028      1920.3708      0.9969611
   2885000  -614.61241      126.78607     -741.39848      334.91417      1645.8825      1920.3708      0.9969611
   2886000  -626.85828      114.75291     -741.61119      303.12775     -1055.6353      1920.3708      0.9969611
   2887000  -632.81151      115.5959      -748.4074       305.35455     -1803.3504      1920.3708      0.9969611
   2888000  -656.16671      116.61132     -772.77802      308.03685      140.64881      1920.3708      0.9969611
   2889000  -620.14459      110.75992     -730.90451      292.57998     -1476.8306      1920.3708      0.9969611
   2890000  -598.70966      122.6722      -721.38186      324.04709     -257.20348      1920.3708      0.9969611
   2891000  -617.99709      109.31897     -727.31605      288.7736       826.51325      1920.3708      0.9969611
   2892000  -618.11686      132.26571     -750.38256      349.38901      87.892593      1920.3708      0.9969611
   2893000  -632.78037      113.86989     -746.65026      300.79517     -262.26275      1920.3708      0.9969611
   2894000  -615.80937      122.2003      -738.00967      322.80054      715.4606       1920.3708      0.9969611
   2895000  -633.82735      108.96875     -742.7961       287.84848      3833.8652      1920.3708      0.9969611
   2896000  -613.73187      109.52922     -723.26109      289.32901     -2349.5789      1920.3708      0.9969611
   2897000  -612.31327      116.59796     -728.91123      308.00156      921.51245      1920.3708      0.9969611
   2898000  -596.10538      108.96049     -705.06587      287.82666      1487.0265      1920.3708      0.9969611
   2899000  -630.46         98.364484     -728.82448      259.83658      2316.0519      1920.3708      0.9969611
   2900000  -636.92856      116.66291     -753.59147      308.17314      470.02803      1920.3708      0.9969611
   2901000  -628.97046      100.9369      -729.90735      266.63179     -1041.4416      1920.3708      0.9969611
   2902000  -610.44067      121.30671     -731.74737      320.44005     -104.76466      1920.3708      0.9969611
   2903000  -600.80487      108.10652     -708.91139      285.57085     -665.38969      1920.3708      0.9969611
   2904000  -601.08376      117.47634     -718.5601       310.32187      156.97175      1920.3708      0.9969611
   2905000  -627.37323      98.506901     -725.88013      260.21279     -325.9878       1920.3708      0.9969611
   2906000  -647.53885      104.25929     -751.79814      275.40811      1123.8233      1920.3708      0.9969611
   2907000  -641.73916      107.54359     -749.28275      284.08383      300.90547      1920.3708      0.9969611
   2908000  -606.58621      131.31415     -737.90036      346.87541      1129.0315      1920.3708      0.9969611
   2909000  -625.90843      121.43727     -747.3457       320.78495      4117.0522      1920.3708      0.9969611
   2910000  -664.66476      86.068896     -750.73365      227.35694      379.23413      1920.3708      0.9969611
   2911000  -646.63971      102.99604     -749.63575      272.07115      506.05796      1920.3708      0.9969611
   2912000  -625.64722      115.04403     -740.69125      303.89675      1275.4693      1920.3708      0.9969611
   2913000  -651.16092      104.33804     -755.49896      275.61615     -1462.164       1920.3708      0.9969611
   2914000  -643.44901      114.78276     -758.23177      303.20659      629.54611      1920.3708      0.9969611
   2915000  -644.29468      104.97029     -749.26497      277.28627     -710.64473      1920.3708      0.9969611
   2916000  -621.72572      111.38166     -733.10738      294.22235      382.4141       1920.3708      0.9969611
   2917000  -627.25312      120.29033     -747.54345      317.75523     -362.81562      1920.3708      0.9969611
   2918000  -605.06733      114.19609     -719.26342      301.65686     -219.96841      1920.3708      0.9969611
   2919000  -633.24944      102.13272     -735.38216      269.79065      4419.3419      1920.3708      0.9969611
   2920000  -637.55628      107.99491     -745.55119      285.27602     -1947.5024      1920.3708      0.9969611
   2921000  -627.23753      106.00482     -733.24235      280.01905     -1576.5844      1920.3708      0.9969611
   2922000  -634.86871      116.66192     -751.53063      308.17052     -509.29004      1920.3708      0.9969611
   2923000  -622.95325      114.59845     -737.5517       302.71973     -1126.9573      1920.3708      0.9969611
   2924000  -627.78849      105.49578     -733.28427      278.67439      132.21147      1920.3708      0.9969611
   2925000  -622.48394      115.12394     -737.60788      304.10783      732.32967      1920.3708      0.9969611
   2926000  -605.08739      115.48933     -720.57672      305.07305      822.82544      1920.3708      0.9969611
   2927000  -617.17355      117.93404     -735.10759      311.53091     -28.882519      1920.3708      0.9969611
   2928000  -637.0157       107.4334      -744.44909      283.79274     -1324.0621      1920.3708      0.9969611
   2929000  -604.11816      113.28311     -717.40127      299.24515     -275.33139      1920.3708      0.9969611
   2930000  -644.41904      102.49134     -746.91037      270.73795     -1278.3796      1920.3708      0.9969611
   2931000  -624.91184      112.90786     -737.8197       298.25391     -839.4106       1920.3708      0.9969611
   2932000  -614.21783      101.15908     -715.37691      267.21871     -99.212588      1920.3708      0.9969611
   2933000  -624.08125      121.64124     -745.72249      321.32374     -317.12989      1920.3708      0.9969611
   2934000  -645.39248      103.39726     -748.78974      273.13102      57.772696      1920.3708      0.9969611
   2935000  -636.75518      120.41339     -757.16857      318.08029      1453.7626      1920.3708      0.9969611
   2936000  -605.62371      111.34568     -716.96939      294.1273      -874.61137      1920.3708      0.9969611
   2937000  -624.75994      108.54116     -733.3011       286.71898      220.18665      1920.3708      0.9969611
   2938000  -609.92069      119.37123     -729.29192      315.32736      2060.0933      1920.3708      0.9969611
   2939000  -623.59142      122.78415     -746.37557      324.34283      933.33518      1920.3708      0.9969611
   2940000  -656.24549      104.04797     -760.29345      274.84989     -1295.3927      1920.3708      0.9969611
   2941000  -615.13599      110.6006      -725.73659      292.15913     -1114.1363      1920.3708      0.9969611
   2942000  -634.36975      115.90062     -750.27038      306.15951     -217.1867       1920.3708      0.9969611
   2943000  -593.65595      130.86582     -724.52177      345.69112      712.22882      1920.3708      0.9969611
   2944000  -636.00015      101.66489     -737.66504      268.55483      187.42106      1920.3708      0.9969611
   2945000  -606.77767      135.0899      -741.86757      356.84931     -1432.6538      1920.3708      0.9969611
   2946000  -624.96508      112.361       -737.32609      296.80935     -1368.6279      1920.3708      0.9969611
   2947000  -626.62318      116.25714     -742.88032      307.10126      150.36083      1920.3708      0.9969611
   2948000  -636.32876      95.960969     -732.28972      253.48753      3149.6564      1920.3708      0.9969611
   2949000  -620.06506      116.88539     -736.95044      308.76082      53.704985      1920.3708      0.9969611
   2950000  -650.18941      101.9486      -752.13801      269.30426      273.1428       1920.3708      0.9969611
   2951000  -612.25995      118.66868     -730.92863      313.47151      582.03929      1920.3708      0.9969611
   2952000  -610.06906      133.62447     -743.69354      352.97828      199.65444      1920.3708      0.9969611
   2953000  -641.06642      106.12904     -747.19546      280.34719     -499.18006      1920.3708      0.9969611
   2954000  -633.71867      111.71728     -745.43595      295.10893     -1409.2068      1920.3708      0.9969611
   2955000  -632.02289      110.8386      -742.86149      292.78783     -655.01385      1920.3708      0.9969611
   2956000  -639.00148      112.96669     -751.96817      298.40932      53.297394      1920.3708      0.9969611
   2957000  -621.98236      112.08416     -734.06652      296.07805      3404.1583      1920.3708      0.9969611
   2958000  -603.81436      112.88786     -716.70222      298.20109     -224.33864      1920.3708      0.9969611
   2959000  -610.87728      110.73097     -721.60825      292.50352      1443.2942      1920.3708      0.9969611
   2960000  -623.85481      114.36489     -738.21969      302.10275     -105.58738      1920.3708      0.9969611
   2961000  -633.93526      113.19378     -747.12904      299.0092       1540.2119      1920.3708      0.9969611
   2962000  -636.6951       109.69172     -746.38681      289.75825      102.89672      1920.3708      0.9969611
   2963000  -652.05787      101.51987     -753.57774      268.17175     -241.43863      1920.3708      0.9969611
   2964000  -634.44405      106.91803     -741.36207      282.43136      649.33516      1920.3708      0.9969611
   2965000  -637.21431      114.20943     -751.42374      301.69211     -354.98841      1920.3708      0.9969611
   2966000  -639.1447       121.18888     -760.33358      320.12881      1850.7008      1920.3708      0.9969611
   2967000  -629.6648       116.40596     -746.07076      307.49438      1346.2267      1920.3708      0.9969611
   2968000  -605.46551      121.82798     -727.29349      321.81704     -1299.0249      1920.3708      0.9969611
   2969000  -621.68212      121.53932     -743.22144      321.05452     -415.20682      1920.3708      0.9969611
   2970000  -650.25653      107.17232     -757.42885      283.10309      594.66637      1920.3708      0.9969611
   2971000  -644.03368      98.750507     -742.78419      260.85629     -295.72115      1920.3708      0.9969611
   2972000  -626.05733      125.55981     -751.61714      331.67492      720.66681      1920.3708      0.9969611
   2973000  -644.76643      109.36118     -754.12761      288.88511     -368.8026       1920.3708      0.9969611
   2974000  -642.20904      109.30322     -751.51227      288.73202     -2404.2063      1920.3708      0.9969611
   2975000  -605.73079      121.20071     -726.9315       320.16006      2148.692       1920.3708      0.9969611
   2976000  -617.01312      119.56018     -736.5733       315.82647      957.07291      1920.3708      0.9969611
   2977000  -598.46675      124.37336     -722.84011      328.54083      2774.567       1920.3708      0.9969611
   2978000  -618.01543      110.66677     -728.68219      292.33391      772.21238      1920.3708      0.9969611
   2979000  -626.12447      108.11023     -734.2347       285.58065      282.90723      1920.3708      0.9969611
   2980000  -636.80649      114.14591     -750.9524       301.52431      2273.7925      1920.3708      0.9969611
   2981000  -654.09478      97.264817     -751.3596       256.93174      1393.0558      1920.3708      0.9969611
   2982000  -650.21586      111.48629     -761.70214      294.49873     -671.27756      1920.3708      0.9969611
   2983000  -637.00938      112.32933     -749.33871      296.7257      -982.40251      1920.3708      0.9969611
   2984000  -645.91526      99.821645     -745.73691      263.68577      876.41202      1920.3708      0.9969611
   2985000  -662.57816      103.36839     -765.94655      273.05475     -778.72682      1920.3708      0.9969611
   2986000  -655.57317      104.96786     -760.54103      277.27986     -2259.1194      1920.3708      0.9969611
   2987000  -618.06665      122.99707     -741.06372      324.90525      685.6472       1920.3708      0.9969611
   2988000  -647.62063      96.814222     -744.43486      255.74146     -548.24184      1920.3708      0.9969611
   2989000  -612.60761      115.37389     -727.9815       304.7681      -579.87941      1920.3708      0.9969611
   2990000  -623.7351       112.90371     -736.63881      298.24295      640.89044      1920.3708      0.9969611
   2991000  -609.09849      118.69657     -727.79506      313.54518      268.58783      1920.3708      0.9969611
   2992000  -616.41157      117.90668     -734.31825      311.45864     -1638.378       1920.3708      0.9969611
   2993000  -638.9174       120.04068     -758.95808      317.09574      2038.6164      1920.3708      0.9969611
   2994000  -632.28216      100.0009      -732.28305      264.15929     -1494.9047      1920.3708      0.9969611
   2995000  -631.58876      117.14506     -748.73383      309.44678      115.45038      1920.3708      0.9969611
   2996000  -608.91732      124.30573     -733.22305      328.36218      1854.0833      1920.3708      0.9969611
   2997000  -645.07657      104.13153     -749.20811      275.07064      572.37512      1920.3708      0.9969611
   2998000  -641.69058      116.67191     -758.3625       308.19692     -523.71594      1920.3708      0.9969611
   2999000  -635.82755      102.13425     -737.9618       269.79467     -226.56209      1920.3708      0.9969611
   3000000  -635.28644      106.47419     -741.76064      281.25894     -2031.1629      1920.3708      0.9969611
Loop time of 1874.05 on 1 procs for 2000000 steps with 192 atoms

Performance: 92.207 ns/day, 0.260 hours/ns, 1067.205 timesteps/s
99.7% CPU use with 1 MPI tasks x 1 OpenMP threads

MPI task timing breakdown:
Section |  min time  |  avg time  |  max time  |%varavg| %total
---------------------------------------------------------------
Pair    | 1516.3     | 1516.3     | 1516.3     |   0.0 | 80.91
Bond    | 0.11132    | 0.11132    | 0.11132    |   0.0 |  0.01
Kspace  | 229.23     | 229.23     | 229.23     |   0.0 | 12.23
Neigh   | 74.707     | 74.707     | 74.707     |   0.0 |  3.99
Comm    | 27.097     | 27.097     | 27.097     |   0.0 |  1.45
Output  | 0.6188     | 0.6188     | 0.6188     |   0.0 |  0.03
Modify  | 21.527     | 21.527     | 21.527     |   0.0 |  1.15
Other   |            | 4.511      |            |       |  0.24

Nlocal:            192 ave         192 max         192 min
Histogram: 1 0 0 0 0 0 0 0 0 0
Nghost:           4644 ave        4644 max        4644 min
Histogram: 1 0 0 0 0 0 0 0 0 0
Neighs:          69041 ave       69041 max       69041 min
Histogram: 1 0 0 0 0 0 0 0 0 0

Total # of neighbors = 69041
Ave neighs/atom = 359.58854
Ave special neighs/atom = 2
Neighbor list builds = 57617
Dangerous builds = 0

# write data file
write_data data.after_prod.lmp
System init for write_data ...
PPPM initialization ...
  using 12-bit tables for long-range coulomb (src/kspace.cpp:342)
  G vector (1/distance) = 0.31260513
  grid = 12 12 12
  stencil order = 5
  estimated absolute RMS force accuracy = 0.0021455329
  estimated relative force accuracy = 6.4612085e-06
  using double precision FFTW3
  3d grid and FFT values/proc = 6859 1728
Generated 1 of 1 mixed pair_coeff terms from geometric mixing rule

# clean up
undump dPROD
unfix fTHERMO
unfix fMOM
unfix fSHAKE
Total wall time: 0:46:18
