LAMMPS (23 Jun 2022 - Update 4)
  using 1 OpenMP thread(s) per MPI task
# created by fftool

# System settings
units real
boundary p p p  # Periodic boundary conditions

# definition of atoms, bonds, angles
atom_style full
bond_style harmonic
angle_style harmonic

# definition of pair potentials
special_bonds lj/coul 0.0 0.0 0.5
pair_style lj/cut/coul/long 10.0 10.0
pair_modify mix geometric tail yes
kspace_style pppm 1.0e-5

# read data file
read_data data.lmp
Reading data file ...
  orthogonal box = (0 0 0) to (15.660478 15.660478 15.660478)
  1 by 1 by 2 MPI processor grid
  reading atoms ...
  384 atoms
  scanning bonds ...
  1 = max bonds/atom
  scanning angles ...
  1 = max angles/atom
  reading bonds ...
  256 bonds
  reading angles ...
  128 angles
Finding 1-2 1-3 1-4 neighbors ...
  special bond factors lj:    0        0        0.5
  special bond factors coul:  0        0        0.5
     2 = max # of 1-2 neighbors
     1 = max # of 1-3 neighbors
     1 = max # of 1-4 neighbors
     2 = max # of special neighbors
  special bonds CPU = 0.000 seconds
  read_data CPU = 0.006 seconds

# definition of LJ parameters
pair_coeff    1    1     0.000000     0.000000  # Hw Hw
pair_coeff    2    2     0.162985     3.178841  # Ow-Ow

############################################

# remove energy hotspots
minimize 1.0e-4 1.0e-6 100 1000
WARNING: Using 'neigh_modify every 1 delay 0 check yes' setting during minimization (src/min.cpp:187)
PPPM initialization ...
  using 12-bit tables for long-range coulomb (src/kspace.cpp:342)
  G vector (1/distance) = 0.31203871
  grid = 15 15 15
  stencil order = 5
  estimated absolute RMS force accuracy = 0.0022228175
  estimated relative force accuracy = 6.6939488e-06
  using double precision FFTW3
  3d grid and FFT values/proc = 6776 1800
Generated 1 of 1 mixed pair_coeff terms from geometric mixing rule
Neighbor list info ...
  update every 1 steps, delay 0 steps, check yes
  max neighbors/atom: 2000, page size: 100000
  master list distance cutoff = 12
  ghost atom cutoff = 12
  binsize = 6, bins = 3 3 3
  1 neighbor lists, perpetual/occasional/extra = 1 0 0
  (1) pair lj/cut/coul/long, perpetual
      attributes: half, newton on
      pair build: half/bin/newton
      stencil: half/bin/3d
      bin: standard
Per MPI rank memory allocation (min/avg/max) = 8.677 | 8.677 | 8.677 Mbytes
   Step          Temp          E_pair         E_mol          TotEng         Press
         0   0              45553.993      8.6795487e-07  45553.993      3286707.6
       100   0             -1891.2754      152.42041     -1738.8549     -8411.9868
Loop time of 0.237599 on 2 procs for 100 steps with 384 atoms

99.4% CPU use with 2 MPI tasks x 1 OpenMP threads

Minimization stats:
  Stopping criterion = max iterations
  Energy initial, next-to-last, final =
      45553.9933553442  -1738.01113556241  -1738.85494992166
  Force two-norm initial, final = 225286.18 30.18801
  Force max component initial, final = 117017.06 4.7537487
  Final line search alpha, max atom move = 0.0040336969 0.019175181
  Iterations, force evaluations = 100 170

MPI task timing breakdown:
Section |  min time  |  avg time  |  max time  |%varavg| %total
---------------------------------------------------------------
Pair    | 0.1768     | 0.17871    | 0.18063    |   0.5 | 75.22
Bond    | 0.00068287 | 0.00068575 | 0.00068863 |   0.0 |  0.29
Kspace  | 0.036408   | 0.038319   | 0.040231   |   1.0 | 16.13
Neigh   | 0.0058721  | 0.0058725  | 0.0058729  |   0.0 |  2.47
Comm    | 0.012452   | 0.01246    | 0.012467   |   0.0 |  5.24
Output  | 1.6456e-05 | 1.9481e-05 | 2.2506e-05 |   0.0 |  0.01
Modify  | 0          | 0          | 0          |   0.0 |  0.00
Other   |            | 0.001529   |            |       |  0.64

Nlocal:            192 ave         196 max         188 min
Histogram: 1 0 0 0 0 0 0 0 0 1
Nghost:           4785 ave        4789 max        4781 min
Histogram: 1 0 0 0 0 0 0 0 0 1
Neighs:          69266 ave       71381 max       67151 min
Histogram: 1 0 0 0 0 0 0 0 0 1

Total # of neighbors = 138532
Ave neighs/atom = 360.76042
Ave special neighs/atom = 2
Neighbor list builds = 4
Dangerous builds = 0
reset_timestep 0

# constrain water bonds and angles
fix fSHAKE all shake 0.0001 20 0 b 1 a 1
       0 = # of size 2 clusters
       0 = # of size 3 clusters
       0 = # of size 4 clusters
     128 = # of frozen angles
  find clusters CPU = 0.000 seconds

# remove Center of Mass movement every 100 steps
fix fMOM all momentum 100 linear 1 1 1

# define the neighbor list
neighbor 2.0 bin

# IMPORTANT: timestep and temperature and pressure
timestep 1.0
variable vTK equal 298.15
variable vPBAR equal 1.0

# randomize velocities
velocity all create ${vTK} 89375
velocity all create 298.15 89375

# thermostat (solving the ODE)
fix fTHERMO all nvt temp ${vTK} ${vTK} 100
fix fTHERMO all nvt temp 298.15 ${vTK} 100
fix fTHERMO all nvt temp 298.15 298.15 100

# print settings
thermo 1000
thermo_style custom step etotal ke pe temp press vol density
# trajectory output
dump dEQUI all custom 1000 equi.lammpstrj id element xu yu zu
dump_modify dEQUI element H O sort id

# equilibration
# 1 ns
run 1000000
PPPM initialization ...
  using 12-bit tables for long-range coulomb (src/kspace.cpp:342)
  G vector (1/distance) = 0.31203871
  grid = 15 15 15
  stencil order = 5
  estimated absolute RMS force accuracy = 0.0022228175
  estimated relative force accuracy = 6.6939488e-06
  using double precision FFTW3
  3d grid and FFT values/proc = 6776 1800
Generated 1 of 1 mixed pair_coeff terms from geometric mixing rule
Per MPI rank memory allocation (min/avg/max) = 9.715 | 9.715 | 9.715 Mbytes
   Step         TotEng         KinEng         PotEng          Temp          Press          Volume        Density
         0  -1664.6496      226.62577     -1891.2754      298.15        -9658.5712      3840.7412      0.99696119
      1000  -1261.6152      221.27354     -1482.8888      291.10858      1630.7894      3840.7412      0.99696119
      2000  -1267.0149      235.18351     -1502.1984      309.40861     -1457.6072      3840.7412      0.99696119
      3000  -1262.6403      225.76669     -1488.407       297.01979     -576.06218      3840.7412      0.99696119
      4000  -1262.4838      224.71136     -1487.1951      295.63138      681.71573      3840.7412      0.99696119
      5000  -1232.5041      254.83385     -1487.3379      335.26069     -913.60795      3840.7412      0.99696119
      6000  -1282.2768      213.37757     -1495.6543      280.7206       1105.6205      3840.7412      0.99696119
      7000  -1264.1614      235.37077     -1499.5322      309.65497     -1911.7293      3840.7412      0.99696119
      8000  -1244.4401      219.79428     -1464.2344      289.16245      1989.4969      3840.7412      0.99696119
      9000  -1252.7582      221.93431     -1474.6925      291.9779      -162.63584      3840.7412      0.99696119
     10000  -1257.3839      237.00573     -1494.3896      311.80593      366.81208      3840.7412      0.99696119
     11000  -1276.8016      234.54067     -1511.3423      308.56288     -91.820652      3840.7412      0.99696119
     12000  -1251.3051      238.79055     -1490.0956      314.15405      972.55253      3840.7412      0.99696119
     13000  -1244.9048      224.05916     -1468.964       294.77335      1691.2809      3840.7412      0.99696119
     14000  -1275.6054      225.84215     -1501.4475      297.11907     -1887.1715      3840.7412      0.99696119
     15000  -1270.1172      229.83787     -1499.9551      302.37585      1189.2028      3840.7412      0.99696119
     16000  -1240.8875      225.4407      -1466.3282      296.59091      156.83437      3840.7412      0.99696119
     17000  -1285.0281      210.20168     -1495.2298      276.54239      765.19136      3840.7412      0.99696119
     18000  -1239.5957      232.62806     -1472.2238      306.04664     -922.77762      3840.7412      0.99696119
     19000  -1275.2577      225.08716     -1500.3449      296.12579      8.1563823      3840.7412      0.99696119
     20000  -1266.5673      205.08867     -1471.656       269.81568     -455.45358      3840.7412      0.99696119
     21000  -1231.0787      241.96948     -1473.0482      318.33626     -636.38321      3840.7412      0.99696119
     22000  -1253.5735      229.53453     -1483.1081      301.97678     -1282.3351      3840.7412      0.99696119
     23000  -1290.3046      220.0444      -1510.349       289.49151     -255.13387      3840.7412      0.99696119
     24000  -1290.097       216.12282     -1506.2198      284.33227      915.898        3840.7412      0.99696119
     25000  -1269.2965      227.85261     -1497.1492      299.76403      1028.4347      3840.7412      0.99696119
     26000  -1297.1832      227.49394     -1524.6771      299.29216      18.77896       3840.7412      0.99696119
     27000  -1267.3446      219.24223     -1486.5868      288.43617      942.70779      3840.7412      0.99696119
     28000  -1235.8424      226.47545     -1462.3178      297.95223     -31.437417      3840.7412      0.99696119
     29000  -1230.8518      239.67063     -1470.5224      315.31187      1769.0755      3840.7412      0.99696119
     30000  -1266.5877      222.44258     -1489.0302      292.64657     -1105.9859      3840.7412      0.99696119
     31000  -1309.7876      214.45333     -1524.241       282.13587      557.40753      3840.7412      0.99696119
     32000  -1238.3336      241.1993      -1479.5329      317.32301      623.35392      3840.7412      0.99696119
     33000  -1265.523       219.51881     -1485.0418      288.80005      163.98132      3840.7412      0.99696119
     34000  -1302.4453      232.10581     -1534.5511      305.35956      2127.3365      3840.7412      0.99696119
     35000  -1280.6281      226.00897     -1506.6371      297.33853     -1291.0446      3840.7412      0.99696119
     36000  -1281.1602      220.58431     -1501.7445      290.20182     -1136.9128      3840.7412      0.99696119
     37000  -1282.968       226.94927     -1509.9173      298.5756       460.14653      3840.7412      0.99696119
     38000  -1264.8218      232.23693     -1497.0588      305.53206     -953.89318      3840.7412      0.99696119
     39000  -1258.688       234.54924     -1493.2372      308.57416      2684.656       3840.7412      0.99696119
     40000  -1253.0059      226.88247     -1479.8884      298.48772     -85.457791      3840.7412      0.99696119
     41000  -1245.1454      231.17721     -1476.3226      304.1379       1139.3789      3840.7412      0.99696119
     42000  -1233.347       232.9333      -1466.2803      306.44822      1230.192       3840.7412      0.99696119
     43000  -1262.4861      213.55857     -1476.0447      280.95872     -1136.1252      3840.7412      0.99696119
     44000  -1255.6648      241.15793     -1496.8228      317.26858     -33.751791      3840.7412      0.99696119
     45000  -1254.4673      219.68236     -1474.1497      289.01522      1036.6893      3840.7412      0.99696119
     46000  -1220.6821      228.02643     -1448.7086      299.99272      240.62706      3840.7412      0.99696119
     47000  -1259.3353      224.79554     -1484.1308      295.74214     -976.85591      3840.7412      0.99696119
     48000  -1281.3544      231.84842     -1513.2028      305.02094     -127.04459      3840.7412      0.99696119
     49000  -1295.0427      220.31442     -1515.3571      289.84676     -1052.3249      3840.7412      0.99696119
     50000  -1277.0271      219.2603      -1496.2874      288.45995      2942.2957      3840.7412      0.99696119
     51000  -1267.7837      226.11909     -1493.9028      297.4834      -292.08544      3840.7412      0.99696119
     52000  -1231.3142      246.45534     -1477.7695      324.23788      104.88122      3840.7412      0.99696119
     53000  -1269.0933      222.31212     -1491.4055      292.47494     -354.80306      3840.7412      0.99696119
     54000  -1262.1022      241.92418     -1504.0264      318.27667      974.24975      3840.7412      0.99696119
     55000  -1268.4908      230.32582     -1498.8166      303.01781     -1489.947       3840.7412      0.99696119
     56000  -1263.9333      237.04754     -1500.9809      311.86093     -937.88096      3840.7412      0.99696119
     57000  -1248.4987      241.50235     -1490.001       317.7217       1458.1043      3840.7412      0.99696119
     58000  -1246.5608      228.94076     -1475.5016      301.19561      53.135655      3840.7412      0.99696119
     59000  -1227.6565      242.15897     -1469.8155      318.58556      910.5228       3840.7412      0.99696119
     60000  -1261.605       231.96507     -1493.5701      305.17441      797.37265      3840.7412      0.99696119
     61000  -1266.4562      220.02229     -1486.4785      289.46243      2446.0092      3840.7412      0.99696119
     62000  -1243.5636      227.52524     -1471.0888      299.33335      659.07496      3840.7412      0.99696119
     63000  -1237.5533      229.05636     -1466.6096      301.34769     -1125.3428      3840.7412      0.99696119
     64000  -1284.6761      225.33899     -1510.0151      296.45711     -379.73391      3840.7412      0.99696119
     65000  -1265.1002      215.16497     -1480.2651      283.07211     -270.33096      3840.7412      0.99696119
     66000  -1289.8668      195.1519      -1485.0188      256.74282     -2232.8827      3840.7412      0.99696119
     67000  -1246.8503      244.53335     -1491.3837      321.70929      845.82572      3840.7412      0.99696119
     68000  -1254.3834      219.09904     -1473.4825      288.24779      1717.9979      3840.7412      0.99696119
     69000  -1279.6504      218.42277     -1498.0731      287.35809     -1675.0562      3840.7412      0.99696119
     70000  -1243.3864      233.47826     -1476.8646      307.16516     -956.13478      3840.7412      0.99696119
     71000  -1292.5729      222.14332     -1514.7162      292.25287     -1600.0034      3840.7412      0.99696119
     72000  -1282.7018      201.78671     -1484.4885      265.4716       891.97558      3840.7412      0.99696119
     73000  -1249.131       216.65879     -1465.7898      285.03738      1140.8383      3840.7412      0.99696119
     74000  -1271.1212      232.55249     -1503.6737      305.94722      1378.0059      3840.7412      0.99696119
     75000  -1284.4512      208.0953      -1492.5465      273.77122     -1091.4043      3840.7412      0.99696119
     76000  -1246.597       230.4429      -1477.0399      303.17184      1886.3498      3840.7412      0.99696119
     77000  -1262.9881      223.60496     -1486.5931      294.17581      898.69051      3840.7412      0.99696119
     78000  -1277.6531      234.59795     -1512.251       308.63824      1142.3004      3840.7412      0.99696119
     79000  -1299.525       214.32509     -1513.8501      281.96716      160.30345      3840.7412      0.99696119
     80000  -1294.9772      206.04765     -1501.0249      271.07732      347.68627      3840.7412      0.99696119
     81000  -1262.5415      231.13118     -1493.6726      304.07733      139.78029      3840.7412      0.99696119
     82000  -1250.9158      233.73923     -1484.6551      307.5085      -559.73957      3840.7412      0.99696119
     83000  -1265.7153      219.98342     -1485.6987      289.41129      1142.126       3840.7412      0.99696119
     84000  -1252.3935      226.95051     -1479.344       298.57722      469.87121      3840.7412      0.99696119
     85000  -1238.5062      227.93214     -1466.4384      299.86867      325.42475      3840.7412      0.99696119
     86000  -1268.834       221.43052     -1490.2645      291.31511     -192.63079      3840.7412      0.99696119
     87000  -1227.3859      241.61667     -1469.0026      317.8721       1819.3144      3840.7412      0.99696119
     88000  -1269.7531      234.43633     -1504.1895      308.4256       169.49731      3840.7412      0.99696119
     89000  -1302.1516      231.78789     -1533.9395      304.9413      -2310.8769      3840.7412      0.99696119
     90000  -1242.9255      259.90005     -1502.8255      341.92581     -1472.5008      3840.7412      0.99696119
     91000  -1254.1339      244.35185     -1498.4858      321.47051     -351.84756      3840.7412      0.99696119
     92000  -1297.1388      218.30821     -1515.447       287.20737     -1332.4975      3840.7412      0.99696119
     93000  -1265.3688      233.43845     -1498.8073      307.1128      -790.1649       3840.7412      0.99696119
     94000  -1266.0774      217.65936     -1483.7368      286.35375      973.79127      3840.7412      0.99696119
     95000  -1277.038       229.57689     -1506.6149      302.03251      100.27573      3840.7412      0.99696119
     96000  -1281.1515      240.56847     -1521.72        316.49308     -292.15233      3840.7412      0.99696119
     97000  -1258.7834      232.09051     -1490.8739      305.33944     -1892.9957      3840.7412      0.99696119
     98000  -1302.8242      217.76634     -1520.5906      286.49449     -94.107029      3840.7412      0.99696119
     99000  -1269.7922      232.35024     -1502.1424      305.68114      1214.4386      3840.7412      0.99696119
    100000  -1268.6346      226.89406     -1495.5286      298.50296     -322.8824       3840.7412      0.99696119
    101000  -1245.9795      231.39129     -1477.3708      304.41954     -1107.7368      3840.7412      0.99696119
    102000  -1260.5705      223.11153     -1483.6821      293.52664     -1.4348275      3840.7412      0.99696119
    103000  -1264.9207      220.85064     -1485.7713      290.55221      1226.6703      3840.7412      0.99696119
    104000  -1242.8593      227.62013     -1470.4794      299.45818      43.304379      3840.7412      0.99696119
    105000  -1254.7243      222.57676     -1477.301       292.8231      -2182.8984      3840.7412      0.99696119
    106000  -1279.5112      222.37954     -1501.8907      292.56364      535.55521      3840.7412      0.99696119
    107000  -1271.4487      228.43797     -1499.8867      300.53413      218.64167      3840.7412      0.99696119
    108000  -1278.3936      221.61568     -1500.0093      291.5587      -327.63073      3840.7412      0.99696119
    109000  -1292.7773      244.32213     -1537.0995      321.43142      2185.3032      3840.7412      0.99696119
    110000  -1297.4073      214.33527     -1511.7425      281.98056     -494.23642      3840.7412      0.99696119
    111000  -1264.6239      228.80353     -1493.4275      301.01507      543.21814      3840.7412      0.99696119
    112000  -1240.8061      240.99392     -1481.8         317.0528      -314.36017      3840.7412      0.99696119
    113000  -1257.5115      217.54697     -1475.0585      286.20588     -291.87822      3840.7412      0.99696119
    114000  -1258.8947      234.93269     -1493.8274      309.07863      1556.0139      3840.7412      0.99696119
    115000  -1282.2993      207.95675     -1490.2561      273.58894     -260.16356      3840.7412      0.99696119
    116000  -1267.131       230.32277     -1497.4538      303.01378     -50.09352       3840.7412      0.99696119
    117000  -1307.7153      182.9925      -1490.7078      240.74584     -1605.1408      3840.7412      0.99696119
    118000  -1263.4607      221.4457      -1484.9064      291.33507      2591.42        3840.7412      0.99696119
    119000  -1242.793       225.84728     -1468.6403      297.12581      2173.3628      3840.7412      0.99696119
    120000  -1249.4429      218.52568     -1467.9686      287.49347     -2134.8664      3840.7412      0.99696119
    121000  -1269.2656      217.72351     -1486.9891      286.43813     -1463.1793      3840.7412      0.99696119
    122000  -1265.3661      254.25455     -1519.6206      334.49856     -36.732949      3840.7412      0.99696119
    123000  -1253.9706      226.51799     -1480.4885      298.0082       1512.344       3840.7412      0.99696119
    124000  -1264.2858      224.74022     -1489.0261      295.66936      1105.2669      3840.7412      0.99696119
    125000  -1246.4177      237.29663     -1483.7143      312.18863      1249.9079      3840.7412      0.99696119
    126000  -1253.3872      233.88528     -1487.2725      307.70064     -1041.9177      3840.7412      0.99696119
    127000  -1263.453       221.8422      -1485.2952      291.85671     -2048.0682      3840.7412      0.99696119
    128000  -1261.4924      235.87874     -1497.3712      310.32325     -1755.1988      3840.7412      0.99696119
    129000  -1250.576       226.4988      -1477.0748      297.98295      262.30965      3840.7412      0.99696119
    130000  -1238.1824      247.13564     -1485.318       325.13289      1397.284       3840.7412      0.99696119
    131000  -1274.8823      218.90544     -1493.7877      287.99309     -307.49853      3840.7412      0.99696119
    132000  -1266.3528      234.33384     -1500.6866      308.29078     -1397.7975      3840.7412      0.99696119
    133000  -1269.5268      247.09116     -1516.6179      325.07437     -1413.0189      3840.7412      0.99696119
    134000  -1297.4674      222.0697      -1519.5371      292.15601     -1076.5711      3840.7412      0.99696119
    135000  -1268.9634      210.69424     -1479.6576      277.1904       1561.0744      3840.7412      0.99696119
    136000  -1269.7472      239.40983     -1509.157       314.96877     -641.15655      3840.7412      0.99696119
    137000  -1216.2476      249.80403     -1466.0517      328.64343      1804.8036      3840.7412      0.99696119
    138000  -1248.4063      227.12406     -1475.5304      298.80555      2014.184       3840.7412      0.99696119
    139000  -1277.1714      234.0553      -1511.2267      307.92433      783.5127       3840.7412      0.99696119
    140000  -1277.5318      216.62389     -1494.1557      284.99148      483.75037      3840.7412      0.99696119
    141000  -1258.8168      238.49199     -1497.3088      313.76125      803.38713      3840.7412      0.99696119
    142000  -1285.3471      212.4558      -1497.8029      279.50791      4134.9261      3840.7412      0.99696119
    143000  -1284.8306      214.23265     -1499.0633      281.84555      848.7853       3840.7412      0.99696119
    144000  -1296.8081      216.87018     -1513.6783      285.3155       637.78277      3840.7412      0.99696119
    145000  -1285.2931      218.18478     -1503.4778      287.04499     -1196.8311      3840.7412      0.99696119
    146000  -1273.3108      228.07384     -1501.3847      300.05509      1237.9177      3840.7412      0.99696119
    147000  -1228.4264      225.5439      -1453.9703      296.72668      76.361588      3840.7412      0.99696119
    148000  -1257.9992      212.47081     -1470.4701      279.52766     -1640.6603      3840.7412      0.99696119
    149000  -1246.0112      239.88512     -1485.8963      315.59406      116.18009      3840.7412      0.99696119
    150000  -1254.7145      222.34379     -1477.0582      292.5166       1574.6218      3840.7412      0.99696119
    151000  -1293.2896      201.84973     -1495.1393      265.55452      63.40395       3840.7412      0.99696119
    152000  -1263.3877      240.39166     -1503.7793      316.26047      766.01228      3840.7412      0.99696119
    153000  -1276.0495      221.60633     -1497.6558      291.54639     -376.39556      3840.7412      0.99696119
    154000  -1287.9953      232.97441     -1520.9697      306.50231      1885.1855      3840.7412      0.99696119
    155000  -1262.031       244.84532     -1506.8763      322.11972      929.70433      3840.7412      0.99696119
    156000  -1274.6333      234.86937     -1509.5027      308.99532      672.0798       3840.7412      0.99696119
    157000  -1225.1228      248.87645     -1473.9993      327.4231       24.923552      3840.7412      0.99696119
    158000  -1256.3042      215.78956     -1472.0937      283.89383      1183.869       3840.7412      0.99696119
    159000  -1260.1281      204.21939     -1464.3475      268.67206      589.54156      3840.7412      0.99696119
    160000  -1246.2835      235.11764     -1481.4011      309.32195      28.785679      3840.7412      0.99696119
    161000  -1268.6342      202.5964      -1471.2306      266.53684     -501.8495       3840.7412      0.99696119
    162000  -1286.8513      206.6605      -1493.5118      271.88359      1773.0651      3840.7412      0.99696119
    163000  -1235.9124      228.48237     -1464.3948      300.59255      284.17307      3840.7412      0.99696119
    164000  -1269.8491      214.09464     -1483.9437      281.66398     -142.40894      3840.7412      0.99696119
    165000  -1203.7409      248.17195     -1451.9128      326.49625      284.42328      3840.7412      0.99696119
    166000  -1281.8576      214.01932     -1495.8769      281.56489     -764.29695      3840.7412      0.99696119
    167000  -1257.9634      233.88388     -1491.8473      307.6988       660.70156      3840.7412      0.99696119
    168000  -1270.323       226.67517     -1496.9982      298.21499     -1041.4246      3840.7412      0.99696119
    169000  -1249.0504      250.31382     -1499.3642      329.31412      586.1251       3840.7412      0.99696119
    170000  -1270.5791      236.13053     -1506.7097      310.65451     -385.03627      3840.7412      0.99696119
    171000  -1254.0596      210.93466     -1464.9943      277.5067       587.80037      3840.7412      0.99696119
    172000  -1261.921       226.71839     -1488.6394      298.27184     -593.56865      3840.7412      0.99696119
    173000  -1253.6193      237.4007      -1491.02        312.32554      1544.4857      3840.7412      0.99696119
    174000  -1301.0717      212.62149     -1513.6932      279.7259       1410.8795      3840.7412      0.99696119
    175000  -1232.4283      240.32735     -1472.7556      316.17587      1292.7682      3840.7412      0.99696119
    176000  -1289.8164      203.33278     -1493.1491      267.50562     -492.06789      3840.7412      0.99696119
    177000  -1238.3773      255.01783     -1493.3952      335.50274      555.54873      3840.7412      0.99696119
    178000  -1258.0585      232.85391     -1490.9124      306.34377      220.22241      3840.7412      0.99696119
    179000  -1260.9452      227.16288     -1488.1081      298.85662     -825.65543      3840.7412      0.99696119
    180000  -1227.7349      249.19041     -1476.9253      327.83615     -230.69975      3840.7412      0.99696119
    181000  -1236.6574      240.58805     -1477.2454      316.51885     -490.08368      3840.7412      0.99696119
    182000  -1259.9221      216.20244     -1476.1246      284.43702      741.87955      3840.7412      0.99696119
    183000  -1238.108       242.21403     -1480.322       318.65799      784.7493       3840.7412      0.99696119
    184000  -1238.2818      234.14885     -1472.4306      308.0474       2059.7614      3840.7412      0.99696119
    185000  -1289.2116      212.25822     -1501.4698      279.24797      934.87855      3840.7412      0.99696119
    186000  -1268.6177      241.83961     -1510.4573      318.1654       332.30461      3840.7412      0.99696119
    187000  -1240.3305      243.67189     -1484.0024      320.57596     -1176.4978      3840.7412      0.99696119
    188000  -1259.9489      222.85652     -1482.8055      293.19115      1192.4281      3840.7412      0.99696119
    189000  -1261.8507      217.77011     -1479.6209      286.49944      1411.2653      3840.7412      0.99696119
    190000  -1280.3684      229.3571      -1509.7255      301.74335     -250.25226      3840.7412      0.99696119
    191000  -1281.6635      233.36928     -1515.0328      307.0218       12.353491      3840.7412      0.99696119
    192000  -1234.6909      242.9056      -1477.5965      319.56782      288.62298      3840.7412      0.99696119
    193000  -1237.3903      226.10561     -1463.496       297.46568      1402.7239      3840.7412      0.99696119
    194000  -1213.3277      230.66362     -1443.9913      303.46221     -1740.6186      3840.7412      0.99696119
    195000  -1266.9086      220.59434     -1487.5029      290.21501     -882.62022      3840.7412      0.99696119
    196000  -1240.2583      243.06723     -1483.3256      319.78046      185.78092      3840.7412      0.99696119
    197000  -1256.0097      224.9103      -1480.92        295.89312      1869.2734      3840.7412      0.99696119
    198000  -1265.9045      220.6951      -1486.5996      290.34758      461.1338       3840.7412      0.99696119
    199000  -1250.4624      241.78454     -1492.247       318.09295     -1176.8152      3840.7412      0.99696119
    200000  -1225.7749      239.94395     -1465.7188      315.67147     -1444.2181      3840.7412      0.99696119
    201000  -1240.0072      228.07681     -1468.084       300.05899      619.83557      3840.7412      0.99696119
    202000  -1251.9153      231.73394     -1483.6492      304.87033      1179.8105      3840.7412      0.99696119
    203000  -1247.5992      249.48474     -1497.0839      328.22337      933.53388      3840.7412      0.99696119
    204000  -1266.1535      224.90614     -1491.0596      295.88764     -1356.8774      3840.7412      0.99696119
    205000  -1277.2669      220.63239     -1497.8993      290.26508     -839.15493      3840.7412      0.99696119
    206000  -1248.8116      225.65219     -1474.4637      296.86915      283.79105      3840.7412      0.99696119
    207000  -1228.9911      237.88974     -1466.8808      312.96893      1137.6404      3840.7412      0.99696119
    208000  -1239.9944      238.95813     -1478.9526      314.37452      1986.9915      3840.7412      0.99696119
    209000  -1265.9978      225.83427     -1491.832       297.10869      881.59754      3840.7412      0.99696119
    210000  -1260.6855      228.5353      -1489.2208      300.66219     -44.480598      3840.7412      0.99696119
    211000  -1239.1203      249.13132     -1488.2516      327.75841      1876.062       3840.7412      0.99696119
    212000  -1296.7408      216.91503     -1513.6558      285.3745       330.94057      3840.7412      0.99696119
    213000  -1270.0828      242.78227     -1512.865       319.40557      1337.696       3840.7412      0.99696119
    214000  -1289.6652      195.22671     -1484.8919      256.84124      22.315252      3840.7412      0.99696119
    215000  -1264.9688      223.33971     -1488.3085      293.82684      1153.8224      3840.7412      0.99696119
    216000  -1233.3326      226.32982     -1459.6624      297.76065      76.118713      3840.7412      0.99696119
    217000  -1280.9698      206.6671      -1487.6369      271.89227     -1101.9063      3840.7412      0.99696119
    218000  -1254.368       221.40584     -1475.7739      291.28263     -211.86915      3840.7412      0.99696119
    219000  -1271.5898      211.5161      -1483.1059      278.27164      1977.6773      3840.7412      0.99696119
    220000  -1251.1349      223.88774     -1475.0226      294.54783      115.8443       3840.7412      0.99696119
    221000  -1288.9487      231.69064     -1520.6393      304.81337      1654.0938      3840.7412      0.99696119
    222000  -1258.651       212.44058     -1471.0916      279.4879       1231.0236      3840.7412      0.99696119
    223000  -1301.7879      215.8199      -1517.6078      283.93373     -2806.5298      3840.7412      0.99696119
    224000  -1233.6672      234.25317     -1467.9204      308.18464     -2047.7177      3840.7412      0.99696119
    225000  -1265.6377      230.84252     -1496.4802      303.69758     -524.40904      3840.7412      0.99696119
    226000  -1273.6237      229.21196     -1502.8357      301.55241     -1009.4954      3840.7412      0.99696119
    227000  -1290.9392      221.35574     -1512.2949      291.21673      783.72683      3840.7412      0.99696119
    228000  -1249.7075      244.64375     -1494.3513      321.85454     -161.13757      3840.7412      0.99696119
    229000  -1247.4519      227.74022     -1475.1921      299.61618      803.73651      3840.7412      0.99696119
    230000  -1236.4261      233.23988     -1469.666       306.85156     -311.63437      3840.7412      0.99696119
    231000  -1231.7903      226.23296     -1458.0232      297.63321     -1232.2604      3840.7412      0.99696119
    232000  -1275.4146      220.00691     -1495.4215      289.44219     -381.11242      3840.7412      0.99696119
    233000  -1312.1495      223.42642     -1535.5759      293.94091     -594.28492      3840.7412      0.99696119
    234000  -1294.4299      213.07473     -1507.5046      280.32218     -701.11865      3840.7412      0.99696119
    235000  -1275.8581      226.88294     -1502.741       298.48833      186.55906      3840.7412      0.99696119
    236000  -1292.9211      213.30987     -1506.231       280.63154      360.30075      3840.7412      0.99696119
    237000  -1252.4503      235.99214     -1488.4424      310.47244     -1166.0136      3840.7412      0.99696119
    238000  -1265.8621      225.40293     -1491.265       296.54122      119.3495       3840.7412      0.99696119
    239000  -1296.0704      227.15263     -1523.223       298.84314     -1777.9603      3840.7412      0.99696119
    240000  -1281.4356      215.40188     -1496.8374      283.38379      1204.6035      3840.7412      0.99696119
    241000  -1258.2979      223.45621     -1481.7541      293.98011      540.28988      3840.7412      0.99696119
    242000  -1290.371       218.82473     -1509.1957      287.88692     -1362.589       3840.7412      0.99696119
    243000  -1238.1516      239.77111     -1477.9227      315.44407      517.03771      3840.7412      0.99696119
    244000  -1270.6692      219.90968     -1490.5789      289.31428     -316.52901      3840.7412      0.99696119
    245000  -1246.8794      223.32678     -1470.2062      293.80983     -654.50589      3840.7412      0.99696119
    246000  -1260.4804      216.83006     -1477.3105      285.26272     -589.3138       3840.7412      0.99696119
    247000  -1246.723       236.27365     -1482.9966      310.8428      -1620.1461      3840.7412      0.99696119
    248000  -1237.8338      215.25464     -1453.0884      283.19008     -871.71148      3840.7412      0.99696119
    249000  -1252.0721      226.53956     -1478.6117      298.03659     -154.27874      3840.7412      0.99696119
    250000  -1235.0089      236.98957     -1471.9985      311.78467      2138.1331      3840.7412      0.99696119
    251000  -1257.7727      228.67725     -1486.4499      300.84894     -194.26277      3840.7412      0.99696119
    252000  -1225.5689      232.08825     -1457.6572      305.33646     -378.95414      3840.7412      0.99696119
    253000  -1272.4035      220.61576     -1493.0193      290.2432      -695.05899      3840.7412      0.99696119
    254000  -1235.6742      231.11844     -1466.7926      304.06057     -1922.1325      3840.7412      0.99696119
    255000  -1303.1843      220.77565     -1523.96        290.45355     -25.638402      3840.7412      0.99696119
    256000  -1245.6947      236.83502     -1482.5297      311.58134      155.44397      3840.7412      0.99696119
    257000  -1266.5996      222.38868     -1488.9883      292.57566     -77.568772      3840.7412      0.99696119
    258000  -1246.06        224.68936     -1470.7493      295.60244     -971.39151      3840.7412      0.99696119
    259000  -1269.6984      214.98403     -1484.6824      282.83407      11.395941      3840.7412      0.99696119
    260000  -1241.5083      233.19719     -1474.7055      306.79539      20.508658      3840.7412      0.99696119
    261000  -1253.6267      218.06156     -1471.6882      286.88288      767.02519      3840.7412      0.99696119
    262000  -1259.9508      217.59046     -1477.5413      286.26309      1672.293       3840.7412      0.99696119
    263000  -1276.9772      233.41077     -1510.388       307.07637     -1737.5646      3840.7412      0.99696119
    264000  -1280.3891      214.67241     -1495.0615      282.4241      -2066.3715      3840.7412      0.99696119
    265000  -1271.8439      228.84607     -1500.69        301.07103     -1117.5312      3840.7412      0.99696119
    266000  -1260.2064      209.33059     -1469.537       275.39637      1491.2522      3840.7412      0.99696119
    267000  -1219.6125      230.78406     -1450.3965      303.62066     -385.86414      3840.7412      0.99696119
    268000  -1284.558       222.10176     -1506.6598      292.19819      1543.5329      3840.7412      0.99696119
    269000  -1259.0463      227.09704     -1486.1434      298.77001     -901.83343      3840.7412      0.99696119
    270000  -1255.3959      217.78894     -1473.1849      286.52422     -485.44712      3840.7412      0.99696119
    271000  -1256.6029      231.54094     -1488.1438      304.61642      252.36311      3840.7412      0.99696119
    272000  -1245.2497      223.17837     -1468.428       293.61459     -423.82818      3840.7412      0.99696119
    273000  -1297.9087      228.42283     -1526.3315      300.51422     -1473.5007      3840.7412      0.99696119
    274000  -1258.847       227.6513      -1486.4983      299.49919     -1204.0226      3840.7412      0.99696119
    275000  -1268.4912      239.5594      -1508.0506      315.16555      63.649178      3840.7412      0.99696119
    276000  -1288.9111      219.58051     -1508.4916      288.88122      331.68317      3840.7412      0.99696119
    277000  -1238.5532      227.12082     -1465.674       298.80128      533.72093      3840.7412      0.99696119
    278000  -1239.4411      240.55393     -1479.995       316.47396      1622.3485      3840.7412      0.99696119
    279000  -1260.8596      224.93156     -1485.7912      295.92109      487.88414      3840.7412      0.99696119
    280000  -1282.0912      209.16376     -1491.255       275.17688      1062.0738      3840.7412      0.99696119
    281000  -1291.1097      221.43248     -1512.5421      291.31768      153.66485      3840.7412      0.99696119
    282000  -1266.4225      222.9067      -1489.3292      293.25717     -541.66387      3840.7412      0.99696119
    283000  -1280.0102      224.12515     -1504.1354      294.86017      2185.7375      3840.7412      0.99696119
    284000  -1269.4881      223.38674     -1492.8749      293.88871      1376.5253      3840.7412      0.99696119
    285000  -1239.6758      234.29971     -1473.9755      308.24587      2317.7776      3840.7412      0.99696119
    286000  -1265.0808      214.87186     -1479.9527      282.6865       487.3632       3840.7412      0.99696119
    287000  -1221.8631      252.02282     -1473.8859      331.56249     -680.54848      3840.7412      0.99696119
    288000  -1246.0657      232.06253     -1478.1282      305.30262     -56.023384      3840.7412      0.99696119
    289000  -1245.6296      245.29585     -1490.9254      322.71245      559.03829      3840.7412      0.99696119
    290000  -1276.5336      221.64674     -1498.1804      291.59956      1225.1472      3840.7412      0.99696119
    291000  -1278.4237      223.0645      -1501.4882      293.46478      951.51397      3840.7412      0.99696119
    292000  -1258.6333      244.41601     -1503.0493      321.55492     -637.32708      3840.7412      0.99696119
    293000  -1262.1283      225.81109     -1487.9394      297.0782      -299.94606      3840.7412      0.99696119
    294000  -1285.022       240.68924     -1525.7113      316.65197      908.12763      3840.7412      0.99696119
    295000  -1250.7725      226.43546     -1477.208       297.89962     -374.37236      3840.7412      0.99696119
    296000  -1236.4544      217.21005     -1453.6644      285.76262      154.09936      3840.7412      0.99696119
    297000  -1283.3745      215.99903     -1499.3735      284.16941     -487.45333      3840.7412      0.99696119
    298000  -1240.9631      235.55345     -1476.5166      309.8953       317.98866      3840.7412      0.99696119
    299000  -1263.5001      240.48279     -1503.9829      316.38036      2528.9021      3840.7412      0.99696119
    300000  -1227.645       236.29387     -1463.9389      310.86939      3178.7777      3840.7412      0.99696119
    301000  -1277.8574      222.31501     -1500.1724      292.47874      1319.9218      3840.7412      0.99696119
    302000  -1299.9391      213.71157     -1513.6506      281.16001     -2350.2426      3840.7412      0.99696119
    303000  -1272.1633      235.14719     -1507.3105      309.36082     -459.13067      3840.7412      0.99696119
    304000  -1230.925       247.81943     -1478.7444      326.03248      186.61314      3840.7412      0.99696119
    305000  -1275.2521      225.94386     -1501.1959      297.25287      393.18489      3840.7412      0.99696119
    306000  -1297.1738      233.58401     -1530.7578      307.30429      168.0755       3840.7412      0.99696119
    307000  -1294.1751      232.77573     -1526.9508      306.24091      976.60071      3840.7412      0.99696119
    308000  -1283.1905      234.87865     -1518.0692      309.00753      388.07631      3840.7412      0.99696119
    309000  -1279.7887      201.58931     -1481.378       265.2119       930.48315      3840.7412      0.99696119
    310000  -1238.0372      237.61725     -1475.6544      312.61045     -518.08704      3840.7412      0.99696119
    311000  -1254.2747      230.70513     -1484.9798      303.51682     -1466.6024      3840.7412      0.99696119
    312000  -1243.9968      245.72263     -1489.7195      323.27392      502.70089      3840.7412      0.99696119
    313000  -1245.9253      228.10856     -1474.0338      300.10077      1879.9623      3840.7412      0.99696119
    314000  -1257.1933      229.36855     -1486.5618      301.75841     -222.43688      3840.7412      0.99696119
    315000  -1256.8696      215.36405     -1472.2336      283.33402      1014.0065      3840.7412      0.99696119
    316000  -1273.8065      209.35466     -1483.1611      275.42804      576.53099      3840.7412      0.99696119
    317000  -1271.2273      209.03441     -1480.2618      275.00672      2039.7323      3840.7412      0.99696119
    318000  -1246.3934      242.67672     -1489.0702      319.26671      992.8603       3840.7412      0.99696119
    319000  -1276.2582      233.54921     -1509.8074      307.25851      76.239568      3840.7412      0.99696119
    320000  -1293.4588      211.18998     -1504.6487      277.8426       462.94843      3840.7412      0.99696119
    321000  -1308.912       208.27599     -1517.188       274.00893      2046.4609      3840.7412      0.99696119
    322000  -1271.1432      215.50553     -1486.6487      283.52016     -958.86326      3840.7412      0.99696119
    323000  -1248.2471      229.92222     -1478.1693      302.48682     -1456.9711      3840.7412      0.99696119
    324000  -1259.3981      211.90113     -1471.2992      278.77819      1477.312       3840.7412      0.99696119
    325000  -1279.1844      210.08133     -1489.2657      276.38405     -210.87643      3840.7412      0.99696119
    326000  -1251.3162      220.98548     -1472.3017      290.7296      -484.83074      3840.7412      0.99696119
    327000  -1240.7211      230.79727     -1471.5183      303.63804      29.029251      3840.7412      0.99696119
    328000  -1237.0286      222.75295     -1459.7816      293.0549      -712.44297      3840.7412      0.99696119
    329000  -1239.8276      225.39224     -1465.2198      296.52716      826.31555      3840.7412      0.99696119
    330000  -1294.5138      217.12728     -1511.6411      285.65373     -1373.1504      3840.7412      0.99696119
    331000  -1262.7288      229.60471     -1492.3336      302.06911     -440.84824      3840.7412      0.99696119
    332000  -1318.3557      225.61038     -1543.966       296.81415      451.71117      3840.7412      0.99696119
    333000  -1311.9798      209.78534     -1521.7652      275.99465      571.88146      3840.7412      0.99696119
    334000  -1256.6114      231.33803     -1487.9494      304.34946      106.68036      3840.7412      0.99696119
    335000  -1248.3992      239.26769     -1487.6669      314.78178     -134.26217      3840.7412      0.99696119
    336000  -1241.8921      228.0902      -1469.9823      300.07661     -354.37417      3840.7412      0.99696119
    337000  -1311.5813      212.19267     -1523.774       279.16174     -82.711598      3840.7412      0.99696119
    338000  -1285.2229      211.61553     -1496.8384      278.40245      1674.4059      3840.7412      0.99696119
    339000  -1222.7191      236.89862     -1459.6177      311.66501     -162.66263      3840.7412      0.99696119
    340000  -1263.5501      232.09611     -1495.6462      305.3468       1150.3853      3840.7412      0.99696119
    341000  -1272.4948      233.79659     -1506.2914      307.58396     -228.54265      3840.7412      0.99696119
    342000  -1253.2821      232.32096     -1485.6031      305.64262     -538.7465       3840.7412      0.99696119
    343000  -1280.3081      203.39257     -1483.7007      267.58428     -2801.0517      3840.7412      0.99696119
    344000  -1258.2555      226.24719     -1484.5027      297.65193      401.39186      3840.7412      0.99696119
    345000  -1237.7698      251.74969     -1489.5195      331.20316     -405.71235      3840.7412      0.99696119
    346000  -1237.6273      237.32431     -1474.9516      312.22505      254.93576      3840.7412      0.99696119
    347000  -1248.0061      225.05073     -1473.0569      296.07787      284.68968      3840.7412      0.99696119
    348000  -1268.454       236.69067     -1505.1447      311.39143     -106.28525      3840.7412      0.99696119
    349000  -1279.4169      226.46348     -1505.8803      297.93648      448.04977      3840.7412      0.99696119
    350000  -1276.1191      215.37922     -1491.4983      283.35399      512.69412      3840.7412      0.99696119
    351000  -1268.3642      231.86297     -1500.2271      305.04009      724.61354      3840.7412      0.99696119
    352000  -1225.1354      226.82823     -1451.9636      298.41635      3006.9637      3840.7412      0.99696119
    353000  -1267.8344      235.61299     -1503.4474      309.97363      1938.5526      3840.7412      0.99696119
    354000  -1260.584       238.13136     -1498.7154      313.28681     -129.79906      3840.7412      0.99696119
    355000  -1274.5738      213.73371     -1488.3075      281.18913     -1651.6868      3840.7412      0.99696119
    356000  -1253.4994      242.77774     -1496.2771      319.39961      1892.5878      3840.7412      0.99696119
    357000  -1241.3206      236.8851      -1478.2057      311.64723      148.98652      3840.7412      0.99696119
    358000  -1246.9373      233.89128     -1480.8285      307.70854      1543.5275      3840.7412      0.99696119
    359000  -1265.4205      225.20185     -1490.6223      296.27669      590.71769      3840.7412      0.99696119
    360000  -1297.8088      209.66381     -1507.4726      275.83476     -695.94543      3840.7412      0.99696119
    361000  -1276.1449      236.95449     -1513.0994      311.73852      29.228683      3840.7412      0.99696119
    362000  -1269.5388      230.18517     -1499.724       302.83276     -1803.1562      3840.7412      0.99696119
    363000  -1262.5493      236.86356     -1499.4129      311.61888      782.96853      3840.7412      0.99696119
    364000  -1274.3656      221.43286     -1495.7984      291.31818     -772.48368      3840.7412      0.99696119
    365000  -1258.4245      225.87199     -1484.2965      297.15832      882.99496      3840.7412      0.99696119
    366000  -1222.5678      230.33773     -1452.9055      303.03346     -1474.1513      3840.7412      0.99696119
    367000  -1254.3756      243.03588     -1497.4115      319.73922     -1024.6947      3840.7412      0.99696119
    368000  -1299.6444      203.48185     -1503.1263      267.70175     -81.556786      3840.7412      0.99696119
    369000  -1271.2035      211.36586     -1482.5694      278.07399      1072.7562      3840.7412      0.99696119
    370000  -1287.7938      211.30956     -1499.1034      277.99992     -1259.4244      3840.7412      0.99696119
    371000  -1246.1149      231.78901     -1477.9039      304.94279      2312.2421      3840.7412      0.99696119
    372000  -1291.7607      218.87156     -1510.6323      287.94851      1405.9288      3840.7412      0.99696119
    373000  -1270.0022      218.4078      -1488.41        287.3384      -440.87291      3840.7412      0.99696119
    374000  -1231.5783      230.87377     -1462.4521      303.73869      662.4292       3840.7412      0.99696119
    375000  -1273.3177      207.99659     -1481.3143      273.64135      1012.0716      3840.7412      0.99696119
    376000  -1282.1569      199.33174     -1481.4886      262.24183      1701.8057      3840.7412      0.99696119
    377000  -1253.5122      224.09885     -1477.6111      294.82558     -875.18325      3840.7412      0.99696119
    378000  -1253.8164      226.28576     -1480.1021      297.70268     -217.22402      3840.7412      0.99696119
    379000  -1230.349       243.66101     -1474.0101      320.56165     -182.15722      3840.7412      0.99696119
    380000  -1211.4381      240.0382      -1451.4763      315.79546     -153.30756      3840.7412      0.99696119
    381000  -1276.8812      239.11564     -1515.9968      314.58174     -1660.2999      3840.7412      0.99696119
    382000  -1278.0968      230.73081     -1508.8276      303.55061     -1756.1702      3840.7412      0.99696119
    383000  -1250.4353      245.58494     -1496.0202      323.09278     -251.73421      3840.7412      0.99696119
    384000  -1269.5223      216.01793     -1485.5402      284.19427      979.40367      3840.7412      0.99696119
    385000  -1218.0004      237.66695     -1455.6673      312.67583      313.40163      3840.7412      0.99696119
    386000  -1233.3272      250.17766     -1483.5049      329.13498      1051.0737      3840.7412      0.99696119
    387000  -1259.2336      218.21039     -1477.444       287.07869     -369.34837      3840.7412      0.99696119
    388000  -1272.6234      214.47675     -1487.1001      282.16669     -723.92295      3840.7412      0.99696119
    389000  -1259.4906      237.66344     -1497.154       312.67121     -425.61689      3840.7412      0.99696119
    390000  -1279.4791      235.25712     -1514.7362      309.50545     -579.35522      3840.7412      0.99696119
    391000  -1318.8401      200.37417     -1519.2143      263.61327      1313.5834      3840.7412      0.99696119
    392000  -1315.0519      223.52146     -1538.5734      294.06595      638.74437      3840.7412      0.99696119
    393000  -1286.6162      226.16976     -1512.786       297.55007      2859.4249      3840.7412      0.99696119
    394000  -1256.1488      231.88997     -1488.0387      305.07561      2415.301       3840.7412      0.99696119
    395000  -1253.8951      224.68016     -1478.5753      295.59034      1342.5859      3840.7412      0.99696119
    396000  -1297.6226      213.86355     -1511.4861      281.35995      113.81642      3840.7412      0.99696119
    397000  -1300.2359      235.49654     -1535.7324      309.82042     -114.46856      3840.7412      0.99696119
    398000  -1261.9835      245.20957     -1507.193       322.59894      1771.7916      3840.7412      0.99696119
    399000  -1275.9722      208.67821     -1484.6504      274.5381       2552.0353      3840.7412      0.99696119
    400000  -1223.7763      254.29594     -1478.0723      334.55302      519.92808      3840.7412      0.99696119
    401000  -1242.7393      234.9793      -1477.7186      309.13995      1746.8885      3840.7412      0.99696119
    402000  -1274.8902      217.66666     -1492.5569      286.36334     -978.26592      3840.7412      0.99696119
    403000  -1236.4383      221.80476     -1458.2431      291.80745      632.3426       3840.7412      0.99696119
    404000  -1263.5013      231.79061     -1495.2919      304.94488      1485.4343      3840.7412      0.99696119
    405000  -1255.4662      222.90382     -1478.37        293.25338      1324.5316      3840.7412      0.99696119
    406000  -1269.7177      229.39903     -1499.1167      301.79852     -452.31659      3840.7412      0.99696119
    407000  -1265.6695      229.34702     -1495.0165      301.73008     -153.47883      3840.7412      0.99696119
    408000  -1322.2565      210.03421     -1532.2907      276.32206     -1952.4246      3840.7412      0.99696119
    409000  -1281.2045      222.5832      -1503.7877      292.83158     -2553.6757      3840.7412      0.99696119
    410000  -1250.2987      221.11354     -1471.4122      290.89808     -785.69927      3840.7412      0.99696119
    411000  -1262.3875      226.13496     -1488.5225      297.50429      1329.2988      3840.7412      0.99696119
    412000  -1269.6031      218.82698     -1488.4301      287.88987      1683.346       3840.7412      0.99696119
    413000  -1249.7315      221.03687     -1470.7683      290.79721     -830.90059      3840.7412      0.99696119
    414000  -1261.0937      219.91199     -1481.0057      289.31731      691.3727       3840.7412      0.99696119
    415000  -1294.4558      214.75804     -1509.2138      282.53676     -1653.4339      3840.7412      0.99696119
    416000  -1262.4294      216.12617     -1478.5556      284.33668     -2481.8471      3840.7412      0.99696119
    417000  -1261.383       215.86269     -1477.2457      283.99004      533.09337      3840.7412      0.99696119
    418000  -1232.4553      234.54686     -1467.0021      308.57102      219.37077      3840.7412      0.99696119
    419000  -1247.6467      234.5698      -1482.2165      308.6012       411.30853      3840.7412      0.99696119
    420000  -1286.0257      224.29831     -1510.324       295.08797      517.50436      3840.7412      0.99696119
    421000  -1192.2623      273.37347     -1465.6358      359.65151      661.66046      3840.7412      0.99696119
    422000  -1257.2564      212.56584     -1469.8222      279.65268      559.63291      3840.7412      0.99696119
    423000  -1205.6537      251.27934     -1456.9331      330.58436     -515.8963       3840.7412      0.99696119
    424000  -1260.4778      217.92434     -1478.4021      286.70235     -749.89526      3840.7412      0.99696119
    425000  -1280.2044      212.37781     -1492.5822      279.40532      287.316        3840.7412      0.99696119
    426000  -1296.9191      207.6455      -1504.5646      273.17946      1169.9424      3840.7412      0.99696119
    427000  -1292.7724      217.76501     -1510.5374      286.49274      155.18329      3840.7412      0.99696119
    428000  -1295.7956      201.60192     -1497.3976      265.2285      -1544.7487      3840.7412      0.99696119
    429000  -1251.3422      222.65885     -1474.001       292.9311      -229.87953      3840.7412      0.99696119
    430000  -1269.084       229.5436      -1498.6276      301.98872      1012.4091      3840.7412      0.99696119
    431000  -1247.1648      227.23241     -1474.3972      298.9481      -310.12317      3840.7412      0.99696119
    432000  -1252.5192      220.09972     -1472.6189      289.5643       556.8343       3840.7412      0.99696119
    433000  -1259.2555      216.82355     -1476.079       285.25415     -267.76831      3840.7412      0.99696119
    434000  -1268.7126      234.69839     -1503.411       308.77038     -1203.1122      3840.7412      0.99696119
    435000  -1290.892       206.0575      -1496.9495      271.09028     -943.11139      3840.7412      0.99696119
    436000  -1291.5736      219.34311     -1510.9167      288.5689       632.94391      3840.7412      0.99696119
    437000  -1244.2648      221.84611     -1466.1109      291.86185      619.64065      3840.7412      0.99696119
    438000  -1277.2972      216.33385     -1493.6311      284.6099      -73.854928      3840.7412      0.99696119
    439000  -1269.5113      236.98456     -1506.4958      311.77807     -227.13427      3840.7412      0.99696119
    440000  -1270.1633      212.62895     -1482.7923      279.73571     -1126.3442      3840.7412      0.99696119
    441000  -1320.1933      202.24846     -1522.4418      266.07908     -430.85057      3840.7412      0.99696119
    442000  -1274.6252      221.83158     -1496.4568      291.84274      1738.9732      3840.7412      0.99696119
    443000  -1276.2374      234.83618     -1511.0736      308.95165     -2527.3871      3840.7412      0.99696119
    444000  -1270.4666      220.00717     -1490.4738      289.44253     -419.42114      3840.7412      0.99696119
    445000  -1266.2275      225.41514     -1491.6426      296.55729      298.64004      3840.7412      0.99696119
    446000  -1260.7945      229.86005     -1490.6545      302.40503      1832.612       3840.7412      0.99696119
    447000  -1286.3624      205.40184     -1491.7642      270.22769     -108.72999      3840.7412      0.99696119
    448000  -1243.4263      222.4514      -1465.8777      292.65817      670.31787      3840.7412      0.99696119
    449000  -1255.0247      248.51603     -1503.5407      326.94894     -1606.2671      3840.7412      0.99696119
    450000  -1232.193       243.09037     -1475.2834      319.8109      -103.19634      3840.7412      0.99696119
    451000  -1268.9055      237.63521     -1506.5408      312.63407     -2088.6104      3840.7412      0.99696119
    452000  -1283.722       228.84002     -1512.562       301.06307      782.92094      3840.7412      0.99696119
    453000  -1234.5573      264.72902     -1499.2863      348.27882      877.58394      3840.7412      0.99696119
    454000  -1266.6498      235.10234     -1501.7521      309.30182      949.2609       3840.7412      0.99696119
    455000  -1253.506       214.86967     -1468.3757      282.68361     -251.91998      3840.7412      0.99696119
    456000  -1264.9119      230.60228     -1495.5142      303.38151      574.32524      3840.7412      0.99696119
    457000  -1244.7626      243.73329     -1488.4959      320.65674     -151.79358      3840.7412      0.99696119
    458000  -1285.421       222.96653     -1508.3876      293.33589     -2008.7763      3840.7412      0.99696119
    459000  -1268.49        236.23299     -1504.723       310.7893      -1111.7208      3840.7412      0.99696119
    460000  -1258.6702      235.55726     -1494.2275      309.90031      632.92216      3840.7412      0.99696119
    461000  -1271.9011      208.62457     -1480.5257      274.46753      301.37668      3840.7412      0.99696119
    462000  -1280.0933      229.73277     -1509.8261      302.23759     -283.61476      3840.7412      0.99696119
    463000  -1246.4727      236.67614     -1483.1489      311.37232      648.20391      3840.7412      0.99696119
    464000  -1282.754       209.13654     -1491.8906      275.14108      331.85116      3840.7412      0.99696119
    465000  -1232.9633      238.09573     -1471.059       313.23994      1036.108       3840.7412      0.99696119
    466000  -1279.4002      211.66093     -1491.0612      278.46218     -1672.398       3840.7412      0.99696119
    467000  -1231.1843      243.86229     -1475.0465      320.82646      1602.5503      3840.7412      0.99696119
    468000  -1264.448       225.54382     -1489.9918      296.72658      2467.8747      3840.7412      0.99696119
    469000  -1262.5265      220.3133      -1482.8398      289.84528      2368.7665      3840.7412      0.99696119
    470000  -1289.1357      229.32557     -1518.4613      301.70186     -793.24946      3840.7412      0.99696119
    471000  -1238.7512      245.89107     -1484.6423      323.49552     -178.97376      3840.7412      0.99696119
    472000  -1238.1274      225.42605     -1463.5535      296.57164      180.5758       3840.7412      0.99696119
    473000  -1272.0541      219.20404     -1491.2581      288.38593      955.536        3840.7412      0.99696119
    474000  -1240.8032      248.58213     -1489.3853      327.03589      1005.5632      3840.7412      0.99696119
    475000  -1275.7579      237.52407     -1513.282       312.48786     -947.92918      3840.7412      0.99696119
    476000  -1269.5428      244.67396     -1514.2168      321.89429     -1124.5909      3840.7412      0.99696119
    477000  -1304.6771      235.56772     -1540.2448      309.91407      15.990955      3840.7412      0.99696119
    478000  -1291.9661      221.2381      -1513.2042      291.06195      2102.2889      3840.7412      0.99696119
    479000  -1294.4219      226.76015     -1521.182       298.32679      1248.8593      3840.7412      0.99696119
    480000  -1257.0868      237.31069     -1494.3974      312.20713      723.84435      3840.7412      0.99696119
    481000  -1295.838       225.06629     -1520.9043      296.09834     -1808.0506      3840.7412      0.99696119
    482000  -1282.4225      231.02541     -1513.4479      303.93818      325.41191      3840.7412      0.99696119
    483000  -1305.2136      196.21266     -1501.4263      258.13836      727.47919      3840.7412      0.99696119
    484000  -1277.6426      233.69117     -1511.3338      307.44527     -203.59029      3840.7412      0.99696119
    485000  -1289.3563      204.15577     -1493.5121      268.58835     -1175.8976      3840.7412      0.99696119
    486000  -1293.032       233.65149     -1526.6835      307.39307      513.75873      3840.7412      0.99696119
    487000  -1233.5471      231.10531     -1464.6524      304.0433      -116.20713      3840.7412      0.99696119
    488000  -1244.5754      235.82371     -1480.3991      310.25086     -1076.963       3840.7412      0.99696119
    489000  -1238.9996      251.0111      -1490.0107      330.23146      1578.3978      3840.7412      0.99696119
    490000  -1252.6416      228.02374     -1480.6654      299.98918      1470.1111      3840.7412      0.99696119
    491000  -1270.9925      222.46266     -1493.4551      292.673       -1040.9726      3840.7412      0.99696119
    492000  -1246.9797      234.48974     -1481.4694      308.49588     -210.81859      3840.7412      0.99696119
    493000  -1259.5573      227.93002     -1487.4873      299.86587      1429.3801      3840.7412      0.99696119
    494000  -1285.6738      222.54354     -1508.2174      292.77939     -447.84488      3840.7412      0.99696119
    495000  -1255.8956      248.109       -1504.0046      326.41344      382.51514      3840.7412      0.99696119
    496000  -1264.0982      212.7241      -1476.8223      279.86089      1415.1099      3840.7412      0.99696119
    497000  -1303.578       210.62368     -1514.2017      277.09757      1571.5422      3840.7412      0.99696119
    498000  -1245.418       239.11855     -1484.5365      314.58556      3476.9597      3840.7412      0.99696119
    499000  -1254.8254      213.51863     -1468.3441      280.90618      304.05907      3840.7412      0.99696119
    500000  -1280.0179      222.26113     -1502.279       292.40786      1779.9025      3840.7412      0.99696119
    501000  -1210.1494      258.00467     -1468.154       339.43224      1785.75        3840.7412      0.99696119
    502000  -1244.8059      232.26005     -1477.0659      305.56249     -2580.5323      3840.7412      0.99696119
    503000  -1259.2363      221.30907     -1480.5454      291.15532      650.8105       3840.7412      0.99696119
    504000  -1293.9346      224.91501     -1518.8496      295.89931      944.17036      3840.7412      0.99696119
    505000  -1264.9821      224.06451     -1489.0467      294.78039     -277.85961      3840.7412      0.99696119
    506000  -1279.4262      220.73628     -1500.1624      290.40175     -788.03197      3840.7412      0.99696119
    507000  -1265.9931      228.95874     -1494.9518      301.21927      2154.3928      3840.7412      0.99696119
    508000  -1262.9085      231.86563     -1494.7742      305.04358     -781.91707      3840.7412      0.99696119
    509000  -1243.0479      240.58147     -1483.6294      316.51018     -346.265        3840.7412      0.99696119
    510000  -1275.5075      208.30323     -1483.8107      274.04477      970.55346      3840.7412      0.99696119
    511000  -1298.7191      221.04645     -1519.7656      290.80982     -642.09755      3840.7412      0.99696119
    512000  -1269.8186      219.56752     -1489.3861      288.86412      362.64894      3840.7412      0.99696119
    513000  -1271.5858      222.76384     -1494.3496      293.06923     -1191.0193      3840.7412      0.99696119
    514000  -1305.2049      207.9031      -1513.108       273.51836     -1959.5284      3840.7412      0.99696119
    515000  -1303.4615      213.86273     -1517.3242      281.35888     -212.01264      3840.7412      0.99696119
    516000  -1253.0042      220.73641     -1473.7406      290.40192      2583.1904      3840.7412      0.99696119
    517000  -1244.993       215.29071     -1460.2837      283.23753     -248.97102      3840.7412      0.99696119
    518000  -1259.1504      205.78743     -1464.9379      270.73498      1818.6328      3840.7412      0.99696119
    519000  -1266.4869      213.38719     -1479.8741      280.73326      1289.8282      3840.7412      0.99696119
    520000  -1275.391       217.76919     -1493.1602      286.49823      2245.2068      3840.7412      0.99696119
    521000  -1298.6897      210.32735     -1509.017       276.70771     -1210.6957      3840.7412      0.99696119
    522000  -1287.4824      227.2956      -1514.778       299.03123      449.42958      3840.7412      0.99696119
    523000  -1254.3291      230.81889     -1485.148       303.66648      87.927048      3840.7412      0.99696119
    524000  -1231.3235      215.96885     -1447.2924      284.1297       1670.2903      3840.7412      0.99696119
    525000  -1274.0091      220.95793     -1494.9671      290.69336     -276.74789      3840.7412      0.99696119
    526000  -1290.2576      215.26841     -1505.526       283.20819      93.870911      3840.7412      0.99696119
    527000  -1252.155       233.77138     -1485.9263      307.5508       499.32411      3840.7412      0.99696119
    528000  -1284.9203      214.22687     -1499.1472      281.83794     -119.45057      3840.7412      0.99696119
    529000  -1249.6589      224.96769     -1474.6266      295.96862      2003.4439      3840.7412      0.99696119
    530000  -1263.0736      246.36842     -1509.442       324.12352     -1138.6514      3840.7412      0.99696119
    531000  -1274.1201      229.66854     -1503.7887      302.15309     -1090.4563      3840.7412      0.99696119
    532000  -1263.8402      217.22391     -1481.0642      285.78086      1713.0499      3840.7412      0.99696119
    533000  -1283.9922      218.9457      -1502.9379      288.04606     -2511.4805      3840.7412      0.99696119
    534000  -1266.7287      224.51152     -1491.2402      295.36849      481.99957      3840.7412      0.99696119
    535000  -1290.5144      224.08992     -1514.6043      294.81383      1695.9631      3840.7412      0.99696119
    536000  -1264.5247      235.40254     -1499.9273      309.69676     -986.12023      3840.7412      0.99696119
    537000  -1241.7165      224.41558     -1466.132       295.24226      2601.7987      3840.7412      0.99696119
    538000  -1262.5158      216.71616     -1479.232       285.11286     -548.61746      3840.7412      0.99696119
    539000  -1264.5215      228.30566     -1492.8272      300.36007     -810.3836       3840.7412      0.99696119
    540000  -1254.5833      219.87609     -1474.4594      289.27009      430.05043      3840.7412      0.99696119
    541000  -1251.7171      233.34357     -1485.0606      306.98796     -1393.5919      3840.7412      0.99696119
    542000  -1300.249       235.42393     -1535.6729      309.7249      -456.72111      3840.7412      0.99696119
    543000  -1278.102       218.6407      -1496.7427      287.6448      -485.03342      3840.7412      0.99696119
    544000  -1246.5517      216.56441     -1463.1161      284.91322     -2030.8587      3840.7412      0.99696119
    545000  -1237.7294      232.01723     -1469.7467      305.24302     -557.23109      3840.7412      0.99696119
    546000  -1247.9338      223.13022     -1471.0641      293.55123     -3.3516154      3840.7412      0.99696119
    547000  -1281.3147      210.72862     -1492.0434      277.23563     -100.83575      3840.7412      0.99696119
    548000  -1267.6998      238.64084     -1506.3407      313.95709     -7.0293568      3840.7412      0.99696119
    549000  -1326.9783      205.04445     -1532.0228      269.75751      96.323544      3840.7412      0.99696119
    550000  -1275.7835      229.97393     -1505.7574      302.55486     -791.30263      3840.7412      0.99696119
    551000  -1286.3602      241.70583     -1528.066       317.9894      -635.45718      3840.7412      0.99696119
    552000  -1267.6277      232.63024     -1500.2579      306.04952     -351.82552      3840.7412      0.99696119
    553000  -1305.5638      216.16876     -1521.7325      284.3927      -87.388783      3840.7412      0.99696119
    554000  -1260.6894      241.96193     -1502.6513      318.32632      866.28119      3840.7412      0.99696119
    555000  -1262.4328      239.70322     -1502.136       315.35476      478.49932      3840.7412      0.99696119
    556000  -1298.8763      228.00862     -1526.8849      299.96928     -2021.5295      3840.7412      0.99696119
    557000  -1272.62        228.45585     -1501.0759      300.55766     -248.43601      3840.7412      0.99696119
    558000  -1273.1429      231.12166     -1504.2645      304.06481      262.20274      3840.7412      0.99696119
    559000  -1293.3979      222.68027     -1516.0781      292.95928     -856.82399      3840.7412      0.99696119
    560000  -1282.4696      214.98603     -1497.4556      282.8367      -1805.6082      3840.7412      0.99696119
    561000  -1293.2844      233.98352     -1527.2679      307.82988      246.25         3840.7412      0.99696119
    562000  -1243.8454      237.56864     -1481.4141      312.54649      34.601021      3840.7412      0.99696119
    563000  -1257.5681      231.33473     -1488.9028      304.34513      1949.6809      3840.7412      0.99696119
    564000  -1300.0058      221.45942     -1521.4652      291.35312     -6.4348757      3840.7412      0.99696119
    565000  -1241.3313      223.35541     -1464.6867      293.8475       4054.9082      3840.7412      0.99696119
    566000  -1273.3776      231.77464     -1505.1522      304.92388      623.66584      3840.7412      0.99696119
    567000  -1294.077       216.06602     -1510.143       284.25754     -1276.7408      3840.7412      0.99696119
    568000  -1261.838       233.07333     -1494.9113      306.63244     -2180.8917      3840.7412      0.99696119
    569000  -1217.5417      239.75893     -1457.3007      315.42805      2067.9623      3840.7412      0.99696119
    570000  -1296.6917      221.81675     -1518.5084      291.82323     -691.05243      3840.7412      0.99696119
    571000  -1256.3097      218.37155     -1474.6813      287.29071      879.28571      3840.7412      0.99696119
    572000  -1268.2408      219.88937     -1488.1302      289.28756     -1521.3024      3840.7412      0.99696119
    573000  -1254.2463      222.52671     -1476.773       292.75726      849.97693      3840.7412      0.99696119
    574000  -1260.4024      236.63229     -1497.0347      311.31462      1079.8852      3840.7412      0.99696119
    575000  -1241.2297      245.20826     -1486.4379      322.59722      1687.6468      3840.7412      0.99696119
    576000  -1242.7345      246.66897     -1489.4035      324.51893     -518.57711      3840.7412      0.99696119
    577000  -1285.9919      205.16166     -1491.1536      269.91171      1304.3952      3840.7412      0.99696119
    578000  -1264.0341      229.85572     -1493.8899      302.39933      647.18674      3840.7412      0.99696119
    579000  -1257.2146      223.08391     -1480.2985      293.49031      1335.8989      3840.7412      0.99696119
    580000  -1279.2548      222.22439     -1501.4792      292.35952      16.912002      3840.7412      0.99696119
    581000  -1275.1632      217.6369      -1492.8001      286.3242       2243.8573      3840.7412      0.99696119
    582000  -1276.1521      222.47286     -1498.625       292.68641      296.301        3840.7412      0.99696119
    583000  -1281.478       225.84217     -1507.3202      297.11909      593.1704       3840.7412      0.99696119
    584000  -1257.8743      210.5054      -1468.3797      276.94196      1374.5458      3840.7412      0.99696119
    585000  -1267.3445      224.02101     -1491.3656      294.72316      13.840746      3840.7412      0.99696119
    586000  -1231.222       241.12409     -1472.3461      317.22405      1545.1438      3840.7412      0.99696119
    587000  -1292.1137      204.80284     -1496.9165      269.43964     -90.613567      3840.7412      0.99696119
    588000  -1231.1969      234.11201     -1465.3089      307.99893     -1154.1299      3840.7412      0.99696119
    589000  -1261.6032      226.78664     -1488.3898      298.36163      880.30796      3840.7412      0.99696119
    590000  -1237.6822      217.40223     -1455.0845      286.01547     -61.7872        3840.7412      0.99696119
    591000  -1254.7326      218.0685      -1472.8011      286.892        792.10007      3840.7412      0.99696119
    592000  -1273.703       233.04958     -1506.7526      306.6012       1075.6103      3840.7412      0.99696119
    593000  -1269.443       230.89221     -1500.3352      303.76295     -910.24006      3840.7412      0.99696119
    594000  -1280.7276      226.63361     -1507.3612      298.16031     -804.6803       3840.7412      0.99696119
    595000  -1248.6748      251.11781     -1499.7926      330.37184     -1844.8718      3840.7412      0.99696119
    596000  -1242.4139      244.69077     -1487.1047      321.9164       340.4785       3840.7412      0.99696119
    597000  -1241.2136      237.53191     -1478.7455      312.49817      1124.824       3840.7412      0.99696119
    598000  -1269.4135      232.02713     -1501.4406      305.25606     -683.74764      3840.7412      0.99696119
    599000  -1268.0158      211.32937     -1479.3451      278.02598     -1031.2525      3840.7412      0.99696119
    600000  -1215.4078      241.36423     -1456.772       317.53999      1377.1513      3840.7412      0.99696119
    601000  -1258.0356      220.88029     -1478.9159      290.59122      644.96191      3840.7412      0.99696119
    602000  -1221.5062      227.99351     -1449.4997      299.9494       263.53093      3840.7412      0.99696119
    603000  -1279.7317      217.41411     -1497.1458      286.03109      1590.6066      3840.7412      0.99696119
    604000  -1282.989       209.36412     -1492.3531      275.44049      737.74685      3840.7412      0.99696119
    605000  -1293.9024      221.92956     -1515.832       291.97164     -224.08321      3840.7412      0.99696119
    606000  -1304.6235      215.98768     -1520.6112      284.15447     -873.06163      3840.7412      0.99696119
    607000  -1285.5847      225.96557     -1511.5502      297.28143      203.10664      3840.7412      0.99696119
    608000  -1274.608       224.36654     -1498.9746      295.17774      113.85206      3840.7412      0.99696119
    609000  -1243.2938      216.59608     -1459.8899      284.95488     -1799.8351      3840.7412      0.99696119
    610000  -1306.9238      209.52793     -1516.4517      275.656       -1820.8717      3840.7412      0.99696119
    611000  -1238.3241      225.62629     -1463.9503      296.83507      914.81228      3840.7412      0.99696119
    612000  -1258.4239      234.40896     -1492.8329      308.38961      871.09146      3840.7412      0.99696119
    613000  -1284.3018      239.14696     -1523.4488      314.62293      290.89924      3840.7412      0.99696119
    614000  -1265.5424      220.49685     -1486.0393      290.08676     -711.16728      3840.7412      0.99696119
    615000  -1258.5198      232.72479     -1491.2446      306.1739      -920.20049      3840.7412      0.99696119
    616000  -1252.6533      240.74792     -1493.4012      316.72917     -121.18461      3840.7412      0.99696119
    617000  -1240.6743      225.76412     -1466.4384      297.01641      138.22369      3840.7412      0.99696119
    618000  -1210.9623      241.60565     -1452.568       317.85761     -609.90828      3840.7412      0.99696119
    619000  -1222.1969      246.39438     -1468.5913      324.15768     -295.48219      3840.7412      0.99696119
    620000  -1268.4849      212.29039     -1480.7753      279.29029     -1890.12        3840.7412      0.99696119
    621000  -1268.9902      234.46986     -1503.4601      308.46972     -923.34414      3840.7412      0.99696119
    622000  -1246.9383      231.51005     -1478.4483      304.57578      174.33905      3840.7412      0.99696119
    623000  -1265.6809      223.46443     -1489.1453      293.99092     -861.02082      3840.7412      0.99696119
    624000  -1250.2609      220.49953     -1470.7604      290.09029     -1519.7663      3840.7412      0.99696119
    625000  -1287.2771      223.80681     -1511.084       294.44136      1287.0757      3840.7412      0.99696119
    626000  -1245.3485      217.60932     -1462.9579      286.28791      396.01406      3840.7412      0.99696119
    627000  -1272.0865      214.03726     -1486.1238      281.58849      495.26205      3840.7412      0.99696119
    628000  -1257.3882      225.46085     -1482.8491      296.61742      403.88423      3840.7412      0.99696119
    629000  -1248.7671      227.58157     -1476.3487      299.40745      1469.0033      3840.7412      0.99696119
    630000  -1276.2177      216.26039     -1492.4781      284.51326      337.75216      3840.7412      0.99696119
    631000  -1208.6905      245.6183      -1454.3088      323.13667      1560.7856      3840.7412      0.99696119
    632000  -1273.5768      219.45494     -1493.0317      288.71602     -572.34245      3840.7412      0.99696119
    633000  -1270.3906      225.2982      -1495.6888      296.40345     -1698.2369      3840.7412      0.99696119
    634000  -1306.8258      222.85061     -1529.6764      293.18337     -303.65156      3840.7412      0.99696119
    635000  -1288.5912      224.82346     -1513.4147      295.77888      513.42894      3840.7412      0.99696119
    636000  -1246.1729      232.03327     -1478.2061      305.26413      177.54809      3840.7412      0.99696119
    637000  -1263.5919      228.7286      -1492.3205      300.91649     -1239.2496      3840.7412      0.99696119
    638000  -1237.3478      250.26634     -1487.6142      329.25165     -1640.7874      3840.7412      0.99696119
    639000  -1277.4007      209.31926     -1486.72        275.38147      333.95055      3840.7412      0.99696119
    640000  -1227.2689      237.23945     -1464.5083      312.1134       707.13963      3840.7412      0.99696119
    641000  -1243.0201      227.44779     -1470.4679      299.23145     -1257.1196      3840.7412      0.99696119
    642000  -1254.7018      228.96326     -1483.6651      301.22521     -1080.1296      3840.7412      0.99696119
    643000  -1279.7765      222.88673     -1502.6632      293.2309       1432.8488      3840.7412      0.99696119
    644000  -1311.4476      198.65778     -1510.1053      261.35517     -2284.716       3840.7412      0.99696119
    645000  -1313.5579      211.21256     -1524.7704      277.8723       565.63429      3840.7412      0.99696119
    646000  -1259.7103      216.9096      -1476.6199      285.36736      428.24114      3840.7412      0.99696119
    647000  -1267.6365      227.08671     -1494.7232      298.75642      779.80459      3840.7412      0.99696119
    648000  -1224.79        234.63159     -1459.4216      308.6825       443.19509      3840.7412      0.99696119
    649000  -1201.4599      234.15291     -1435.6128      308.05274     -1004.7469      3840.7412      0.99696119
    650000  -1259.473       221.70941     -1481.1824      291.68201     -510.23515      3840.7412      0.99696119
    651000  -1277.1062      215.52493     -1492.6311      283.54567      272.00078      3840.7412      0.99696119
    652000  -1263.8335      224.19589     -1488.0294      294.95324      747.3984       3840.7412      0.99696119
    653000  -1253.9954      239.27843     -1493.2738      314.7959      -549.70295      3840.7412      0.99696119
    654000  -1271.0241      222.07522     -1493.0993      292.16327      288.82603      3840.7412      0.99696119
    655000  -1242.4839      232.17817     -1474.6621      305.45477      598.17582      3840.7412      0.99696119
    656000  -1263.1362      221.81381     -1484.95        291.81936      1117.1183      3840.7412      0.99696119
    657000  -1269.8013      238.82335     -1508.6247      314.1972       2787.7863      3840.7412      0.99696119
    658000  -1267.1349      231.39611     -1498.531       304.42588     -540.04071      3840.7412      0.99696119
    659000  -1260.1517      225.51828     -1485.67        296.69298      605.82505      3840.7412      0.99696119
    660000  -1280.6752      238.76399     -1519.4392      314.1191       1560.0831      3840.7412      0.99696119
    661000  -1260.6604      226.97247     -1487.6329      298.60612      180.58785      3840.7412      0.99696119
    662000  -1263.2028      223.58887     -1486.7917      294.15464     -369.89514      3840.7412      0.99696119
    663000  -1274.4846      221.59593     -1496.0805      291.53272     -142.39142      3840.7412      0.99696119
    664000  -1265.347       239.17202     -1504.519       314.65591     -955.8143       3840.7412      0.99696119
    665000  -1236.8472      255.53342     -1492.3806      336.18105     -177.48889      3840.7412      0.99696119
    666000  -1253.8536      221.47731     -1475.3309      291.37666      361.35059      3840.7412      0.99696119
    667000  -1276.1229      215.49487     -1491.6178      283.50613     -1310.5555      3840.7412      0.99696119
    668000  -1262.8826      219.47308     -1482.3557      288.73988     -211.74349      3840.7412      0.99696119
    669000  -1300.4971      215.42456     -1515.9216      283.41363      1440.2366      3840.7412      0.99696119
    670000  -1298.4837      227.35386     -1525.8375      299.10788     -499.83616      3840.7412      0.99696119
    671000  -1197.2568      245.13101     -1442.3878      322.49559      514.49868      3840.7412      0.99696119
    672000  -1267.5644      234.52723     -1502.0916      308.54519      658.59664      3840.7412      0.99696119
    673000  -1246.233       239.79833     -1486.0313      315.47988      701.77316      3840.7412      0.99696119
    674000  -1273.5348      226.8123      -1500.3471      298.3954      -2288.7933      3840.7412      0.99696119
    675000  -1236.7171      253.64691     -1490.364       333.69915      862.24792      3840.7412      0.99696119
    676000  -1247.9063      233.20323     -1481.1095      306.80333      1986.181       3840.7412      0.99696119
    677000  -1293.2699      227.462       -1520.7319      299.25014     -323.90491      3840.7412      0.99696119
    678000  -1261.1531      226.91196     -1488.0651      298.52651      1119.5439      3840.7412      0.99696119
    679000  -1298.4341      215.51951     -1513.9536      283.53855      1293.6911      3840.7412      0.99696119
    680000  -1245.7345      234.18946     -1479.924       308.10083      26.439644      3840.7412      0.99696119
    681000  -1268.6704      231.68292     -1500.3533      304.80321      3838.9217      3840.7412      0.99696119
    682000  -1292.2553      215.86533     -1508.1207      283.99351      1391.1407      3840.7412      0.99696119
    683000  -1262.3172      224.21205     -1486.5293      294.97449      435.02651      3840.7412      0.99696119
    684000  -1271.033       225.22715     -1496.2601      296.30996     -443.0798       3840.7412      0.99696119
    685000  -1252.0902      234.31431     -1486.4045      308.26508      214.75863      3840.7412      0.99696119
    686000  -1247.1977      248.5529      -1495.7505      326.99743     -466.26305      3840.7412      0.99696119
    687000  -1290.0197      224.01567     -1514.0354      294.71614      392.3669       3840.7412      0.99696119
    688000  -1280.2288      232.15059     -1512.3793      305.41848      432.73066      3840.7412      0.99696119
    689000  -1280.3651      211.21942     -1491.5845      277.88132      2599.9759      3840.7412      0.99696119
    690000  -1255.6181      222.05571     -1477.6738      292.1376      -781.55826      3840.7412      0.99696119
    691000  -1256.3961      222.957       -1479.3531      293.32335     -1064.1888      3840.7412      0.99696119
    692000  -1274.0821      232.95072     -1507.0328      306.47113      911.80596      3840.7412      0.99696119
    693000  -1310.6415      212.34368     -1522.9852      279.36041     -1667.8667      3840.7412      0.99696119
    694000  -1268.681       225.46228     -1494.1433      296.61931      2369.43        3840.7412      0.99696119
    695000  -1297.102       219.3385      -1516.4405      288.56283      1786.6158      3840.7412      0.99696119
    696000  -1293.822       223.56332     -1517.3854      294.12102      217.83481      3840.7412      0.99696119
    697000  -1288.4637      243.41765     -1531.8813      320.24148     -113.02787      3840.7412      0.99696119
    698000  -1268.56        240.73742     -1509.2974      316.71535      359.32588      3840.7412      0.99696119
    699000  -1296.7811      214.79902     -1511.5801      282.59067     -910.03484      3840.7412      0.99696119
    700000  -1285.0933      219.45974     -1504.5531      288.72233      1227.9779      3840.7412      0.99696119
    701000  -1259.0021      228.21754     -1487.2197      300.24414      295.07243      3840.7412      0.99696119
    702000  -1259.0329      223.72974     -1482.7626      294.33997      1249.5519      3840.7412      0.99696119
    703000  -1252.7204      230.79115     -1483.5115      303.62999     -1005.6536      3840.7412      0.99696119
    704000  -1265.4459      233.38539     -1498.8312      307.04299      441.48703      3840.7412      0.99696119
    705000  -1233.8511      224.02798     -1457.8791      294.73233      43.739749      3840.7412      0.99696119
    706000  -1286.2235      226.65366     -1512.8772      298.18669     -39.796892      3840.7412      0.99696119
    707000  -1277.5305      235.50996     -1513.0404      309.83808      2395.5799      3840.7412      0.99696119
    708000  -1251.3485      240.53838     -1491.8869      316.4535       180.40088      3840.7412      0.99696119
    709000  -1251.9201      213.52193     -1465.442       280.91052      704.19404      3840.7412      0.99696119
    710000  -1273.8217      222.91185     -1496.7335      293.26394     -369.33713      3840.7412      0.99696119
    711000  -1246.7247      229.81346     -1476.5381      302.34374     -551.75043      3840.7412      0.99696119
    712000  -1271.688       213.31611     -1485.0041      280.63974      1303.2894      3840.7412      0.99696119
    713000  -1267.4193      201.21817     -1468.6375      264.72364     -462.23081      3840.7412      0.99696119
    714000  -1260.1588      232.81153     -1492.9703      306.28802     -478.65286      3840.7412      0.99696119
    715000  -1256.7836      246.36871     -1503.1523      324.12391     -26.404566      3840.7412      0.99696119
    716000  -1239.3821      231.68983     -1471.0719      304.8123      -1912.3349      3840.7412      0.99696119
    717000  -1255.0091      230.69869     -1485.7077      303.50835     -1024.7172      3840.7412      0.99696119
    718000  -1287.7814      216.57739     -1504.3588      284.9303      -817.24459      3840.7412      0.99696119
    719000  -1246.3564      223.72118     -1470.0776      294.32871      1322.111       3840.7412      0.99696119
    720000  -1260.6032      227.76495     -1488.3682      299.64871      1944.5985      3840.7412      0.99696119
    721000  -1209.6734      239.75524     -1449.4286      315.42319      1328.9153      3840.7412      0.99696119
    722000  -1233.8467      237.40215     -1471.2489      312.32746      2144.8289      3840.7412      0.99696119
    723000  -1231.9007      228.75878     -1460.6595      300.95619      1692.8274      3840.7412      0.99696119
    724000  -1272.5637      211.27239     -1483.8361      277.95102      543.68255      3840.7412      0.99696119
    725000  -1272.6564      207.91864     -1480.5751      273.53881     -623.90484      3840.7412      0.99696119
    726000  -1238.9661      227.85652     -1466.8226      299.76918     -33.999453      3840.7412      0.99696119
    727000  -1252.9334      238.18712     -1491.1205      313.36017     -788.64307      3840.7412      0.99696119
    728000  -1230.2267      241.14788     -1471.3746      317.25535     -638.55429      3840.7412      0.99696119
    729000  -1253.7399      222.09493     -1475.8348      292.1892      -91.946874      3840.7412      0.99696119
    730000  -1249.8733      209.95563     -1459.8289      276.21867      407.49273      3840.7412      0.99696119
    731000  -1290.5056      210.80977     -1501.3154      277.34239      336.38745      3840.7412      0.99696119
    732000  -1243.6743      248.55533     -1492.2297      327.00064      124.2531       3840.7412      0.99696119
    733000  -1264.6594      213.34563     -1478.0051      280.67858     -251.35224      3840.7412      0.99696119
    734000  -1267.6031      225.08665     -1492.6898      296.12513     -750.68653      3840.7412      0.99696119
    735000  -1256.6689      230.15069     -1486.8196      302.7874      -113.42897      3840.7412      0.99696119
    736000  -1281.9442      208.60401     -1490.5483      274.44048      858.46295      3840.7412      0.99696119
    737000  -1280.4664      218.40481     -1498.8712      287.33446      1046.0239      3840.7412      0.99696119
    738000  -1269.6136      218.46909     -1488.0827      287.41903      1041.4247      3840.7412      0.99696119
    739000  -1260.4628      224.56773     -1485.0306      295.44243     -414.63921      3840.7412      0.99696119
    740000  -1289.7956      219.85278     -1509.6484      289.23942     -2292.6172      3840.7412      0.99696119
    741000  -1264.4415      236.76063     -1501.2021      311.48347      1077.3329      3840.7412      0.99696119
    742000  -1230.9708      246.67059     -1477.6413      324.52106      63.966285      3840.7412      0.99696119
    743000  -1269.7278      225.15444     -1494.8822      296.21431      609.33019      3840.7412      0.99696119
    744000  -1269.6473      221.30621     -1490.9535      291.15156     -943.45962      3840.7412      0.99696119
    745000  -1246.0867      231.32066     -1477.4074      304.32662     -796.75632      3840.7412      0.99696119
    746000  -1315.6171      211.24391     -1526.861       277.91354     -1228.9364      3840.7412      0.99696119
    747000  -1247.1087      225.67138     -1472.7801      296.8944       401.62578      3840.7412      0.99696119
    748000  -1273.0378      223.50933     -1496.5471      294.04999      228.56558      3840.7412      0.99696119
    749000  -1283.3246      228.87583     -1512.2004      301.11019     -54.28404       3840.7412      0.99696119
    750000  -1290.0435      214.78996     -1504.8335      282.57874      425.07297      3840.7412      0.99696119
    751000  -1279.5617      223.37765     -1502.9393      293.87676      495.31306      3840.7412      0.99696119
    752000  -1266.6601      233.14433     -1499.8044      306.72585      1080.7109      3840.7412      0.99696119
    753000  -1251.0214      217.82347     -1468.8449      286.56965     -991.67827      3840.7412      0.99696119
    754000  -1262.2513      237.93136     -1500.1826      313.02369      1137.2765      3840.7412      0.99696119
    755000  -1290.9126      226.2805      -1517.1931      297.69575     -1006.1441      3840.7412      0.99696119
    756000  -1274.8815      220.32305     -1495.2046      289.85811     -1082.4141      3840.7412      0.99696119
    757000  -1300.6783      231.53147     -1532.2098      304.60396     -290.69878      3840.7412      0.99696119
    758000  -1265.8419      227.73697     -1493.5789      299.6119       659.20674      3840.7412      0.99696119
    759000  -1296.6863      220.62481     -1517.3111      290.25511     -1070.2349      3840.7412      0.99696119
    760000  -1261.9942      231.46749     -1493.4617      304.51979     -588.79389      3840.7412      0.99696119
    761000  -1297.0662      231.70827     -1528.7745      304.83656      239.38514      3840.7412      0.99696119
    762000  -1290.8726      219.73735     -1510.6099      289.08756      1403.2501      3840.7412      0.99696119
    763000  -1284.6845      217.71341     -1502.3979      286.42485      664.48486      3840.7412      0.99696119
    764000  -1245.2148      244.916       -1490.1308      322.21272      1207.908       3840.7412      0.99696119
    765000  -1253.0436      217.00449     -1470.0481      285.49219     -2233.0193      3840.7412      0.99696119
    766000  -1280.2087      227.3502      -1507.5589      299.10307      28.931151      3840.7412      0.99696119
    767000  -1279.2234      213.0334      -1492.2568      280.2678       699.62506      3840.7412      0.99696119
    768000  -1211.8748      255.19283     -1467.0677      335.73296      76.420411      3840.7412      0.99696119
    769000  -1240.6523      236.19354     -1476.8458      310.7374       806.58442      3840.7412      0.99696119
    770000  -1283.342       224.76232     -1508.1043      295.69844     -1357.5714      3840.7412      0.99696119
    771000  -1277.1459      219.28609     -1496.4319      288.49387     -1571.0811      3840.7412      0.99696119
    772000  -1287.4549      202.8581      -1490.313       266.88113      2353.4947      3840.7412      0.99696119
    773000  -1250.6998      218.19506     -1468.8949      287.05852      176.35357      3840.7412      0.99696119
    774000  -1254.012       239.66769     -1493.6797      315.30801      161.44049      3840.7412      0.99696119
    775000  -1285.2274      217.49814     -1502.7255      286.14165     -627.96858      3840.7412      0.99696119
    776000  -1291.6147      196.20171     -1487.8165      258.12396     -999.38817      3840.7412      0.99696119
    777000  -1268.1033      212.81219     -1480.9154      279.97678     -504.93427      3840.7412      0.99696119
    778000  -1278.77        227.25241     -1506.0224      298.97441     -835.94904      3840.7412      0.99696119
    779000  -1264.6402      212.73387     -1477.374       279.87374      1040.863       3840.7412      0.99696119
    780000  -1277.5953      246.59241     -1524.1877      324.41821      736.69863      3840.7412      0.99696119
    781000  -1271.3759      222.32491     -1493.7008      292.49176     -822.24043      3840.7412      0.99696119
    782000  -1274.7583      225.55369     -1500.312       296.73956     -377.53027      3840.7412      0.99696119
    783000  -1281.7323      207.25453     -1488.9868      272.6651      -185.64282      3840.7412      0.99696119
    784000  -1270.5339      231.32387     -1501.8578      304.33084      1814.4385      3840.7412      0.99696119
    785000  -1231.5111      228.62876     -1460.1399      300.78515     -478.37106      3840.7412      0.99696119
    786000  -1271.6431      208.18636     -1479.8295      273.89102     -650.83598      3840.7412      0.99696119
    787000  -1304.6573      204.66622     -1509.3235      269.2599      -1065.5247      3840.7412      0.99696119
    788000  -1275.6137      222.54958     -1498.1633      292.78734     -92.521587      3840.7412      0.99696119
    789000  -1233.236       228.84593     -1462.0819      301.07085      147.05715      3840.7412      0.99696119
    790000  -1252.8494      243.16449     -1496.0139      319.90842      3103.5369      3840.7412      0.99696119
    791000  -1292.3068      211.85576     -1504.1625      278.7185       1913.1441      3840.7412      0.99696119
    792000  -1255.3474      228.07915     -1483.4265      300.06207      589.05074      3840.7412      0.99696119
    793000  -1283.1676      223.98312     -1507.1507      294.67332     -2132.2666      3840.7412      0.99696119
    794000  -1263.9532      226.37056     -1490.3238      297.81424      511.24172      3840.7412      0.99696119
    795000  -1288.5403      203.78726     -1492.3276      268.10354      592.72162      3840.7412      0.99696119
    796000  -1264.6604      230.34475     -1495.0052      303.04271     -863.1548       3840.7412      0.99696119
    797000  -1254.1214      233.59327     -1487.7147      307.31648      978.31073      3840.7412      0.99696119
    798000  -1240.3635      215.4389      -1455.8024      283.4325       642.02095      3840.7412      0.99696119
    799000  -1282.61        239.55565     -1522.1656      315.16062      101.78575      3840.7412      0.99696119
    800000  -1314.4909      211.84322     -1526.3342      278.702        256.84404      3840.7412      0.99696119
    801000  -1291.7463      216.06729     -1507.8136      284.25921     -1657.4971      3840.7412      0.99696119
    802000  -1261.2795      223.47952     -1484.759       294.01078      403.5699       3840.7412      0.99696119
    803000  -1295.2936      213.66067     -1508.9542      281.09305      730.68887      3840.7412      0.99696119
    804000  -1237.888       251.38412     -1489.2721      330.72221      44.81494       3840.7412      0.99696119
    805000  -1245.3288      234.04341     -1479.3722      307.90868     -1019.3439      3840.7412      0.99696119
    806000  -1291.5853      231.77807     -1523.3634      304.92839      266.8893       3840.7412      0.99696119
    807000  -1269.9451      209.159       -1479.1041      275.17062      936.58807      3840.7412      0.99696119
    808000  -1280.8373      219.21387     -1500.0512      288.39886     -1300.1237      3840.7412      0.99696119
    809000  -1260.027       219.63845     -1479.6655      288.95745      1028.1462      3840.7412      0.99696119
    810000  -1245.3755      216.00725     -1461.3828      284.18021     -1575.5541      3840.7412      0.99696119
    811000  -1242.9581      214.84792     -1457.806       282.655       -1685.5312      3840.7412      0.99696119
    812000  -1266.6847      231.27162     -1497.9563      304.26209     -338.97242      3840.7412      0.99696119
    813000  -1271.3907      229.63079     -1501.0215      302.10341      443.83446      3840.7412      0.99696119
    814000  -1271.0248      222.54495     -1493.5698      292.78125     -177.65927      3840.7412      0.99696119
    815000  -1269.9884      230.65842     -1500.6468      303.45537     -250.92265      3840.7412      0.99696119
    816000  -1215.1983      232.83645     -1448.0348      306.3208       1918.8771      3840.7412      0.99696119
    817000  -1233.7477      223.93548     -1457.6832      294.61064     -1427.5743      3840.7412      0.99696119
    818000  -1251.6354      226.2394      -1477.8748      297.64169     -1629.0143      3840.7412      0.99696119
    819000  -1274.8158      216.00992     -1490.8258      284.18374     -1269.6317      3840.7412      0.99696119
    820000  -1262.2997      224.12516     -1486.4249      294.86018      1138.5521      3840.7412      0.99696119
    821000  -1298.0696      210.83538     -1508.905       277.37608      372.97861      3840.7412      0.99696119
    822000  -1271.189       232.04259     -1503.2316      305.2764       541.13485      3840.7412      0.99696119
    823000  -1280.8526      230.0183      -1510.8709      302.61323     -392.70451      3840.7412      0.99696119
    824000  -1292.7604      229.59262     -1522.353       302.0532      -1491.4461      3840.7412      0.99696119
    825000  -1261.0188      244.3461      -1505.3649      321.46295      55.113532      3840.7412      0.99696119
    826000  -1306.6203      218.45799     -1525.0783      287.40442     -2041.6835      3840.7412      0.99696119
    827000  -1250.6865      258.79905     -1509.4855      340.47732      141.24004      3840.7412      0.99696119
    828000  -1277.898       220.95904     -1498.857       290.69482     -1661.4997      3840.7412      0.99696119
    829000  -1287.2391      205.01871     -1492.2578      269.72364     -55.944877      3840.7412      0.99696119
    830000  -1263.8406      252.20391     -1516.0445      331.80073     -914.20803      3840.7412      0.99696119
    831000  -1229.5971      220.94791     -1450.545       290.68017     -1101.6649      3840.7412      0.99696119
    832000  -1283.5696      203.57902     -1487.1486      267.82957      211.77345      3840.7412      0.99696119
    833000  -1258.5654      221.30816     -1479.8736      291.15413     -338.33134      3840.7412      0.99696119
    834000  -1301.1039      214.92778     -1516.0316      282.76006     -675.32154      3840.7412      0.99696119
    835000  -1254.7903      229.96753     -1484.7578      302.54643      1483.125       3840.7412      0.99696119
    836000  -1269.135       218.39937     -1487.5344      287.3273       2866.3478      3840.7412      0.99696119
    837000  -1280.7705      212.8458      -1493.6163      280.02101      1764.6584      3840.7412      0.99696119
    838000  -1239.137       236.2132      -1475.3502      310.76327      648.31847      3840.7412      0.99696119
    839000  -1266.0603      211.75806     -1477.8183      278.58996     -495.31446      3840.7412      0.99696119
    840000  -1293.4289      238.10284     -1531.5317      313.24928     -329.68079      3840.7412      0.99696119
    841000  -1254.622       245.47276     -1500.0947      322.94519      2289.6091      3840.7412      0.99696119
    842000  -1274.718       224.08356     -1498.8015      294.80546      487.76317      3840.7412      0.99696119
    843000  -1274.4454      216.1454      -1490.5908      284.36197     -813.18417      3840.7412      0.99696119
    844000  -1281.5326      209.1834      -1490.716       275.20273      312.45611      3840.7412      0.99696119
    845000  -1279.2689      204.988       -1484.2569      269.68324      1439.4399      3840.7412      0.99696119
    846000  -1258.7256      228.14858     -1486.8741      300.15341      1558.3449      3840.7412      0.99696119
    847000  -1262.578       221.13779     -1483.7158      290.92998      1212.8368      3840.7412      0.99696119
    848000  -1288.8544      226.82684     -1515.6812      298.41452      330.50611      3840.7412      0.99696119
    849000  -1277.3487      222.63005     -1499.9788      292.89321     -147.73493      3840.7412      0.99696119
    850000  -1272.6768      213.55109     -1486.2279      280.94889     -1051.7408      3840.7412      0.99696119
    851000  -1253.6148      231.83222     -1485.447       304.99962     -51.016602      3840.7412      0.99696119
    852000  -1281.2079      201.1995      -1482.4074      264.69907     -234.05873      3840.7412      0.99696119
    853000  -1253.447       209.19435     -1462.6414      275.21713      2302.0608      3840.7412      0.99696119
    854000  -1282.4889      218.21027     -1500.6992      287.07852      445.4454       3840.7412      0.99696119
    855000  -1236.2496      224.894       -1461.1436      295.87167      1715.1209      3840.7412      0.99696119
    856000  -1293.1835      219.24917     -1512.4327      288.4453      -912.87694      3840.7412      0.99696119
    857000  -1244.0352      225.48419     -1469.5194      296.64813     -1938.0165      3840.7412      0.99696119
    858000  -1299.8721      219.58724     -1519.4593      288.89007     -2405.185       3840.7412      0.99696119
    859000  -1287.906       217.61281     -1505.5188      286.2925       1061.3291      3840.7412      0.99696119
    860000  -1237.9949      241.76018     -1479.7551      318.06091     -1266.2779      3840.7412      0.99696119
    861000  -1226.5563      249.07252     -1475.6288      327.68105      22.910022      3840.7412      0.99696119
    862000  -1253.4798      224.44651     -1477.9263      295.28295     -1206.6823      3840.7412      0.99696119
    863000  -1275.8181      221.37273     -1497.1908      291.23907      1134.8249      3840.7412      0.99696119
    864000  -1302.2068      202.74586     -1504.9526      266.73347     -1062.5781      3840.7412      0.99696119
    865000  -1278.0225      217.07575     -1495.0982      285.58594      515.16815      3840.7412      0.99696119
    866000  -1279.6001      224.14152     -1503.7416      294.88171     -1078.5833      3840.7412      0.99696119
    867000  -1264.5471      231.6821      -1496.2292      304.80214      1805.6142      3840.7412      0.99696119
    868000  -1274.5978      201.35985     -1475.9577      264.91003      791.44108      3840.7412      0.99696119
    869000  -1252.4756      212.58508     -1465.0607      279.678       -655.75209      3840.7412      0.99696119
    870000  -1262.6113      221.41645     -1484.0277      291.29659      137.26893      3840.7412      0.99696119
    871000  -1273.0416      242.14824     -1515.1899      318.57144     -1057.7192      3840.7412      0.99696119
    872000  -1249.2257      236.25543     -1485.4811      310.81883     -944.53301      3840.7412      0.99696119
    873000  -1255.8965      225.97875     -1481.8753      297.29877     -572.32663      3840.7412      0.99696119
    874000  -1277.9043      218.92214     -1496.8264      288.01506      468.95985      3840.7412      0.99696119
    875000  -1260.0873      229.68701     -1489.7743      302.17738     -828.71719      3840.7412      0.99696119
    876000  -1334.801       207.11184     -1541.9129      272.47738     -2511.2876      3840.7412      0.99696119
    877000  -1283.2319      228.37371     -1511.6057      300.4496      -192.76411      3840.7412      0.99696119
    878000  -1255.4039      218.19101     -1473.5949      287.05319     -3036.4863      3840.7412      0.99696119
    879000  -1264.9473      231.96305     -1496.9103      305.17175     -1585.8143      3840.7412      0.99696119
    880000  -1235.4176      237.65206     -1473.0697      312.65625     -570.3199       3840.7412      0.99696119
    881000  -1234.1121      238.24567     -1472.3578      313.4372      -942.29656      3840.7412      0.99696119
    882000  -1239.1241      225.94409     -1465.0682      297.25318      416.69338      3840.7412      0.99696119
    883000  -1256.009       234.15295     -1490.1619      308.05279      623.57889      3840.7412      0.99696119
    884000  -1249.5271      224.1835      -1473.7106      294.93694     -474.78318      3840.7412      0.99696119
    885000  -1251.5455      237.22814     -1488.7736      312.09853      625.08087      3840.7412      0.99696119
    886000  -1295.9124      211.82134     -1507.7338      278.67321     -639.78239      3840.7412      0.99696119
    887000  -1267.1752      238.83862     -1506.0139      314.21728      554.95026      3840.7412      0.99696119
    888000  -1288.1544      201.3961      -1489.5504      264.95771     -37.284189      3840.7412      0.99696119
    889000  -1259.4098      222.64557     -1482.0554      292.91363      1281.5549      3840.7412      0.99696119
    890000  -1215.9768      242.84828     -1458.8251      319.49241      771.36909      3840.7412      0.99696119
    891000  -1275.1596      226.78823     -1501.9479      298.36373      706.9807       3840.7412      0.99696119
    892000  -1262.2233      218.05247     -1480.2758      286.87092     -2489.1645      3840.7412      0.99696119
    893000  -1268.9098      215.74318     -1484.6529      283.83281     -1357.7394      3840.7412      0.99696119
    894000  -1287.5791      227.63993     -1515.219       299.48423      1152.4466      3840.7412      0.99696119
    895000  -1300.9412      225.0953      -1526.0365      296.1365      -453.66625      3840.7412      0.99696119
    896000  -1267.1937      220.5247      -1487.7184      290.12339     -10.049788      3840.7412      0.99696119
    897000  -1270.695       222.94268     -1493.6377      293.30451     -1369.1098      3840.7412      0.99696119
    898000  -1273.4452      247.42802     -1520.8732      325.51754     -175.58173      3840.7412      0.99696119
    899000  -1260.9198      228.66615     -1489.586       300.83434      678.58586      3840.7412      0.99696119
    900000  -1279.6095      234.07788     -1513.6874      307.95403     -119.60684      3840.7412      0.99696119
    901000  -1249.0305      215.2939      -1464.3244      283.24174      92.825736      3840.7412      0.99696119
    902000  -1278.0036      225.54614     -1503.5497      296.72963     -631.20415      3840.7412      0.99696119
    903000  -1249.7167      239.38236     -1489.0991      314.93263      837.79571      3840.7412      0.99696119
    904000  -1241.6798      235.95689     -1477.6367      310.42607      1064.973       3840.7412      0.99696119
    905000  -1242.5393      226.14258     -1468.6819      297.51432      863.57914      3840.7412      0.99696119
    906000  -1272.6889      221.96158     -1494.6504      292.01377     -382.91186      3840.7412      0.99696119
    907000  -1275.9553      215.92197     -1491.8772      284.06802     -1152.9251      3840.7412      0.99696119
    908000  -1285.4437      216.91601     -1502.3597      285.37578      325.76732      3840.7412      0.99696119
    909000  -1299.0272      211.79225     -1510.8194      278.63494     -599.42358      3840.7412      0.99696119
    910000  -1270.7002      226.36892     -1497.0691      297.81208     -688.21466      3840.7412      0.99696119
    911000  -1268.8472      218.40066     -1487.2479      287.32901     -385.09826      3840.7412      0.99696119
    912000  -1206.6709      247.38863     -1454.0595      325.46572      1574.8599      3840.7412      0.99696119
    913000  -1233.9757      238.22126     -1472.1969      313.40509     -1119.6311      3840.7412      0.99696119
    914000  -1279.8961      223.48774     -1503.3838      294.02158     -2102.0852      3840.7412      0.99696119
    915000  -1265.1332      219.38747     -1484.5207      288.62725      250.94765      3840.7412      0.99696119
    916000  -1273.5635      231.42486     -1504.9884      304.46371      540.80209      3840.7412      0.99696119
    917000  -1283.0062      220.11539     -1503.1216      289.58491     -386.08281      3840.7412      0.99696119
    918000  -1273.6991      224.73375     -1498.4329      295.66085      113.61301      3840.7412      0.99696119
    919000  -1251.5937      231.26059     -1482.8543      304.24758      1265.142       3840.7412      0.99696119
    920000  -1298.7093      224.90481     -1523.6141      295.88589     -806.26184      3840.7412      0.99696119
    921000  -1269.6218      236.91435     -1506.5362      311.6857       495.91977      3840.7412      0.99696119
    922000  -1278.3988      222.32913     -1500.7279      292.49732     -358.83828      3840.7412      0.99696119
    923000  -1258.6285      226.49599     -1485.1245      297.97926     -921.319        3840.7412      0.99696119
    924000  -1263.8087      222.42845     -1486.2372      292.62799     -80.787598      3840.7412      0.99696119
    925000  -1281.6199      229.1958      -1510.8157      301.53114     -1041.7168      3840.7412      0.99696119
    926000  -1272.4328      230.99397     -1503.4267      303.89682     -1013.0033      3840.7412      0.99696119
    927000  -1269.4024      234.48449     -1503.8869      308.48896      1402.3472      3840.7412      0.99696119
    928000  -1301.9295      234.51435     -1536.4438      308.52826      1354.2614      3840.7412      0.99696119
    929000  -1303.2077      216.19708     -1519.4048      284.42996     -1120.2683      3840.7412      0.99696119
    930000  -1274.0167      236.66224     -1510.6789      311.35403      52.604366      3840.7412      0.99696119
    931000  -1291.2954      206.85972     -1498.1551      272.14569      645.28804      3840.7412      0.99696119
    932000  -1272.3968      224.1658      -1496.5626      294.91365      1956.3287      3840.7412      0.99696119
    933000  -1299.6001      209.72973     -1509.3298      275.92149      2005.441       3840.7412      0.99696119
    934000  -1264.6857      236.95153     -1501.6373      311.73462      184.65137      3840.7412      0.99696119
    935000  -1276.4262      213.36205     -1489.7882      280.70017      561.36874      3840.7412      0.99696119
    936000  -1293.1056      216.8936      -1509.9992      285.3463       438.4972       3840.7412      0.99696119
    937000  -1260.6027      231.75141     -1492.3541      304.89332     -1464.488       3840.7412      0.99696119
    938000  -1253.6528      231.19026     -1484.8431      304.15506      824.65958      3840.7412      0.99696119
    939000  -1306.112       204.29875     -1510.4107      268.77646      697.56691      3840.7412      0.99696119
    940000  -1284.8246      211.1251      -1495.9497      277.75724     -396.74292      3840.7412      0.99696119
    941000  -1236.0356      231.01289     -1467.0485      303.92172     -278.04905      3840.7412      0.99696119
    942000  -1239.0196      235.75182     -1474.7714      310.15627     -350.76408      3840.7412      0.99696119
    943000  -1276.1559      223.08913     -1499.2451      293.49718     -3179.9729      3840.7412      0.99696119
    944000  -1229.2249      233.28594     -1462.5108      306.91216      603.31496      3840.7412      0.99696119
    945000  -1290.1711      222.70107     -1512.8722      292.98664      925.34269      3840.7412      0.99696119
    946000  -1271.2176      221.12835     -1492.3459      290.91756     -1034.023       3840.7412      0.99696119
    947000  -1248.6188      237.10829     -1485.7271      311.94086      604.44654      3840.7412      0.99696119
    948000  -1260.7441      228.39378     -1489.1379      300.47601      1395.6141      3840.7412      0.99696119
    949000  -1257.1315      225.54587     -1482.6774      296.72927      1797.0854      3840.7412      0.99696119
    950000  -1243.0109      234.44662     -1477.4575      308.43914      541.42188      3840.7412      0.99696119
    951000  -1264.2531      229.12323     -1493.3763      301.43567     -2095.9808      3840.7412      0.99696119
    952000  -1251.8124      224.00033     -1475.8127      294.69595      262.24258      3840.7412      0.99696119
    953000  -1255.9797      218.34353     -1474.3232      287.25384      101.07636      3840.7412      0.99696119
    954000  -1239.3586      229.70414     -1469.0627      302.19991     -703.65421      3840.7412      0.99696119
    955000  -1275.1978      230.81878     -1506.0166      303.66635      872.94006      3840.7412      0.99696119
    956000  -1280.7027      212.45566     -1493.1584      279.50774     -369.53494      3840.7412      0.99696119
    957000  -1253.1711      209.54522     -1462.7163      275.67874     -1268.7065      3840.7412      0.99696119
    958000  -1251.6128      221.18939     -1472.8022      290.99786      360.16212      3840.7412      0.99696119
    959000  -1273.1217      249.35316     -1522.4748      328.05026      505.79964      3840.7412      0.99696119
    960000  -1292.903       202.5719      -1495.4749      266.5046       1063.8586      3840.7412      0.99696119
    961000  -1265.0804      237.71094     -1502.7913      312.7337      -327.97953      3840.7412      0.99696119
    962000  -1284.7493      217.28664     -1502.036       285.86339      209.17819      3840.7412      0.99696119
    963000  -1231.5625      237.06043     -1468.6229      311.87789      155.46061      3840.7412      0.99696119
    964000  -1278.1111      220.7382      -1498.8493      290.40428     -698.88183      3840.7412      0.99696119
    965000  -1269.0061      228.18514     -1497.1913      300.20151      172.37263      3840.7412      0.99696119
    966000  -1258.1633      237.33068     -1495.4939      312.23343      862.77361      3840.7412      0.99696119
    967000  -1243.5309      232.42959     -1475.9605      305.78554     -587.59392      3840.7412      0.99696119
    968000  -1277.9004      227.48538     -1505.3858      299.2809       108.99229      3840.7412      0.99696119
    969000  -1265.4647      226.35597     -1491.8207      297.79505      1742.4057      3840.7412      0.99696119
    970000  -1251.9889      205.34918     -1457.3381      270.15841      380.73625      3840.7412      0.99696119
    971000  -1245.1739      235.99545     -1481.1694      310.47679     -508.0625       3840.7412      0.99696119
    972000  -1255.0438      234.70292     -1489.7467      308.77633     -476.90171      3840.7412      0.99696119
    973000  -1240.3439      224.02016     -1464.3641      294.72204     -577.98897      3840.7412      0.99696119
    974000  -1264.4544      234.41283     -1498.8672      308.3947       2542.8178      3840.7412      0.99696119
    975000  -1270.4034      231.46548     -1501.8689      304.51714     -1066.4117      3840.7412      0.99696119
    976000  -1261.4812      213.58652     -1475.0677      280.9955       23.69654       3840.7412      0.99696119
    977000  -1250.0765      239.80118     -1489.8777      315.48363      150.62828      3840.7412      0.99696119
    978000  -1253.9745      214.79712     -1468.7717      282.58816      64.007182      3840.7412      0.99696119
    979000  -1238.3321      238.63962     -1476.9717      313.95548     -825.01084      3840.7412      0.99696119
    980000  -1235.2702      240.67062     -1475.9408      316.62747      655.89886      3840.7412      0.99696119
    981000  -1257.4725      219.43703     -1476.9096      288.69246      444.31762      3840.7412      0.99696119
    982000  -1237.015       222.27003     -1459.285       292.41957     -586.02071      3840.7412      0.99696119
    983000  -1241.8539      229.84442     -1471.6983      302.38447      1493.8798      3840.7412      0.99696119
    984000  -1243.456       229.46018     -1472.9162      301.87896      158.16603      3840.7412      0.99696119
    985000  -1255.2182      235.1202      -1490.3384      309.32532     -1594.3708      3840.7412      0.99696119
    986000  -1278.3737      213.83284     -1492.2065      281.31956      762.1507       3840.7412      0.99696119
    987000  -1218.3871      268.54441     -1486.9315      353.29837      825.81276      3840.7412      0.99696119
    988000  -1258.0218      214.10476     -1472.1265      281.67729     -415.79415      3840.7412      0.99696119
    989000  -1255.5829      239.81695     -1495.3999      315.50439     -831.25396      3840.7412      0.99696119
    990000  -1300.5945      197.82476     -1498.4193      260.25925     -1859.6142      3840.7412      0.99696119
    991000  -1279.4305      229.71533     -1509.1458      302.21464     -183.55734      3840.7412      0.99696119
    992000  -1269.8062      239.49342     -1509.2996      315.07874      1420.8695      3840.7412      0.99696119
    993000  -1283.2893      216.55183     -1499.8412      284.89667      1667.3339      3840.7412      0.99696119
    994000  -1263.7162      247.85487     -1511.571       326.0791       944.23441      3840.7412      0.99696119
    995000  -1292.4681      216.9201      -1509.3882      285.38117     -227.97628      3840.7412      0.99696119
    996000  -1253.1077      249.0085      -1502.1162      327.59683     -278.41981      3840.7412      0.99696119
    997000  -1257.9973      231.50706     -1489.5043      304.57185     -474.31255      3840.7412      0.99696119
    998000  -1226.2251      254.16237     -1480.3875      334.37729     -479.07335      3840.7412      0.99696119
    999000  -1244.0152      239.38473     -1483.3999      314.93575     -805.02451      3840.7412      0.99696119
   1000000  -1274.9978      230.05708     -1505.0549      302.66425     -152.40357      3840.7412      0.99696119
Loop time of 1176.87 on 2 procs for 1000000 steps with 384 atoms

Performance: 73.415 ns/day, 0.327 hours/ns, 849.711 timesteps/s
99.6% CPU use with 2 MPI tasks x 1 OpenMP threads

MPI task timing breakdown:
Section |  min time  |  avg time  |  max time  |%varavg| %total
---------------------------------------------------------------
Pair    | 760.73     | 765.32     | 769.91     |  16.6 | 65.03
Bond    | 0.083817   | 0.090437   | 0.097056   |   2.2 |  0.01
Kspace  | 217.29     | 221.32     | 225.35     |  27.1 | 18.81
Neigh   | 54.436     | 54.437     | 54.438     |   0.0 |  4.63
Comm    | 78.17      | 78.868     | 79.565     |   7.9 |  6.70
Output  | 0.26999    | 0.2726     | 0.2752     |   0.5 |  0.02
Modify  | 53.447     | 53.556     | 53.664     |   1.5 |  4.55
Other   |            | 3.008      |            |       |  0.26

Nlocal:            192 ave         196 max         188 min
Histogram: 1 0 0 0 0 0 0 0 0 1
Nghost:           4842 ave        4843 max        4841 min
Histogram: 1 0 0 0 0 0 0 0 0 1
Neighs:        69418.5 ave       70361 max       68476 min
Histogram: 1 0 0 0 0 0 0 0 0 1

Total # of neighbors = 138837
Ave neighs/atom = 361.55469
Ave special neighs/atom = 2
Neighbor list builds = 33854
Dangerous builds = 0
# write data file
write_data data.after_eq.lmp
System init for write_data ...
PPPM initialization ...
  using 12-bit tables for long-range coulomb (src/kspace.cpp:342)
  G vector (1/distance) = 0.31203871
  grid = 15 15 15
  stencil order = 5
  estimated absolute RMS force accuracy = 0.0022228175
  estimated relative force accuracy = 6.6939488e-06
  using double precision FFTW3
  3d grid and FFT values/proc = 6776 1800
Generated 1 of 1 mixed pair_coeff terms from geometric mixing rule

# clean up
undump dEQUI

# production
# 2 ns
dump dPROD all custom 1000 prod.lammpstrj id element xu yu zu
dump_modify dPROD element H O sort id
run 2000000
PPPM initialization ...
  using 12-bit tables for long-range coulomb (src/kspace.cpp:342)
  G vector (1/distance) = 0.31203871
  grid = 15 15 15
  stencil order = 5
  estimated absolute RMS force accuracy = 0.0022228175
  estimated relative force accuracy = 6.6939488e-06
  using double precision FFTW3
  3d grid and FFT values/proc = 6776 1800
Generated 1 of 1 mixed pair_coeff terms from geometric mixing rule
Per MPI rank memory allocation (min/avg/max) = 9.716 | 9.716 | 9.716 Mbytes
   Step         TotEng         KinEng         PotEng          Temp          Press          Volume        Density
   1000000  -1274.9978      230.05708     -1505.0549      302.66425     -151.62773      3840.7412      0.99696119
   1001000  -1260.9299      219.59665     -1480.5266      288.90245      2619.4852      3840.7412      0.99696119
   1002000  -1307.631       205.28583     -1512.9168      270.07507      1969.9275      3840.7412      0.99696119
   1003000  -1251.3609      223.8614      -1475.2223      294.51318      727.52283      3840.7412      0.99696119
   1004000  -1272.6873      222.47193     -1495.1593      292.68518     -652.99442      3840.7412      0.99696119
   1005000  -1259.2939      217.82575     -1477.1196      286.57264      108.89018      3840.7412      0.99696119
   1006000  -1244.385       245.73414     -1490.1192      323.28907      226.48656      3840.7412      0.99696119
   1007000  -1309.5515      215.71059     -1525.2621      283.78993     -479.00489      3840.7412      0.99696119
   1008000  -1275.6801      225.9567      -1501.6368      297.26976      812.52647      3840.7412      0.99696119
   1009000  -1292.1826      217.63876     -1509.8214      286.32664      1161.0053      3840.7412      0.99696119
   1010000  -1288.4583      221.82371     -1510.282       291.83239      588.73157      3840.7412      0.99696119
   1011000  -1253.8426      229.90435     -1483.7469      302.46331     -478.0277       3840.7412      0.99696119
   1012000  -1274.4026      221.46621     -1495.8688      291.36206     -717.77831      3840.7412      0.99696119
   1013000  -1250.3012      235.56556     -1485.8668      309.91123      1062.4443      3840.7412      0.99696119
   1014000  -1303.8736      216.42419     -1520.2978      284.72875     -555.91379      3840.7412      0.99696119
   1015000  -1260.714       224.79589     -1485.5099      295.7426       749.22387      3840.7412      0.99696119
   1016000  -1288.6817      213.52684     -1502.2085      280.91698     -1049.6781      3840.7412      0.99696119
   1017000  -1281.8231      228.2879      -1510.111       300.3367       699.2684       3840.7412      0.99696119
   1018000  -1215.3534      242.99695     -1458.3504      319.688        1218.1144      3840.7412      0.99696119
   1019000  -1254.3644      204.90479     -1459.2692      269.57377     -1078.8103      3840.7412      0.99696119
   1020000  -1231.7755      232.67795     -1464.4535      306.11228      1413.3658      3840.7412      0.99696119
   1021000  -1221.0436      220.13988     -1441.1835      289.61713      1635.3099      3840.7412      0.99696119
   1022000  -1246.9449      237.20413     -1484.1491      312.06694      2082.8785      3840.7412      0.99696119
   1023000  -1277.4058      222.58111     -1499.9869      292.82882      512.30692      3840.7412      0.99696119
   1024000  -1255.6246      230.29637     -1485.921       302.97905      149.64221      3840.7412      0.99696119
   1025000  -1255.3394      230.51538     -1485.8548      303.26719      1845.6432      3840.7412      0.99696119
   1026000  -1245.4833      244.22927     -1489.7125      321.30925      2298.8736      3840.7412      0.99696119
   1027000  -1267.741       234.57739     -1502.3184      308.61119     -1149.6044      3840.7412      0.99696119
   1028000  -1273.3908      210.80995     -1484.2007      277.34262     -603.9146       3840.7412      0.99696119
   1029000  -1273.1231      216.00402     -1489.1271      284.17598      1309.8511      3840.7412      0.99696119
   1030000  -1248.2594      234.11175     -1482.3712      307.99859     -1766.5086      3840.7412      0.99696119
   1031000  -1241.4077      238.65423     -1480.0619      313.9747       303.79038      3840.7412      0.99696119
   1032000  -1312.327       215.59278     -1527.9197      283.63494      1183.6675      3840.7412      0.99696119
   1033000  -1240.2277      228.95577     -1469.1835      301.21535     -92.504526      3840.7412      0.99696119
   1034000  -1254.1223      233.6038      -1487.7261      307.33032      379.61457      3840.7412      0.99696119
   1035000  -1253.8161      234.43339     -1488.2495      308.42174      1039.1801      3840.7412      0.99696119
   1036000  -1271.7354      227.23152     -1498.967       298.94693     -44.700855      3840.7412      0.99696119
   1037000  -1250.914       231.98572     -1482.8997      305.20157     -511.2219       3840.7412      0.99696119
   1038000  -1265.6808      220.37189     -1486.0527      289.92236      50.120651      3840.7412      0.99696119
   1039000  -1284.3325      222.85645     -1507.189       293.19106      579.92392      3840.7412      0.99696119
   1040000  -1295.184       225.91938     -1521.1034      297.22066      363.34099      3840.7412      0.99696119
   1041000  -1291.3126      209.59637     -1500.9089      275.74603      307.57962      3840.7412      0.99696119
   1042000  -1279.0245      220.8386      -1499.8631      290.53637     -1556.1632      3840.7412      0.99696119
   1043000  -1298.9978      215.48707     -1514.4848      283.49587      2080.1872      3840.7412      0.99696119
   1044000  -1284.2196      211.70174     -1495.9214      278.51587      556.57045      3840.7412      0.99696119
   1045000  -1274.8682      227.22867     -1502.0969      298.94317     -138.80293      3840.7412      0.99696119
   1046000  -1232.7478      224.36954     -1457.1174      295.18169      538.51481      3840.7412      0.99696119
   1047000  -1252.7736      231.14811     -1483.9217      304.09961      37.955664      3840.7412      0.99696119
   1048000  -1286.6678      221.41037     -1508.0782      291.2886       834.76487      3840.7412      0.99696119
   1049000  -1302.8318      207.89992     -1510.7317      273.51417     -368.0659       3840.7412      0.99696119
   1050000  -1240.257       240.31329     -1480.5703      316.15737      865.02471      3840.7412      0.99696119
   1051000  -1253.0513      222.58841     -1475.6397      292.83842      1382.223       3840.7412      0.99696119
   1052000  -1279.6713      210.21936     -1489.8906      276.56565      588.74196      3840.7412      0.99696119
   1053000  -1260.7671      227.78393     -1488.551       299.67368     -59.025051      3840.7412      0.99696119
   1054000  -1277.5499      213.43901     -1490.9889      280.80143     -1383.1747      3840.7412      0.99696119
   1055000  -1294.7797      220.85586     -1515.6355      290.55908     -1574.9625      3840.7412      0.99696119
   1056000  -1241.9556      218.82307     -1460.7787      287.88472     -681.94529      3840.7412      0.99696119
   1057000  -1257.522       212.95989     -1470.4819      280.1711      -2811.5392      3840.7412      0.99696119
   1058000  -1273.9889      243.68286     -1517.6718      320.59039      313.95153      3840.7412      0.99696119
   1059000  -1263.2811      240.35255     -1503.6337      316.20902     -404.97215      3840.7412      0.99696119
   1060000  -1230.038       241.04251     -1471.0805      317.11674     -639.0424       3840.7412      0.99696119
   1061000  -1225.6447      236.91699     -1462.5617      311.68918     -508.58183      3840.7412      0.99696119
   1062000  -1257.5111      241.07696     -1498.588       317.16206      1254.4042      3840.7412      0.99696119
   1063000  -1290.2698      223.62358     -1513.8933      294.2003       955.6693       3840.7412      0.99696119
   1064000  -1234.5524      234.44025     -1468.9927      308.43077      1583.0153      3840.7412      0.99696119
   1065000  -1269.9629      208.24741     -1478.2103      273.97133     -2382.4998      3840.7412      0.99696119
   1066000  -1237.3184      231.74097     -1469.0593      304.87958     -167.10769      3840.7412      0.99696119
   1067000  -1248.7317      222.35358     -1471.0853      292.52948     -978.94226      3840.7412      0.99696119
   1068000  -1261.1969      224.52237     -1485.7193      295.38276      1283.726       3840.7412      0.99696119
   1069000  -1288.1173      221.37515     -1509.4925      291.24226     -179.43197      3840.7412      0.99696119
   1070000  -1234.9935      231.75596     -1466.7495      304.8993       3541.2729      3840.7412      0.99696119
   1071000  -1276.9472      210.74163     -1487.6888      277.25275     -1480.3812      3840.7412      0.99696119
   1072000  -1236.2467      225.27818     -1461.5249      296.37711     -642.92958      3840.7412      0.99696119
   1073000  -1266.1667      222.73285     -1488.8995      293.02845      189.93444      3840.7412      0.99696119
   1074000  -1254.1775      230.22059     -1484.3981      302.87935      1080.4622      3840.7412      0.99696119
   1075000  -1231.5242      256.48439     -1488.0085      337.43214     -1780.7689      3840.7412      0.99696119
   1076000  -1259.0298      229.50404     -1488.5338      301.93666     -1461.5664      3840.7412      0.99696119
   1077000  -1221.0956      232.60484     -1453.7004      306.0161      -708.64499      3840.7412      0.99696119
   1078000  -1277.9139      209.69747     -1487.6114      275.87904      1071.4019      3840.7412      0.99696119
   1079000  -1299.0179      234.14799     -1533.1659      308.04626      1926.5759      3840.7412      0.99696119
   1080000  -1258.6006      230.39469     -1488.9953      303.1084       187.15489      3840.7412      0.99696119
   1081000  -1304.3164      234.10295     -1538.4193      307.98702      1402.7871      3840.7412      0.99696119
   1082000  -1259.7599      242.28809     -1502.048       318.75542      393.12275      3840.7412      0.99696119
   1083000  -1295.5993      205.01149     -1500.6108      269.71415      1175.4449      3840.7412      0.99696119
   1084000  -1271.6578      228.72841     -1500.3862      300.91624      135.64076      3840.7412      0.99696119
   1085000  -1287.5133      214.75562     -1502.2689      282.53357     -265.76275      3840.7412      0.99696119
   1086000  -1253.1944      234.37489     -1487.5693      308.34478      721.33669      3840.7412      0.99696119
   1087000  -1266.1692      223.25908     -1489.4283      293.72076     -1235.9631      3840.7412      0.99696119
   1088000  -1249.5875      241.04514     -1490.6327      317.12019     -617.21394      3840.7412      0.99696119
   1089000  -1229.6951      239.29741     -1468.9925      314.82087      2028.5841      3840.7412      0.99696119
   1090000  -1266.6316      211.22139     -1477.8529      277.88392     -1344.1558      3840.7412      0.99696119
   1091000  -1281.5385      223.03002     -1504.5685      293.41941     -345.53443      3840.7412      0.99696119
   1092000  -1250.2852      229.59117     -1479.8764      302.0513      -1216.1334      3840.7412      0.99696119
   1093000  -1240.9385      233.2494      -1474.1879      306.86408      1215.8443      3840.7412      0.99696119
   1094000  -1256.3444      247.97491     -1504.3193      326.23703     -634.69889      3840.7412      0.99696119
   1095000  -1286.4091      225.58382     -1511.9929      296.7792      -71.273534      3840.7412      0.99696119
   1096000  -1237.7719      219.50239     -1457.2743      288.77845     -21.921937      3840.7412      0.99696119
   1097000  -1265.0138      225.70318     -1490.717       296.93623     -1102.9877      3840.7412      0.99696119
   1098000  -1296.4505      213.69394     -1510.1444      281.13682      298.46601      3840.7412      0.99696119
   1099000  -1267.3874      221.01758     -1488.405       290.77183     -39.489565      3840.7412      0.99696119
   1100000  -1255.8877      233.95864     -1489.8464      307.79715      969.04458      3840.7412      0.99696119
   1101000  -1254.9044      228.99135     -1483.8958      301.26217      1130.1898      3840.7412      0.99696119
   1102000  -1273.4802      228.5117      -1501.9918      300.63113      58.272206      3840.7412      0.99696119
   1103000  -1294.4668      224.09504     -1518.5618      294.82056     -1324.0039      3840.7412      0.99696119
   1104000  -1262.448       215.64364     -1478.0916      283.70185      755.89101      3840.7412      0.99696119
   1105000  -1246.8423      238.8869      -1485.7292      314.2808       15.809588      3840.7412      0.99696119
   1106000  -1238.4396      229.18617     -1467.6258      301.51847      723.16708      3840.7412      0.99696119
   1107000  -1260.2676      225.67247     -1485.9401      296.89583     -842.40287      3840.7412      0.99696119
   1108000  -1281.9582      223.3379      -1505.2961      293.82445      277.9382       3840.7412      0.99696119
   1109000  -1292.617       221.56232     -1514.1793      291.4885       452.70584      3840.7412      0.99696119
   1110000  -1273.8007      226.04588     -1499.8466      297.38709     -1575.3237      3840.7412      0.99696119
   1111000  -1248.4012      240.79935     -1489.2005      316.79683     -298.98146      3840.7412      0.99696119
   1112000  -1247.7861      219.7922      -1467.5783      289.15972      1563.4211      3840.7412      0.99696119
   1113000  -1248.7209      231.604       -1480.3249      304.69939      608.75186      3840.7412      0.99696119
   1114000  -1285.9939      220.012       -1506.0059      289.44889      1967.9375      3840.7412      0.99696119
   1115000  -1289.8419      214.11403     -1503.9559      281.68948      1111.3893      3840.7412      0.99696119
   1116000  -1251.4154      220.23151     -1471.6469      289.73768      1215.8481      3840.7412      0.99696119
   1117000  -1265.3198      231.26095     -1496.5807      304.24806      1179.8784      3840.7412      0.99696119
   1118000  -1231.2079      241.25987     -1472.4677      317.40269      338.74907      3840.7412      0.99696119
   1119000  -1257.9712      209.96603     -1467.9372      276.23237      917.15025      3840.7412      0.99696119
   1120000  -1311.7078      228.86147     -1540.5693      301.0913      -1446.7754      3840.7412      0.99696119
   1121000  -1252.7721      218.68193     -1471.454       287.69904      1359.8707      3840.7412      0.99696119
   1122000  -1273.0528      211.98925     -1485.0421      278.89412      576.52791      3840.7412      0.99696119
   1123000  -1271.7256      231.96597     -1503.6916      305.1756       384.61833      3840.7412      0.99696119
   1124000  -1264.8306      225.26127     -1490.0919      296.35486      208.33255      3840.7412      0.99696119
   1125000  -1281.6688      231.50067     -1513.1695      304.56344     -27.233303      3840.7412      0.99696119
   1126000  -1235.2465      256.9862      -1492.2327      338.09233      529.05992      3840.7412      0.99696119
   1127000  -1289.5246      228.55926     -1518.0839      300.69371     -203.30105      3840.7412      0.99696119
   1128000  -1269.3954      227.37781     -1496.7732      299.13938      152.79645      3840.7412      0.99696119
   1129000  -1261.7082      219.19986     -1480.9081      288.38044      350.42954      3840.7412      0.99696119
   1130000  -1268.9321      228.55749     -1497.4896      300.69138     -1534.3916      3840.7412      0.99696119
   1131000  -1288.306       238.3938      -1526.6998      313.63207     -1054.1747      3840.7412      0.99696119
   1132000  -1275.3857      222.49039     -1497.8761      292.70946      198.97518      3840.7412      0.99696119
   1133000  -1229.7408      225.55236     -1455.2932      296.73781     -1584.3566      3840.7412      0.99696119
   1134000  -1260.2125      208.77815     -1468.9906      274.66959     -1309.0069      3840.7412      0.99696119
   1135000  -1281.8649      221.00019     -1502.8651      290.74896     -2437.5434      3840.7412      0.99696119
   1136000  -1257.4595      223.71623     -1481.1757      294.32219      1974.9543      3840.7412      0.99696119
   1137000  -1288.7796      224.51379     -1513.2934      295.37147      2018.9799      3840.7412      0.99696119
   1138000  -1257.2104      250.48854     -1507.699       329.54398      1636.2247      3840.7412      0.99696119
   1139000  -1277.7915      230.71082     -1508.5023      303.5243      -560.47733      3840.7412      0.99696119
   1140000  -1271.6492      241.901       -1513.5502      318.24617      91.673266      3840.7412      0.99696119
   1141000  -1319.252       216.09416     -1535.3462      284.29456     -483.0064       3840.7412      0.99696119
   1142000  -1277.8339      221.89201     -1499.7259      291.92224     -90.490464      3840.7412      0.99696119
   1143000  -1299.4171      213.98493     -1513.402       281.51965      312.09871      3840.7412      0.99696119
   1144000  -1262.2833      224.76094     -1487.0443      295.69662      523.97533      3840.7412      0.99696119
   1145000  -1290.8729      214.80579     -1505.6787      282.59957     -57.470666      3840.7412      0.99696119
   1146000  -1246.4512      226.126       -1472.5772      297.4925      -1946.807       3840.7412      0.99696119
   1147000  -1251.4626      227.94176     -1479.4043      299.88132      3230.2593      3840.7412      0.99696119
   1148000  -1273.2682      217.08155     -1490.3497      285.59358     -1280.7916      3840.7412      0.99696119
   1149000  -1255.1475      244.61853     -1499.7661      321.82136     -455.58557      3840.7412      0.99696119
   1150000  -1262.8831      212.30275     -1475.1858      279.30656     -571.74046      3840.7412      0.99696119
   1151000  -1258.9883      230.68533     -1489.6736      303.49078      347.78736      3840.7412      0.99696119
   1152000  -1276.6753      225.25069     -1501.926       296.34094     -373.34475      3840.7412      0.99696119
   1153000  -1252.508       226.60783     -1479.1158      298.1264       864.19099      3840.7412      0.99696119
   1154000  -1290.4654      207.86506     -1498.3305      273.46831     -356.89886      3840.7412      0.99696119
   1155000  -1265.1747      220.0791      -1485.2538      289.53717      1593.8321      3840.7412      0.99696119
   1156000  -1294.5447      218.42408     -1512.9688      287.35982     -382.89003      3840.7412      0.99696119
   1157000  -1311.989       225.30334     -1537.2923      296.4102       2062.3622      3840.7412      0.99696119
   1158000  -1297.4507      211.00106     -1508.4518      277.59405      971.18019      3840.7412      0.99696119
   1159000  -1273.6568      217.00746     -1490.6643      285.49611      464.18275      3840.7412      0.99696119
   1160000  -1297.3192      205.53665     -1502.8558      270.40504     -1080.0334      3840.7412      0.99696119
   1161000  -1255.7423      228.38272     -1484.1251      300.46145     -327.51534      3840.7412      0.99696119
   1162000  -1305.6784      205.04457     -1510.7229      269.75766      9.8718897      3840.7412      0.99696119
   1163000  -1257.1454      239.65253     -1496.7979      315.28807     -2013.1215      3840.7412      0.99696119
   1164000  -1270.5003      236.54157     -1507.0419      311.19528      2348.2306      3840.7412      0.99696119
   1165000  -1282.6839      213.41701     -1496.1009      280.77249      126.0354       3840.7412      0.99696119
   1166000  -1268.298       220.13559     -1488.4336      289.61149     -1361.7768      3840.7412      0.99696119
   1167000  -1261.9069      226.85815     -1488.765       298.45572     -1251.6162      3840.7412      0.99696119
   1168000  -1253.2848      235.20086     -1488.4856      309.43142     -343.44607      3840.7412      0.99696119
   1169000  -1276.9547      210.64254     -1487.5972      277.12238     -163.67325      3840.7412      0.99696119
   1170000  -1321.9147      199.88239     -1521.797       262.96627      1380.8909      3840.7412      0.99696119
   1171000  -1255.4117      236.95924     -1492.371       311.74477     -340.62168      3840.7412      0.99696119
   1172000  -1288.0281      211.73427     -1499.7624      278.55867     -275.71482      3840.7412      0.99696119
   1173000  -1300.3663      217.21263     -1517.5789      285.76602     -106.00881      3840.7412      0.99696119
   1174000  -1236.5018      229.54297     -1466.0447      301.98788      850.30611      3840.7412      0.99696119
   1175000  -1254.2525      228.8759      -1483.1284      301.11028     -1250.9176      3840.7412      0.99696119
   1176000  -1256.6589      228.82854     -1485.4874      301.04798     -2354.4329      3840.7412      0.99696119
   1177000  -1254.9086      227.40025     -1482.3088      299.16891     -1561.6804      3840.7412      0.99696119
   1178000  -1241.1233      232.12152     -1473.2449      305.38024     -354.41302      3840.7412      0.99696119
   1179000  -1291.6792      206.76889     -1498.448       272.02618     -1083.3551      3840.7412      0.99696119
   1180000  -1242.8678      233.66058     -1476.5283      307.40504     -1367.4346      3840.7412      0.99696119
   1181000  -1273.1577      220.99877     -1494.1564      290.74709      556.5103       3840.7412      0.99696119
   1182000  -1267.1057      231.31638     -1498.4221      304.32098      1700.3497      3840.7412      0.99696119
   1183000  -1226.1346      245.52772     -1471.6623      323.0175      -209.98336      3840.7412      0.99696119
   1184000  -1283.8942      213.2407      -1497.1349      280.54053     -921.10315      3840.7412      0.99696119
   1185000  -1258.375       227.79761     -1486.1726      299.69167     -311.90493      3840.7412      0.99696119
   1186000  -1302.8963      218.81057     -1521.7069      287.86829      661.34967      3840.7412      0.99696119
   1187000  -1284.1247      231.19533     -1515.32        304.16173      491.4863       3840.7412      0.99696119
   1188000  -1288.3619      229.41689     -1517.7788      301.82201      671.76494      3840.7412      0.99696119
   1189000  -1289.3903      219.98489     -1509.3752      289.41322      273.54497      3840.7412      0.99696119
   1190000  -1269.0608      231.17497     -1500.2357      304.13495      791.92893      3840.7412      0.99696119
   1191000  -1309.1788      205.98192     -1515.1607      270.99084      619.63496      3840.7412      0.99696119
   1192000  -1264.0556      207.61028     -1471.6659      273.13312      526.44982      3840.7412      0.99696119
   1193000  -1246.9998      226.74483     -1473.7446      298.30664      131.2263       3840.7412      0.99696119
   1194000  -1263.4464      224.09626     -1487.5427      294.82216     -590.06394      3840.7412      0.99696119
   1195000  -1244.6869      235.2748      -1479.9617      309.5287       1538.8952      3840.7412      0.99696119
   1196000  -1276.7148      236.71751     -1513.4323      311.42674      886.58444      3840.7412      0.99696119
   1197000  -1231.8629      229.5846      -1461.4475      302.04265     -45.963085      3840.7412      0.99696119
   1198000  -1252.6703      240.13404     -1492.8043      315.92155     -570.53695      3840.7412      0.99696119
   1199000  -1261.4032      231.29866     -1492.7018      304.29767     -790.51761      3840.7412      0.99696119
   1200000  -1284.9862      222.58543     -1507.5717      292.83451      76.558395      3840.7412      0.99696119
   1201000  -1271.9608      231.21196     -1503.1728      304.18362     -598.28476      3840.7412      0.99696119
   1202000  -1275.2996      237.11635     -1512.416       311.95146     -865.11874      3840.7412      0.99696119
   1203000  -1241.0151      242.76221     -1483.7773      319.37917      95.33146       3840.7412      0.99696119
   1204000  -1255.5534      240.70828     -1496.2617      316.67702     -239.3039       3840.7412      0.99696119
   1205000  -1250.9678      222.042       -1473.0098      292.11957      80.910567      3840.7412      0.99696119
   1206000  -1256.2665      214.9147      -1471.1812      282.74286     -878.01172      3840.7412      0.99696119
   1207000  -1289.938       213.5468      -1503.4848      280.94324     -308.35929      3840.7412      0.99696119
   1208000  -1309.2324      222.27119     -1531.5036      292.42109      2279.6965      3840.7412      0.99696119
   1209000  -1288.1817      206.80897     -1494.9907      272.07892      1364.7413      3840.7412      0.99696119
   1210000  -1256.937       237.02998     -1493.9669      311.83782      969.97376      3840.7412      0.99696119
   1211000  -1287.8111      224.59718     -1512.4083      295.48118     -743.6663       3840.7412      0.99696119
   1212000  -1259.0882      221.22182     -1480.3101      291.04054     -928.68465      3840.7412      0.99696119
   1213000  -1271.1597      225.42383     -1496.5836      296.56872      785.68492      3840.7412      0.99696119
   1214000  -1258.2809      214.87476     -1473.1556      282.69031      1695.1829      3840.7412      0.99696119
   1215000  -1205.1134      227.39113     -1432.5045      299.15691      2515.5467      3840.7412      0.99696119
   1216000  -1245.6097      227.92816     -1473.5379      299.86342     -42.843869      3840.7412      0.99696119
   1217000  -1248.3835      230.04797     -1478.4315      302.65226      3967.4814      3840.7412      0.99696119
   1218000  -1264.9335      218.83652     -1483.77        287.90242     -686.65621      3840.7412      0.99696119
   1219000  -1262.3304      215.19111     -1477.5215      283.1065      -1515.464       3840.7412      0.99696119
   1220000  -1258.1785      224.5607      -1482.7392      295.43318     -318.39073      3840.7412      0.99696119
   1221000  -1297.5799      230.22282     -1527.8027      302.8823       288.16618      3840.7412      0.99696119
   1222000  -1272.8536      224.03446     -1496.8881      294.74085      1024.6973      3840.7412      0.99696119
   1223000  -1263.4242      243.18001     -1506.6042      319.92884      2393.7396      3840.7412      0.99696119
   1224000  -1246.8083      246.61629     -1493.4245      324.44963      1168.3918      3840.7412      0.99696119
   1225000  -1271.8432      229.50351     -1501.3467      301.93597      419.05662      3840.7412      0.99696119
   1226000  -1270.7667      221.06604     -1491.8328      290.83558      750.37008      3840.7412      0.99696119
   1227000  -1291.7083      222.32588     -1514.0342      292.49305     -295.17081      3840.7412      0.99696119
   1228000  -1279.3715      234.93318     -1514.3047      309.07927      1116.002       3840.7412      0.99696119
   1229000  -1253.5011      227.12379     -1480.6249      298.80519      669.97014      3840.7412      0.99696119
   1230000  -1307.8841      234.63898     -1542.5231      308.69222     -2100.419       3840.7412      0.99696119
   1231000  -1211.9547      254.73679     -1466.6915      335.13299      2105.5061      3840.7412      0.99696119
   1232000  -1275.9886      214.8064      -1490.795       282.60038     -530.92154      3840.7412      0.99696119
   1233000  -1283.8387      229.61516     -1513.4539      302.08286      359.88061      3840.7412      0.99696119
   1234000  -1253.1912      247.51139     -1500.7026      325.62723      1134.246       3840.7412      0.99696119
   1235000  -1318.0809      209.64302     -1527.7239      275.80741      198.41703      3840.7412      0.99696119
   1236000  -1227.3104      227.64318     -1454.9536      299.48851      581.0071       3840.7412      0.99696119
   1237000  -1254.7546      234.44991     -1489.2045      308.44347      1853.2868      3840.7412      0.99696119
   1238000  -1295.3528      230.22124     -1525.574       302.88022     -437.93424      3840.7412      0.99696119
   1239000  -1268.9319      222.54358     -1491.4755      292.77945     -267.60489      3840.7412      0.99696119
   1240000  -1261.3028      245.11325     -1506.4161      322.47222      239.28529      3840.7412      0.99696119
   1241000  -1212.6258      235.1175      -1447.7433      309.32176      1223.6401      3840.7412      0.99696119
   1242000  -1259.2999      218.3016      -1477.6015      287.19868      907.04785      3840.7412      0.99696119
   1243000  -1265.4091      217.51459     -1482.9237      286.16328      729.45826      3840.7412      0.99696119
   1244000  -1232.2584      238.21695     -1470.4754      313.39941      1844.2066      3840.7412      0.99696119
   1245000  -1297.0487      218.17308     -1515.2218      287.0296      -1590.425       3840.7412      0.99696119
   1246000  -1317.8576      228.92069     -1546.7783      301.16921      618.24401      3840.7412      0.99696119
   1247000  -1290.7722      221.11511     -1511.8873      290.90014     -148.8299       3840.7412      0.99696119
   1248000  -1249.6022      243.07678     -1492.679       319.79303     -2334.8671      3840.7412      0.99696119
   1249000  -1262.5964      217.86779     -1480.4642      286.62796      949.95542      3840.7412      0.99696119
   1250000  -1297.1272      208.05946     -1505.1867      273.72407      424.79403      3840.7412      0.99696119
   1251000  -1276.6752      231.01802     -1507.6932      303.92846      77.968094      3840.7412      0.99696119
   1252000  -1261.5228      233.29989     -1494.8227      306.9305       921.45368      3840.7412      0.99696119
   1253000  -1243.1667      240.21653     -1483.3832      316.03007      992.1334       3840.7412      0.99696119
   1254000  -1270.8047      216.66377     -1487.4685      285.04394     -5.6910907      3840.7412      0.99696119
   1255000  -1273.0012      223.78878     -1496.79        294.41765      1581.3383      3840.7412      0.99696119
   1256000  -1286.7027      217.69113     -1504.3939      286.39555     -1296.579       3840.7412      0.99696119
   1257000  -1260.4784      206.05367     -1466.532       271.08524     -966.08192      3840.7412      0.99696119
   1258000  -1269.7796      228.01306     -1497.7927      299.97512     -103.43505      3840.7412      0.99696119
   1259000  -1297.7635      229.57557     -1527.3391      302.03077     -1040.0555      3840.7412      0.99696119
   1260000  -1249.4307      215.87045     -1465.3012      284.00024      1235.8807      3840.7412      0.99696119
   1261000  -1306.2582      219.78203     -1526.0402      289.14634     -498.80277      3840.7412      0.99696119
   1262000  -1260.5084      243.1889      -1503.6973      319.94053      299.11865      3840.7412      0.99696119
   1263000  -1266.4135      228.38328     -1494.7968      300.46219     -1195.6762      3840.7412      0.99696119
   1264000  -1271.7718      244.77425     -1516.5461      322.02623      297.02607      3840.7412      0.99696119
   1265000  -1311.7083      195.04369     -1506.752       256.60046      775.81414      3840.7412      0.99696119
   1266000  -1300.7905      228.14334     -1528.9338      300.14652      1837.4442      3840.7412      0.99696119
   1267000  -1257.9018      249.36618     -1507.268       328.06739     -1253.4013      3840.7412      0.99696119
   1268000  -1303.9221      225.07811     -1529.0002      296.11389      274.31422      3840.7412      0.99696119
   1269000  -1309.6681      194.56554     -1504.2336      255.9714       797.17487      3840.7412      0.99696119
   1270000  -1262.7899      227.52        -1490.3099      299.32645      746.41029      3840.7412      0.99696119
   1271000  -1274.6941      210.53347     -1485.2276      276.97889      268.51236      3840.7412      0.99696119
   1272000  -1239.5561      244.03204     -1483.5881      321.04978     -288.75941      3840.7412      0.99696119
   1273000  -1266.6334      240.9513      -1507.5847      316.99674     -148.69924      3840.7412      0.99696119
   1274000  -1283.5373      251.34099     -1534.8783      330.66546     -195.15943      3840.7412      0.99696119
   1275000  -1268.5938      233.85933     -1502.4532      307.66651      99.974868      3840.7412      0.99696119
   1276000  -1258.6886      216.51691     -1475.2056      284.85074     -112.81455      3840.7412      0.99696119
   1277000  -1298.8721      225.58515     -1524.4572      296.78095      775.69393      3840.7412      0.99696119
   1278000  -1291.7886      222.8616      -1514.6502      293.19784      426.96662      3840.7412      0.99696119
   1279000  -1279.5891      217.37825     -1496.9673      285.98392     -373.35343      3840.7412      0.99696119
   1280000  -1282.2493      233.95197     -1516.2012      307.78838      1125.273       3840.7412      0.99696119
   1281000  -1253.4521      230.91036     -1484.3624      303.78683      71.52779       3840.7412      0.99696119
   1282000  -1245.2276      217.91276     -1463.1404      286.68712      664.64783      3840.7412      0.99696119
   1283000  -1269.3065      238.02158     -1507.3281      313.14238     -825.31682      3840.7412      0.99696119
   1284000  -1247.3191      212.05561     -1459.3747      278.98142     -761.36753      3840.7412      0.99696119
   1285000  -1290.2307      215.07656     -1505.3073      282.95579      374.71968      3840.7412      0.99696119
   1286000  -1262.7127      250.74603     -1513.4588      329.88273      1346.0229      3840.7412      0.99696119
   1287000  -1232.7299      240.71403     -1473.4439      316.68458      1727.8611      3840.7412      0.99696119
   1288000  -1264.5617      230.95658     -1495.5183      303.84764      250.5907       3840.7412      0.99696119
   1289000  -1249.374       236.98029     -1486.3543      311.77245      983.92602      3840.7412      0.99696119
   1290000  -1283.5479      222.92754     -1506.4755      293.28458      94.723298      3840.7412      0.99696119
   1291000  -1281.2908      217.78437     -1499.0752      286.51821     -778.39326      3840.7412      0.99696119
   1292000  -1303.4616      200.84305     -1504.3047      264.23013      126.83414      3840.7412      0.99696119
   1293000  -1270.5151      215.86832     -1486.3834      283.99744      245.31071      3840.7412      0.99696119
   1294000  -1275.8365      210.45798     -1486.2945      276.87957     -721.7904       3840.7412      0.99696119
   1295000  -1299.8486      236.51        -1536.3586      311.15373      814.47705      3840.7412      0.99696119
   1296000  -1284.2086      227.29872     -1511.5073      299.03534     -917.11087      3840.7412      0.99696119
   1297000  -1258.4379      234.7624      -1493.2003      308.85459     -2173.239       3840.7412      0.99696119
   1298000  -1310.8057      187.3085      -1498.1142      246.424       -1350.4166      3840.7412      0.99696119
   1299000  -1243.9185      221.14112     -1465.0596      290.93437      738.62028      3840.7412      0.99696119
   1300000  -1249.0768      223.25689     -1472.3337      293.71789      135.72132      3840.7412      0.99696119
   1301000  -1260.6232      222.83021     -1483.4535      293.15654     -1114.3743      3840.7412      0.99696119
   1302000  -1263.1295      238.97642     -1502.1059      314.39857      1680.3582      3840.7412      0.99696119
   1303000  -1319.8768      228.69548     -1548.5723      300.87292     -2545.4412      3840.7412      0.99696119
   1304000  -1275.6108      215.38952     -1491.0004      283.36754      270.29481      3840.7412      0.99696119
   1305000  -1244.7889      234.09469     -1478.8836      307.97614     -2293.0369      3840.7412      0.99696119
   1306000  -1267.4613      221.72741     -1489.1887      291.70569      247.43712      3840.7412      0.99696119
   1307000  -1205.0591      232.47663     -1437.5357      305.84742      244.03913      3840.7412      0.99696119
   1308000  -1231.1493      240.83379     -1471.9831      316.84215     -1127.5209      3840.7412      0.99696119
   1309000  -1238.2014      231.58288     -1469.7843      304.6716      -1205.3789      3840.7412      0.99696119
   1310000  -1275.9968      214.27711     -1490.2739      281.90403     -1393.499       3840.7412      0.99696119
   1311000  -1257.4629      229.28875     -1486.7517      301.65343      1217.4905      3840.7412      0.99696119
   1312000  -1229.0093      244.11609     -1473.1254      321.16035      217.36407      3840.7412      0.99696119
   1313000  -1269.9792      199.51205     -1469.4912      262.47905     -326.45472      3840.7412      0.99696119
   1314000  -1296.5255      216.71138     -1513.2368      285.10658     -494.31268      3840.7412      0.99696119
   1315000  -1272.7965      241.41585     -1514.2124      317.6079      -694.7664       3840.7412      0.99696119
   1316000  -1241.8786      246.8284      -1488.707       324.72868     -632.42836      3840.7412      0.99696119
   1317000  -1251.0219      235.37167     -1486.3936      309.65615      280.23658      3840.7412      0.99696119
   1318000  -1243.9939      246.58289     -1490.5768      324.40569     -2184.3515      3840.7412      0.99696119
   1319000  -1211.6736      230.46461     -1442.1382      303.2004       964.43393      3840.7412      0.99696119
   1320000  -1257.661       225.41051     -1483.0715      296.5512       1272.3087      3840.7412      0.99696119
   1321000  -1297.2889      208.72114     -1506.0101      274.59458      1293.9968      3840.7412      0.99696119
   1322000  -1283.1404      224.89704     -1508.0374      295.87567     -663.17257      3840.7412      0.99696119
   1323000  -1289.7468      212.36015     -1502.1069      279.38208      1569.6924      3840.7412      0.99696119
   1324000  -1301.0963      206.61519     -1507.7115      271.82397     -500.80292      3840.7412      0.99696119
   1325000  -1270.4939      228.87365     -1499.3675      301.10732      1364.9154      3840.7412      0.99696119
   1326000  -1245.0679      232.91817     -1477.9861      306.42832     -536.80237      3840.7412      0.99696119
   1327000  -1259.9129      224.83374     -1484.7466      295.79239      170.35509      3840.7412      0.99696119
   1328000  -1237.0676      223.71506     -1460.7827      294.32065     -283.45711      3840.7412      0.99696119
   1329000  -1240.4907      240.92705     -1481.4178      316.96484     -417.94072      3840.7412      0.99696119
   1330000  -1291.8541      219.19346     -1511.0476      288.37202     -1588.7627      3840.7412      0.99696119
   1331000  -1293.8521      216.58199     -1510.4341      284.93635     -1679.6766      3840.7412      0.99696119
   1332000  -1280.9257      227.11834     -1508.044       298.79802      336.2815       3840.7412      0.99696119
   1333000  -1275.1617      226.02351     -1501.1852      297.35766     -152.72515      3840.7412      0.99696119
   1334000  -1282.9098      196.56424     -1479.474       258.6009      -345.18387      3840.7412      0.99696119
   1335000  -1282.2403      224.03281     -1506.2731      294.73869     -1406.5859      3840.7412      0.99696119
   1336000  -1265.843       208.02118     -1473.8641      273.67371      2270.6637      3840.7412      0.99696119
   1337000  -1299.6737      210.54513     -1510.2189      276.99423     -1062.6132      3840.7412      0.99696119
   1338000  -1274.5669      214.86201     -1489.4289      282.67354     -234.05305      3840.7412      0.99696119
   1339000  -1283.5144      234.87746     -1518.3918      309.00597      494.1311       3840.7412      0.99696119
   1340000  -1279.9364      228.35521     -1508.2916      300.42526     -2242.6874      3840.7412      0.99696119
   1341000  -1280.4102      235.57203     -1515.9823      309.91975      735.99147      3840.7412      0.99696119
   1342000  -1273.8835      238.77783     -1512.6613      314.13731      890.8606       3840.7412      0.99696119
   1343000  -1285.9488      233.84824     -1519.7971      307.65191      789.0435       3840.7412      0.99696119
   1344000  -1281.3981      229.59492     -1510.993       302.05623     -2070.8656      3840.7412      0.99696119
   1345000  -1253.6657      225.57056     -1479.2363      296.76176     -673.40707      3840.7412      0.99696119
   1346000  -1248.5769      235.41203     -1483.989       309.70925     -1972.9716      3840.7412      0.99696119
   1347000  -1262.7582      242.66963     -1505.4278      319.25738     -880.34282      3840.7412      0.99696119
   1348000  -1276.3126      210.57829     -1486.8909      277.03785     -2507.6678      3840.7412      0.99696119
   1349000  -1224.2882      230.45763     -1454.7459      303.19121     -2394.5632      3840.7412      0.99696119
   1350000  -1263.0444      224.83492     -1487.8794      295.79394     -1943.0831      3840.7412      0.99696119
   1351000  -1237.3635      246.9171      -1484.2806      324.84537      565.95872      3840.7412      0.99696119
   1352000  -1223.9966      237.64308     -1461.6396      312.64443      282.25403      3840.7412      0.99696119
   1353000  -1276.3637      224.70094     -1501.0646      295.61768      1140.1381      3840.7412      0.99696119
   1354000  -1256.6581      243.41624     -1500.0744      320.23963     -159.03935      3840.7412      0.99696119
   1355000  -1284.5476      234.91882     -1519.4664      309.06038     -531.31029      3840.7412      0.99696119
   1356000  -1263.6951      229.2411      -1492.9362      301.59074      1397.9483      3840.7412      0.99696119
   1357000  -1263.815       231.15653     -1494.9715      304.11068     -499.7709       3840.7412      0.99696119
   1358000  -1263.6978      224.84153     -1488.5393      295.80265     -433.09089      3840.7412      0.99696119
   1359000  -1253.9802      231.82361     -1485.8038      304.9883      -786.47829      3840.7412      0.99696119
   1360000  -1261.2438      227.9242      -1489.168       299.85823     -1461.8885      3840.7412      0.99696119
   1361000  -1251.9739      228.21939     -1480.1933      300.24657     -388.99014      3840.7412      0.99696119
   1362000  -1282.9391      216.22216     -1499.1613      284.46295     -874.68884      3840.7412      0.99696119
   1363000  -1306.6179      212.31687     -1518.9348      279.32514     -893.79303      3840.7412      0.99696119
   1364000  -1258.0186      235.27361     -1493.2922      309.52713      1096.5837      3840.7412      0.99696119
   1365000  -1250.54        233.60687     -1484.1469      307.33437      150.77556      3840.7412      0.99696119
   1366000  -1271.1039      213.71927     -1484.8232      281.17015      1297.5281      3840.7412      0.99696119
   1367000  -1280.2855      213.94723     -1494.2327      281.47004     -1456.4779      3840.7412      0.99696119
   1368000  -1244.177       222.75192     -1466.9289      293.05354      1487.5247      3840.7412      0.99696119
   1369000  -1269.0795      233.83523     -1502.9148      307.6348      -610.60894      3840.7412      0.99696119
   1370000  -1262.2167      214.95904     -1477.1757      282.80119     -1866.2181      3840.7412      0.99696119
   1371000  -1274.5154      232.34562     -1506.861       305.67506     -1030.8064      3840.7412      0.99696119
   1372000  -1300.5917      227.12977     -1527.7215      298.81306      640.16372      3840.7412      0.99696119
   1373000  -1257.9165      227.19573     -1485.1122      298.89984      1683.4944      3840.7412      0.99696119
   1374000  -1249.2918      246.84192     -1496.1337      324.74647      457.80965      3840.7412      0.99696119
   1375000  -1256.591       245.2159      -1501.8069      322.60726     -590.93533      3840.7412      0.99696119
   1376000  -1220.0811      232.32183     -1452.4029      305.64376     -553.82038      3840.7412      0.99696119
   1377000  -1281.8524      211.91248     -1493.7649      278.79312     -116.33149      3840.7412      0.99696119
   1378000  -1272.8669      219.3518      -1492.2187      288.58032      439.00506      3840.7412      0.99696119
   1379000  -1260.9848      233.17757     -1494.1623      306.76958     -1411.1613      3840.7412      0.99696119
   1380000  -1262.2374      219.61779     -1481.8552      288.93026      959.52113      3840.7412      0.99696119
   1381000  -1259.8863      222.24243     -1482.1287      292.38325     -349.68098      3840.7412      0.99696119
   1382000  -1297.4119      219.87017     -1517.282       289.2623       3651.7659      3840.7412      0.99696119
   1383000  -1276.5983      226.31235     -1502.9106      297.73767     -369.53906      3840.7412      0.99696119
   1384000  -1276.7897      206.01417     -1482.8039      271.03328      400.87982      3840.7412      0.99696119
   1385000  -1296.5145      214.79804     -1511.3125      282.58938      62.624459      3840.7412      0.99696119
   1386000  -1286.5994      223.43937     -1510.0388      293.95795      261.78209      3840.7412      0.99696119
   1387000  -1268.4484      208.28514     -1476.7335      274.02098     -328.67064      3840.7412      0.99696119
   1388000  -1259.2873      233.03398     -1492.3213      306.58067     -1203.2221      3840.7412      0.99696119
   1389000  -1225.4609      245.254       -1470.7149      322.65739     -206.98947      3840.7412      0.99696119
   1390000  -1258.12        212.40908     -1470.529       279.44645      960.90008      3840.7412      0.99696119
   1391000  -1283.9853      229.56295     -1513.5482      302.01417      418.87957      3840.7412      0.99696119
   1392000  -1294.9119      213.34025     -1508.2521      280.67151      392.86686      3840.7412      0.99696119
   1393000  -1245.9626      247.6493      -1493.6119      325.80865      532.1852       3840.7412      0.99696119
   1394000  -1284.3509      203.2014      -1487.5523      267.33278     -399.96654      3840.7412      0.99696119
   1395000  -1278.0922      224.04627     -1502.1385      294.7564      -5.4864904      3840.7412      0.99696119
   1396000  -1269.0962      223.77222     -1492.8684      294.39585     -908.83284      3840.7412      0.99696119
   1397000  -1251.7724      237.37897     -1489.1514      312.29696     -485.31917      3840.7412      0.99696119
   1398000  -1289.816       203.57324     -1493.3892      267.82197     -1346.0814      3840.7412      0.99696119
   1399000  -1261.8595      228.28479     -1490.1443      300.33261      513.63771      3840.7412      0.99696119
   1400000  -1242.2182      246.27901     -1488.4972      324.0059       1957.6399      3840.7412      0.99696119
   1401000  -1262.7365      236.41229     -1499.1488      311.02519      1617.6786      3840.7412      0.99696119
   1402000  -1293.0664      215.7958      -1508.8622      283.90203      21.104574      3840.7412      0.99696119
   1403000  -1295.6161      212.06906     -1507.6851      278.99912      92.226043      3840.7412      0.99696119
   1404000  -1242.5334      224.07116     -1466.6045      294.78914      1358.1733      3840.7412      0.99696119
   1405000  -1222.7287      232.97295     -1455.7017      306.50038      756.72256      3840.7412      0.99696119
   1406000  -1260.7558      231.98551     -1492.7413      305.2013       1203.6414      3840.7412      0.99696119
   1407000  -1275.5023      224.54317     -1500.0455      295.41012     -1597.0894      3840.7412      0.99696119
   1408000  -1234.443       241.03549     -1475.4785      317.1075      -548.93945      3840.7412      0.99696119
   1409000  -1249.7216      242.17402     -1491.8956      318.60535      758.08355      3840.7412      0.99696119
   1410000  -1274.7388      236.03419     -1510.773       310.52776     -858.68135      3840.7412      0.99696119
   1411000  -1265.0799      219.94322     -1485.0231      289.3584       1978.9377      3840.7412      0.99696119
   1412000  -1249.4153      234.80286     -1484.2182      308.90781      493.17302      3840.7412      0.99696119
   1413000  -1259.1222      222.47872     -1481.6009      292.69412      610.39178      3840.7412      0.99696119
   1414000  -1262.9024      208.32352     -1471.2259      274.07146      1890.9119      3840.7412      0.99696119
   1415000  -1305.6303      213.64652     -1519.2768      281.07443      230.54624      3840.7412      0.99696119
   1416000  -1294.9267      233.52977     -1528.4565      307.23294     -696.14998      3840.7412      0.99696119
   1417000  -1241.5372      221.62064     -1463.1578      291.56522      2608.8668      3840.7412      0.99696119
   1418000  -1290.8649      214.30216     -1505.1671      281.93699     -646.05149      3840.7412      0.99696119
   1419000  -1273.3045      219.53065     -1492.8352      288.81562      2345.4944      3840.7412      0.99696119
   1420000  -1248.8763      242.34616     -1491.2225      318.83183     -972.56622      3840.7412      0.99696119
   1421000  -1280.129       204.85323     -1484.9823      269.50593     -2704.9115      3840.7412      0.99696119
   1422000  -1261.3473      231.6939      -1493.0412      304.81766     -641.90395      3840.7412      0.99696119
   1423000  -1266.8406      212.17198     -1479.0126      279.13452     -365.65574      3840.7412      0.99696119
   1424000  -1262.2066      210.38104     -1472.5876      276.77835      1066.8972      3840.7412      0.99696119
   1425000  -1237.6178      230.30641     -1467.9242      302.99226     -50.236976      3840.7412      0.99696119
   1426000  -1249.122       241.30587     -1490.4279      317.46322      1159.1604      3840.7412      0.99696119
   1427000  -1278.45        216.19168     -1494.6417      284.42286      2291.8557      3840.7412      0.99696119
   1428000  -1254.5672      240.35132     -1494.9185      316.20739      25.034925      3840.7412      0.99696119
   1429000  -1261.0712      249.35727     -1510.4284      328.05567      3509.9354      3840.7412      0.99696119
   1430000  -1269.8626      225.23108     -1495.0937      296.31514     -1276.8944      3840.7412      0.99696119
   1431000  -1264.1936      225.44816     -1489.6418      296.60073     -248.14342      3840.7412      0.99696119
   1432000  -1288.1187      207.70104     -1495.8197      273.25253     -2039.8074      3840.7412      0.99696119
   1433000  -1230.0882      238.92437     -1469.0126      314.3301      -1122.4209      3840.7412      0.99696119
   1434000  -1267.9558      223.83031     -1491.7861      294.47227     -770.55264      3840.7412      0.99696119
   1435000  -1283.8267      210.48043     -1494.3071      276.90911     -557.08821      3840.7412      0.99696119
   1436000  -1238.189       236.39503     -1474.584       311.00248      555.71123      3840.7412      0.99696119
   1437000  -1250.3403      227.51645     -1477.8567      299.32178      235.40346      3840.7412      0.99696119
   1438000  -1262.0909      238.37377     -1500.4647      313.60573     -531.59265      3840.7412      0.99696119
   1439000  -1277.7764      220.40684     -1498.1833      289.96834      908.59755      3840.7412      0.99696119
   1440000  -1280.5807      216.44908     -1497.0298      284.76149      189.81925      3840.7412      0.99696119
   1441000  -1269.7487      230.99374     -1500.7424      303.89652      1025.9958      3840.7412      0.99696119
   1442000  -1245.1125      234.12919     -1479.2417      308.02153      437.32771      3840.7412      0.99696119
   1443000  -1277.3616      225.56225     -1502.9238      296.75082     -715.70617      3840.7412      0.99696119
   1444000  -1246.2078      238.4548      -1484.6626      313.71233      439.10312      3840.7412      0.99696119
   1445000  -1258.6513      229.91989     -1488.5712      302.48375      541.31821      3840.7412      0.99696119
   1446000  -1267.0641      241.69424     -1508.7583      317.97415     -146.82987      3840.7412      0.99696119
   1447000  -1288.1581      201.18047     -1489.3385      264.67403     -278.11051      3840.7412      0.99696119
   1448000  -1239.594       228.88996     -1468.484       301.12878      105.72702      3840.7412      0.99696119
   1449000  -1283.9618      224.09289     -1508.0547      294.81773     -268.36978      3840.7412      0.99696119
   1450000  -1257.7513      212.25042     -1470.0017      279.23771      401.48958      3840.7412      0.99696119
   1451000  -1269.1112      217.75927     -1486.8705      286.48518     -759.90647      3840.7412      0.99696119
   1452000  -1335.2941      214.01477     -1549.3089      281.5589      -1414.5975      3840.7412      0.99696119
   1453000  -1269.973       244.95799     -1514.931       322.26796      1445.6419      3840.7412      0.99696119
   1454000  -1249.2211      229.74488     -1478.966       302.25351      815.88419      3840.7412      0.99696119
   1455000  -1226.2867      261.09175     -1487.3785      343.49361     -229.92207      3840.7412      0.99696119
   1456000  -1301.8955      206.85257     -1508.7481      272.13628      1126.9826      3840.7412      0.99696119
   1457000  -1275.3227      202.62321     -1477.9459      266.57211     -2534.1461      3840.7412      0.99696119
   1458000  -1254.5916      225.43537     -1480.0269      296.5839      -244.92411      3840.7412      0.99696119
   1459000  -1271.2824      220.77341     -1492.0558      290.45061     -251.89006      3840.7412      0.99696119
   1460000  -1259.3737      233.82826     -1493.2019      307.62563      254.71773      3840.7412      0.99696119
   1461000  -1263.5978      216.74129     -1480.339       285.14592     -10.667334      3840.7412      0.99696119
   1462000  -1268.6546      212.97634     -1481.631       280.19274     -2150.3245      3840.7412      0.99696119
   1463000  -1266.1957      244.47673     -1510.6725      321.63481      1301.9558      3840.7412      0.99696119
   1464000  -1275.2831      230.01196     -1505.2951      302.60489     -920.41635      3840.7412      0.99696119
   1465000  -1286.2867      217.36046     -1503.6472      285.96051     -959.89194      3840.7412      0.99696119
   1466000  -1245.0701      254.9623      -1500.0324      335.42968      518.96162      3840.7412      0.99696119
   1467000  -1285.3411      226.26383     -1511.6049      297.67383      347.52325      3840.7412      0.99696119
   1468000  -1263.4499      222.9817      -1486.4316      293.35584      269.29773      3840.7412      0.99696119
   1469000  -1257.2881      217.00483     -1474.2929      285.49264     -603.96992      3840.7412      0.99696119
   1470000  -1282.0802      212.68967     -1494.7699      279.81559      1450.1524      3840.7412      0.99696119
   1471000  -1249.5568      236.42845     -1485.9853      311.04645      613.58368      3840.7412      0.99696119
   1472000  -1279.6982      222.02734     -1501.7255      292.10028     -47.19043       3840.7412      0.99696119
   1473000  -1242.1966      231.05566     -1473.2522      303.97799      1473.6826      3840.7412      0.99696119
   1474000  -1276.4797      213.43439     -1489.9141      280.79535     -1037.103       3840.7412      0.99696119
   1475000  -1303.4206      208.30639     -1511.727       274.04893      316.63807      3840.7412      0.99696119
   1476000  -1317.1526      217.18771     -1534.3403      285.73324      1564.9477      3840.7412      0.99696119
   1477000  -1266.7182      237.56616     -1504.2844      312.54322      680.49486      3840.7412      0.99696119
   1478000  -1304.5316      215.05477     -1519.5864      282.92714     -927.91706      3840.7412      0.99696119
   1479000  -1281.4158      233.01067     -1514.4264      306.55         1417.6353      3840.7412      0.99696119
   1480000  -1257.5581      236.16799     -1493.7261      310.70379      1905.2528      3840.7412      0.99696119
   1481000  -1284.0921      218.66039     -1502.7525      287.67071     -1480.104       3840.7412      0.99696119
   1482000  -1275.4123      223.68955     -1499.1018      294.2871       217.07098      3840.7412      0.99696119
   1483000  -1313.4483      223.79457     -1537.2429      294.42526     -319.41505      3840.7412      0.99696119
   1484000  -1293.594       212.04699     -1505.641       278.97008      92.79462       3840.7412      0.99696119
   1485000  -1298.9517      232.48393     -1531.4356      305.85703     -1700.7951      3840.7412      0.99696119
   1486000  -1270.2396      222.47368     -1492.7133      292.68749      1531.3129      3840.7412      0.99696119
   1487000  -1275.8364      234.58531     -1510.4217      308.6216       983.33069      3840.7412      0.99696119
   1488000  -1285.8287      236.46901     -1522.2977      311.09981      181.13983      3840.7412      0.99696119
   1489000  -1272.8235      228.92628     -1501.7497      301.17656      252.81534      3840.7412      0.99696119
   1490000  -1268.0661      220.36532     -1488.4314      289.91372      1221.7504      3840.7412      0.99696119
   1491000  -1238.3431      241.50559     -1479.8487      317.72597      325.10463      3840.7412      0.99696119
   1492000  -1289.0863      218.46945     -1507.5557      287.4195      -1663.3371      3840.7412      0.99696119
   1493000  -1255.548       246.22781     -1501.7758      323.93854      68.756785      3840.7412      0.99696119
   1494000  -1276.4492      225.96048     -1502.4097      297.27473      434.10248      3840.7412      0.99696119
   1495000  -1228.7658      238.20081     -1466.9666      313.37818      769.63876      3840.7412      0.99696119
   1496000  -1264.2007      237.3327      -1501.5334      312.23609      1191.9395      3840.7412      0.99696119
   1497000  -1275.4471      208.43425     -1483.8814      274.21715      1746.95        3840.7412      0.99696119
   1498000  -1231.0766      248.97936     -1480.056       327.55849     -1151.271       3840.7412      0.99696119
   1499000  -1259.1077      230.48903     -1489.5967      303.23252      1486.4278      3840.7412      0.99696119
   1500000  -1248.389       240.57088     -1488.9598      316.49626      1101.7062      3840.7412      0.99696119
   1501000  -1273.2362      214.73504     -1487.9713      282.5065      -252.10392      3840.7412      0.99696119
   1502000  -1283.7982      219.7945      -1503.5927      289.16274     -673.25267      3840.7412      0.99696119
   1503000  -1259.5885      231.09421     -1490.6827      304.0287       1356.461       3840.7412      0.99696119
   1504000  -1292.3312      211.21043     -1503.5416      277.8695      -444.87262      3840.7412      0.99696119
   1505000  -1261.7464      235.28249     -1497.0289      309.53882     -471.00459      3840.7412      0.99696119
   1506000  -1258.2625      215.18096     -1473.4435      283.09315     -586.63465      3840.7412      0.99696119
   1507000  -1208.0739      237.16434     -1445.2382      312.01459      224.31418      3840.7412      0.99696119
   1508000  -1267.8376      225.75997     -1493.5976      297.01095      1450.167       3840.7412      0.99696119
   1509000  -1270.4633      219.52454     -1489.9879      288.80759      76.086991      3840.7412      0.99696119
   1510000  -1276.0368      211.24829     -1487.2851      277.91931     -579.43494      3840.7412      0.99696119
   1511000  -1259.7967      231.99579     -1491.7925      305.21482     -884.12447      3840.7412      0.99696119
   1512000  -1302.8151      222.89335     -1525.7085      293.23961      230.55087      3840.7412      0.99696119
   1513000  -1289.0664      228.27461     -1517.341       300.31922     -924.58793      3840.7412      0.99696119
   1514000  -1284.7934      221.5516      -1506.345       291.4744      -787.21284      3840.7412      0.99696119
   1515000  -1262.0709      220.06202     -1482.1329      289.5147       914.09121      3840.7412      0.99696119
   1516000  -1248.3957      231.64552     -1480.0413      304.754       -248.23742      3840.7412      0.99696119
   1517000  -1293.058       211.43629     -1504.4943      278.16665     -601.63037      3840.7412      0.99696119
   1518000  -1247.3995      244.35069     -1491.7502      321.46899     -68.90396       3840.7412      0.99696119
   1519000  -1257.7331      240.50836     -1498.2414      316.414        2137.4528      3840.7412      0.99696119
   1520000  -1266.283       231.86197     -1498.145       305.03877      1008.4253      3840.7412      0.99696119
   1521000  -1275.8858      204.05194     -1479.9378      268.45176     -1538.3234      3840.7412      0.99696119
   1522000  -1241.7569      232.37047     -1474.1273      305.70775      1261.6936      3840.7412      0.99696119
   1523000  -1272.4947      217.94338     -1490.4381      286.72741     -1412.3433      3840.7412      0.99696119
   1524000  -1271.1192      228.26007     -1499.3793      300.30009     -795.93191      3840.7412      0.99696119
   1525000  -1289.7511      211.55908     -1501.3101      278.32818      1271.8354      3840.7412      0.99696119
   1526000  -1253.9514      221.60287     -1475.5543      291.54184      329.81236      3840.7412      0.99696119
   1527000  -1264.45        244.76543     -1509.2155      322.01463     -123.48571      3840.7412      0.99696119
   1528000  -1253.7608      225.15853     -1478.9194      296.21969     -2887.8045      3840.7412      0.99696119
   1529000  -1224.5756      239.01305     -1463.5887      314.44677     -1064.893       3840.7412      0.99696119
   1530000  -1286.0896      212.81344     -1498.9031      279.97842     -1948.8773      3840.7412      0.99696119
   1531000  -1276.1846      222.58641     -1498.771       292.8358      -153.78173      3840.7412      0.99696119
   1532000  -1270.1111      225.9552      -1496.0663      297.2678       2042.1393      3840.7412      0.99696119
   1533000  -1248.5731      246.16349     -1494.7366      323.85392     -1312.1672      3840.7412      0.99696119
   1534000  -1252.6988      233.27434     -1485.9732      306.89689      140.1714       3840.7412      0.99696119
   1535000  -1242.872       223.7792      -1466.6512      294.40504      238.01697      3840.7412      0.99696119
   1536000  -1257.5435      234.4244      -1491.9679      308.40991      1079.2641      3840.7412      0.99696119
   1537000  -1248.4635      242.27136     -1490.7349      318.73342      1186.7305      3840.7412      0.99696119
   1538000  -1245.9127      246.32783     -1492.2405      324.07012      2261.5989      3840.7412      0.99696119
   1539000  -1264.1774      221.11275     -1485.2901      290.89704     -2403.7562      3840.7412      0.99696119
   1540000  -1274.328       221.69984     -1496.0278      291.66942     -9.770022       3840.7412      0.99696119
   1541000  -1236.1427      228.30443     -1464.4472      300.35845      868.76975      3840.7412      0.99696119
   1542000  -1235.2379      204.41212     -1439.65        268.92561      93.011518      3840.7412      0.99696119
   1543000  -1227.9676      251.78446     -1479.752       331.2489       238.88579      3840.7412      0.99696119
   1544000  -1263.0589      218.95111     -1482.01        288.05318      1434.9051      3840.7412      0.99696119
   1545000  -1261.9726      222.01389     -1483.9865      292.08258      553.29328      3840.7412      0.99696119
   1546000  -1255.9457      249.89317     -1505.8389      328.76071     -661.16502      3840.7412      0.99696119
   1547000  -1225.5388      217.24147     -1442.7802      285.80397      488.56765      3840.7412      0.99696119
   1548000  -1280.5111      218.4287      -1498.9398      287.3659       1019.5912      3840.7412      0.99696119
   1549000  -1260.3059      225.6254      -1485.9313      296.8339       1598.3208      3840.7412      0.99696119
   1550000  -1226.8154      242.43866     -1469.254       318.95352     -1783.133       3840.7412      0.99696119
   1551000  -1257.794       221.34261     -1479.1366      291.19945     -204.06757      3840.7412      0.99696119
   1552000  -1287.318       230.98537     -1518.3034      303.88551     -884.65372      3840.7412      0.99696119
   1553000  -1290.1396      206.2055      -1496.3451      271.28499     -18.028589      3840.7412      0.99696119
   1554000  -1269.2586      224.79154     -1494.0501      295.73687      592.0169       3840.7412      0.99696119
   1555000  -1227.7484      258.0881      -1485.8365      339.542        2112.0081      3840.7412      0.99696119
   1556000  -1276.5277      204.8857      -1481.4134      269.54866      543.06524      3840.7412      0.99696119
   1557000  -1301.5504      218.62489     -1520.1753      287.624        601.02138      3840.7412      0.99696119
   1558000  -1280.5495      222.98763     -1503.5372      293.36364      880.7316       3840.7412      0.99696119
   1559000  -1281.3475      230.61013     -1511.9576      303.39185      1407.741       3840.7412      0.99696119
   1560000  -1250.0097      226.68689     -1476.6966      298.2304       432.29729      3840.7412      0.99696119
   1561000  -1278.8997      226.35657     -1505.2563      297.79584      544.14         3840.7412      0.99696119
   1562000  -1286.1174      207.19422     -1493.3116      272.58575      1037.4749      3840.7412      0.99696119
   1563000  -1254.7471      228.21107     -1482.9582      300.23563      508.95806      3840.7412      0.99696119
   1564000  -1307.4007      206.22053     -1513.6213      271.30476     -279.48948      3840.7412      0.99696119
   1565000  -1266.104       223.09115     -1489.1952      293.49983      905.31347      3840.7412      0.99696119
   1566000  -1250.8088      233.72043     -1484.5292      307.48377      2018.4672      3840.7412      0.99696119
   1567000  -1262.3713      225.27601     -1487.6473      296.37425     -1700.3445      3840.7412      0.99696119
   1568000  -1253.9127      227.4981      -1481.4108      299.29764     -186.62548      3840.7412      0.99696119
   1569000  -1266.2542      218.43947     -1484.6937      287.38006     -93.383444      3840.7412      0.99696119
   1570000  -1237.3025      225.85831     -1463.1608      297.14032      343.53765      3840.7412      0.99696119
   1571000  -1239.0766      219.33739     -1458.414       288.56137      492.33615      3840.7412      0.99696119
   1572000  -1285.2805      212.42416     -1497.7046      279.46629     -366.88453      3840.7412      0.99696119
   1573000  -1253.3462      229.54377     -1482.89        301.98893      2021.3891      3840.7412      0.99696119
   1574000  -1224.2562      229.83887     -1454.095       302.37717      2934.181       3840.7412      0.99696119
   1575000  -1295.4396      207.27859     -1502.7182      272.69675     -844.11987      3840.7412      0.99696119
   1576000  -1258.3672      230.34832     -1488.7155      303.0474       282.22142      3840.7412      0.99696119
   1577000  -1257.2628      221.92332     -1479.1861      291.96343     -1236.9584      3840.7412      0.99696119
   1578000  -1292.0345      217.62574     -1509.6602      286.30951     -2312.3415      3840.7412      0.99696119
   1579000  -1264.3469      224.46149     -1488.8084      295.30266      221.07798      3840.7412      0.99696119
   1580000  -1291.7321      220.63112     -1512.3632      290.26341     -1.0136627      3840.7412      0.99696119
   1581000  -1304.8092      222.99774     -1527.8069      293.37694     -188.97896      3840.7412      0.99696119
   1582000  -1256.2853      213.20097     -1469.4863      280.48827     -454.08577      3840.7412      0.99696119
   1583000  -1263.8243      235.50362     -1499.3279      309.82974     -990.68396      3840.7412      0.99696119
   1584000  -1309.0486      196.74942     -1505.798       258.84452      606.26531      3840.7412      0.99696119
   1585000  -1279.5375      212.94846     -1492.4859      280.15605     -235.34127      3840.7412      0.99696119
   1586000  -1248.7709      230.28098     -1479.0519      302.95881      539.38141      3840.7412      0.99696119
   1587000  -1284.2317      213.42014     -1497.6518      280.7766       586.97149      3840.7412      0.99696119
   1588000  -1204.9019      251.1326      -1456.0345      330.39131      1374.9281      3840.7412      0.99696119
   1589000  -1289.2195      220.35178     -1509.5713      289.89591      582.24862      3840.7412      0.99696119
   1590000  -1220.5715      248.63275     -1469.2042      327.10249     -785.46966      3840.7412      0.99696119
   1591000  -1256.1168      222.37152     -1478.4884      292.55308     -1219.9122      3840.7412      0.99696119
   1592000  -1284.3969      212.97006     -1497.367       280.18448      815.4282       3840.7412      0.99696119
   1593000  -1268.7533      201.77203     -1470.5253      265.4523      -427.52711      3840.7412      0.99696119
   1594000  -1242.0799      229.30861     -1471.3885      301.67956      1582.3778      3840.7412      0.99696119
   1595000  -1269.3235      213.08678     -1482.4103      280.33804     -75.442428      3840.7412      0.99696119
   1596000  -1255.8326      226.81737     -1482.65        298.40207      1125.4317      3840.7412      0.99696119
   1597000  -1251.1732      241.63673     -1492.8099      317.89849     -730.19077      3840.7412      0.99696119
   1598000  -1280.3972      211.12525     -1491.5225      277.75744     -73.1365        3840.7412      0.99696119
   1599000  -1250.5878      234.34212     -1484.9299      308.30167      1172.2432      3840.7412      0.99696119
   1600000  -1271.3606      241.55085     -1512.9115      317.78551     -1529.0605      3840.7412      0.99696119
   1601000  -1237.3784      246.56788     -1483.9462      324.38594      110.85306      3840.7412      0.99696119
   1602000  -1305.2383      211.61572     -1516.854       278.4027      -634.90912      3840.7412      0.99696119
   1603000  -1278.8962      214.94567     -1493.8419      282.7836      -114.49615      3840.7412      0.99696119
   1604000  -1259.3458      218.51685     -1477.8627      287.48186      272.4332       3840.7412      0.99696119
   1605000  -1238.2945      233.67793     -1471.9725      307.42786     -1328.9828      3840.7412      0.99696119
   1606000  -1250.2512      236.30558     -1486.5568      310.8848      -1631.0774      3840.7412      0.99696119
   1607000  -1229.7339      235.78835     -1465.5223      310.20434      1769.9998      3840.7412      0.99696119
   1608000  -1293.6677      229.49153     -1523.1593      301.9202      -1157.8749      3840.7412      0.99696119
   1609000  -1274.2678      215.42603     -1489.6939      283.41556      306.59002      3840.7412      0.99696119
   1610000  -1265.5712      221.96904     -1487.5402      292.02359     -132.16523      3840.7412      0.99696119
   1611000  -1283.189       215.31014     -1498.4991      283.2631       1204.3174      3840.7412      0.99696119
   1612000  -1292.6176      201.10125     -1493.7188      264.5698      -1101.9748      3840.7412      0.99696119
   1613000  -1273.1328      217.2759      -1490.4087      285.84927     -566.05998      3840.7412      0.99696119
   1614000  -1276.1697      229.05471     -1505.2244      301.34553      260.71532      3840.7412      0.99696119
   1615000  -1240.7183      236.35485     -1477.0732      310.94962      287.91047      3840.7412      0.99696119
   1616000  -1246.4809      237.67319     -1484.1541      312.68404      806.65221      3840.7412      0.99696119
   1617000  -1262.1019      223.89399     -1485.9959      294.55605      448.67175      3840.7412      0.99696119
   1618000  -1298.1802      225.42873     -1523.609       296.57517      458.65756      3840.7412      0.99696119
   1619000  -1273.8029      231.52946     -1505.3324      304.60132      732.62388      3840.7412      0.99696119
   1620000  -1291.9731      198.54427     -1490.5174      261.20584     -678.94854      3840.7412      0.99696119
   1621000  -1263.1119      233.01991     -1496.1318      306.56216      466.91739      3840.7412      0.99696119
   1622000  -1268.7008      246.90006     -1515.6009      324.82296      231.54732      3840.7412      0.99696119
   1623000  -1260.9699      231.29642     -1492.2663      304.29473      1980.6006      3840.7412      0.99696119
   1624000  -1277.7394      216.0667      -1493.8061      284.25843      668.5193       3840.7412      0.99696119
   1625000  -1242.0247      217.17064     -1459.1953      285.71079      20.68587       3840.7412      0.99696119
   1626000  -1308.1571      212.56566     -1520.7228      279.65245      1005.1468      3840.7412      0.99696119
   1627000  -1269.1717      228.56348     -1497.7352      300.69926     -762.85582      3840.7412      0.99696119
   1628000  -1266.6129      224.84075     -1491.4537      295.80161      1087.4628      3840.7412      0.99696119
   1629000  -1257.5674      235.69913     -1493.2665      310.08695     -1015.6536      3840.7412      0.99696119
   1630000  -1264.8661      232.14983     -1497.016       305.41748      252.93909      3840.7412      0.99696119
   1631000  -1277.1567      221.2223      -1498.379       291.04117     -980.02598      3840.7412      0.99696119
   1632000  -1272.8218      221.45646     -1494.2783      291.34923     -1798.2179      3840.7412      0.99696119
   1633000  -1236.0052      237.4722      -1473.4774      312.41961      2057.7837      3840.7412      0.99696119
   1634000  -1244.4606      231.62806     -1476.0886      304.73104      171.26821      3840.7412      0.99696119
   1635000  -1254.7234      222.89198     -1477.6154      293.23781      361.46911      3840.7412      0.99696119
   1636000  -1287.9649      224.76605     -1512.7309      295.70333      786.67465      3840.7412      0.99696119
   1637000  -1270.1427      218.51773     -1488.6605      287.48302      1283.2446      3840.7412      0.99696119
   1638000  -1282.2998      222.534       -1504.8338      292.76685      169.27286      3840.7412      0.99696119
   1639000  -1280.5043      227.55073     -1508.055       299.36689     -1192.4177      3840.7412      0.99696119
   1640000  -1239.1214      251.14444     -1490.2658      330.40688      871.52923      3840.7412      0.99696119
   1641000  -1246.1302      232.59633     -1478.7266      306.0049      -97.615971      3840.7412      0.99696119
   1642000  -1256.1113      210.75026     -1466.8616      277.2641       564.19736      3840.7412      0.99696119
   1643000  -1288.7816      223.13908     -1511.9207      293.56289      337.57023      3840.7412      0.99696119
   1644000  -1263.6145      247.9014      -1511.5159      326.14032     -243.4918       3840.7412      0.99696119
   1645000  -1233.6842      238.88504     -1472.5693      314.27836     -908.52288      3840.7412      0.99696119
   1646000  -1250.8766      222.75226     -1473.6288      293.05399     -2522.6771      3840.7412      0.99696119
   1647000  -1253.9652      217.82363     -1471.7888      286.56986     -2052.3579      3840.7412      0.99696119
   1648000  -1248.3634      222.25159     -1470.615       292.39531     -630.33272      3840.7412      0.99696119
   1649000  -1247.1074      224.89608     -1472.0035      295.87441      1297.2987      3840.7412      0.99696119
   1650000  -1302.1837      226.89602     -1529.0797      298.50555     -929.496        3840.7412      0.99696119
   1651000  -1314.4615      214.04687     -1528.5084      281.60113     -293.52011      3840.7412      0.99696119
   1652000  -1286.6163      218.43288     -1505.0492      287.37139     -1086.7407      3840.7412      0.99696119
   1653000  -1225.9909      221.37054     -1447.3614      291.23619      1648.149       3840.7412      0.99696119
   1654000  -1280.463       228.40501     -1508.868       300.49078     -1700.3671      3840.7412      0.99696119
   1655000  -1264.7412      235.96547     -1500.7067      310.43735     -430.65507      3840.7412      0.99696119
   1656000  -1280.9059      225.98722     -1506.8931      297.30992      1180.5085      3840.7412      0.99696119
   1657000  -1266.8788      242.1403      -1509.0191      318.56099     -292.642        3840.7412      0.99696119
   1658000  -1242.3712      242.87186     -1485.2431      319.52343     -408.17494      3840.7412      0.99696119
   1659000  -1255.2409      229.76038     -1485.0013      302.27391      2132.1107      3840.7412      0.99696119
   1660000  -1249.7693      229.43433     -1479.2036      301.84495      93.253174      3840.7412      0.99696119
   1661000  -1290.5166      215.62753     -1506.1441      283.68066     -1001.3227      3840.7412      0.99696119
   1662000  -1231.1119      229.21133     -1460.3233      301.55157      852.65597      3840.7412      0.99696119
   1663000  -1254.3715      226.29431     -1480.6659      297.71393     -176.23306      3840.7412      0.99696119
   1664000  -1245.6399      223.23924     -1468.8791      293.69466      698.45089      3840.7412      0.99696119
   1665000  -1272.6535      214.43032     -1487.0838      282.10561      1513.5045      3840.7412      0.99696119
   1666000  -1278.3806      236.20335     -1514.5839      310.75031     -636.3678       3840.7412      0.99696119
   1667000  -1245.9663      253.96682     -1499.9331      334.12002     -85.579596      3840.7412      0.99696119
   1668000  -1288.3543      212.1096      -1500.4639      279.05246     -1832.4007      3840.7412      0.99696119
   1669000  -1288.9315      218.8507      -1507.7822      287.92107     -1053.9992      3840.7412      0.99696119
   1670000  -1283.5308      229.33096     -1512.8618      301.70897      210.93234      3840.7412      0.99696119
   1671000  -1290.0977      233.37939     -1523.4771      307.0351      -203.91428      3840.7412      0.99696119
   1672000  -1268.8194      244.14604     -1512.9655      321.19975      424.37847      3840.7412      0.99696119
   1673000  -1292.8947      212.68119     -1505.5759      279.80444      595.37719      3840.7412      0.99696119
   1674000  -1293.5058      206.63685     -1500.1427      271.85248     -344.31545      3840.7412      0.99696119
   1675000  -1234.955       244.09676     -1479.0517      321.13491      2569.734       3840.7412      0.99696119
   1676000  -1274.2286      233.59205     -1507.8206      307.31487      856.42293      3840.7412      0.99696119
   1677000  -1243.8871      234.98972     -1478.8768      309.15365      996.64554      3840.7412      0.99696119
   1678000  -1285.5321      221.47753     -1507.0096      291.37694     -281.28804      3840.7412      0.99696119
   1679000  -1228.5178      238.94401     -1467.4618      314.35594     -478.50131      3840.7412      0.99696119
   1680000  -1262.0564      222.63332     -1484.6898      292.89751      1678.9919      3840.7412      0.99696119
   1681000  -1271.4941      214.23156     -1485.7257      281.84412      422.20639      3840.7412      0.99696119
   1682000  -1216.8836      221.95664     -1438.8402      292.00727      2400.7709      3840.7412      0.99696119
   1683000  -1249.5916      230.89015     -1480.4818      303.76024      199.97282      3840.7412      0.99696119
   1684000  -1296.8256      233.06804     -1529.8937      306.62548     -1160.037       3840.7412      0.99696119
   1685000  -1276.9527      209.02169     -1485.9744      274.98999     -68.14616       3840.7412      0.99696119
   1686000  -1258.6353      221.4426      -1480.0779      291.331        275.60004      3840.7412      0.99696119
   1687000  -1269.5915      210.24074     -1479.8322      276.59377     -209.30486      3840.7412      0.99696119
   1688000  -1238.2066      227.55403     -1465.7607      299.37123      1276.4557      3840.7412      0.99696119
   1689000  -1275.044       236.63614     -1511.6801      311.31969     -2401.6526      3840.7412      0.99696119
   1690000  -1247.299       219.80974     -1467.1088      289.1828       203.80034      3840.7412      0.99696119
   1691000  -1299.4555      213.32475     -1512.7802      280.65112     -1124.4542      3840.7412      0.99696119
   1692000  -1272.2167      216.12383     -1488.3405      284.33359      1615.5831      3840.7412      0.99696119
   1693000  -1259.5239      230.85034     -1490.3742      303.70786      813.49531      3840.7412      0.99696119
   1694000  -1252.3985      227.72481     -1480.1233      299.5959       271.83733      3840.7412      0.99696119
   1695000  -1244.1108      207.94301     -1452.0539      273.57086      1016.9984      3840.7412      0.99696119
   1696000  -1279.4035      233.15417     -1512.5577      306.73879      2464.4589      3840.7412      0.99696119
   1697000  -1311.8639      214.04234     -1525.9062      281.59517      263.99244      3840.7412      0.99696119
   1698000  -1288.0574      211.41635     -1499.4738      278.14041      98.786012      3840.7412      0.99696119
   1699000  -1258.1211      214.46845     -1472.5895      282.15576      1640.7607      3840.7412      0.99696119
   1700000  -1250.6611      237.04163     -1487.7027      311.85315     -832.53529      3840.7412      0.99696119
   1701000  -1278.656       223.59137     -1502.2474      294.15793      2343.8861      3840.7412      0.99696119
   1702000  -1238.386       234.85723     -1473.2432      308.97935      567.03274      3840.7412      0.99696119
   1703000  -1263.8734      219.66729     -1483.5407      288.99538      1597.8663      3840.7412      0.99696119
   1704000  -1251.6274      216.95559     -1468.583       285.42787      813.9847       3840.7412      0.99696119
   1705000  -1273.4422      215.55054     -1488.9928      283.57937      147.80757      3840.7412      0.99696119
   1706000  -1242.6269      222.86136     -1465.4883      293.19753      378.41722      3840.7412      0.99696119
   1707000  -1286.9438      209.49736     -1496.4412      275.61578      254.03615      3840.7412      0.99696119
   1708000  -1259.8047      217.90193     -1477.7066      286.67287      1839.5348      3840.7412      0.99696119
   1709000  -1278.2528      220.60287     -1498.8556      290.22624      2485.3364      3840.7412      0.99696119
   1710000  -1290.3365      223.33782     -1513.6743      293.82435      199.50848      3840.7412      0.99696119
   1711000  -1297.5236      224.03147     -1521.5551      294.73692     -600.51144      3840.7412      0.99696119
   1712000  -1269.3148      224.77324     -1494.0881      295.7128      -112.98637      3840.7412      0.99696119
   1713000  -1303.5799      207.69351     -1511.2734      273.24262      1714.7186      3840.7412      0.99696119
   1714000  -1233.1702      237.89632     -1471.0665      312.97759      1022.0014      3840.7412      0.99696119
   1715000  -1271.9579      207.92984     -1479.8878      273.55354      1995.3052      3840.7412      0.99696119
   1716000  -1283.1686      238.51933     -1521.6879      313.79722      2817.5353      3840.7412      0.99696119
   1717000  -1275.0567      233.27976     -1508.3365      306.90402      2375.641       3840.7412      0.99696119
   1718000  -1213.2881      229.54425     -1442.8323      301.98956      3412.5064      3840.7412      0.99696119
   1719000  -1246.8927      231.30318     -1478.1959      304.30362      1319.502       3840.7412      0.99696119
   1720000  -1268.1799      219.13639     -1487.3163      288.29693      88.283571      3840.7412      0.99696119
   1721000  -1275.5721      214.72081     -1490.2929      282.48778     -261.85802      3840.7412      0.99696119
   1722000  -1239.2483      257.46292     -1496.7112      338.7195      -1253.9236      3840.7412      0.99696119
   1723000  -1265.6828      216.99946     -1482.6822      285.48558      965.28496      3840.7412      0.99696119
   1724000  -1294.5316      210.61344     -1505.145       277.08409      455.1666       3840.7412      0.99696119
   1725000  -1288.9483      226.07789     -1515.0262      297.4292       394.52712      3840.7412      0.99696119
   1726000  -1272.9948      222.70921     -1495.704       292.99735      500.12707      3840.7412      0.99696119
   1727000  -1254.1124      236.20721     -1490.3196      310.75539     -588.85612      3840.7412      0.99696119
   1728000  -1240.0424      251.20948     -1491.2518      330.49245      752.51368      3840.7412      0.99696119
   1729000  -1277.9728      222.62656     -1500.5994      292.88861     -540.65645      3840.7412      0.99696119
   1730000  -1313.9579      206.1571      -1520.115       271.22131      159.49516      3840.7412      0.99696119
   1731000  -1256.1567      234.01726     -1490.174       307.87428     -52.899052      3840.7412      0.99696119
   1732000  -1295.5528      206.9229      -1502.4757      272.22881     -1510.4209      3840.7412      0.99696119
   1733000  -1264.7153      221.29465     -1486.0099      291.13634     -1022.5578      3840.7412      0.99696119
   1734000  -1269.9165      217.52191     -1487.4384      286.17291      595.56997      3840.7412      0.99696119
   1735000  -1292.1975      209.47188     -1501.6693      275.58226      350.32512      3840.7412      0.99696119
   1736000  -1247.6579      239.35917     -1487.0171      314.90212     -515.62246      3840.7412      0.99696119
   1737000  -1276.2222      235.16883     -1511.391       309.38929     -1131.4875      3840.7412      0.99696119
   1738000  -1260.4416      236.75385     -1497.1954      311.47455     -1239.5899      3840.7412      0.99696119
   1739000  -1267.8133      229.33126     -1497.1446      301.70935      748.04397      3840.7412      0.99696119
   1740000  -1284.5419      213.43176     -1497.9737      280.79189      980.11463      3840.7412      0.99696119
   1741000  -1258.2016      229.85358     -1488.0551      302.39652     -1079.5118      3840.7412      0.99696119
   1742000  -1239.3977      238.10299     -1477.5007      313.24949      1003.1354      3840.7412      0.99696119
   1743000  -1260.6645      237.27279     -1497.9373      312.15727      804.35743      3840.7412      0.99696119
   1744000  -1260.5382      241.50094     -1502.0391      317.71985     -534.69462      3840.7412      0.99696119
   1745000  -1244.152       235.26737     -1479.4194      309.51893      486.09331      3840.7412      0.99696119
   1746000  -1270.4484      214.95142     -1485.3998      282.79117      543.23945      3840.7412      0.99696119
   1747000  -1255.4713      226.54661     -1482.0179      298.04585      1529.6215      3840.7412      0.99696119
   1748000  -1265.4086      234.62393     -1500.0325      308.67242     -551.21556      3840.7412      0.99696119
   1749000  -1313.604       215.88131     -1529.4853      284.01453      626.25334      3840.7412      0.99696119
   1750000  -1295.0242      212.75272     -1507.7769      279.89854      871.89556      3840.7412      0.99696119
   1751000  -1244.3705      229.15478     -1473.5253      301.47718      272.65217      3840.7412      0.99696119
   1752000  -1257.8105      226.11664     -1483.9272      297.48019      1846.2625      3840.7412      0.99696119
   1753000  -1245.3378      232.45055     -1477.7883      305.81311     -628.3693       3840.7412      0.99696119
   1754000  -1280.7417      194.67904     -1475.4208      256.12071      1036.0076      3840.7412      0.99696119
   1755000  -1261.5934      222.413       -1484.0064      292.60765      333.31554      3840.7412      0.99696119
   1756000  -1280.8673      226.27354     -1507.1409      297.6866       987.50096      3840.7412      0.99696119
   1757000  -1284.0979      217.56166     -1501.6595      286.22521     -1438.7459      3840.7412      0.99696119
   1758000  -1280.0808      230.82273     -1510.9035      303.67155     -7.7262219      3840.7412      0.99696119
   1759000  -1292.1299      215.72273     -1507.8526      283.8059      -504.17457      3840.7412      0.99696119
   1760000  -1268.318       233.58897     -1501.9069      307.31081     -283.55219      3840.7412      0.99696119
   1761000  -1265.3933      234.48964     -1499.8829      308.49574      1107.5522      3840.7412      0.99696119
   1762000  -1244.2824      233.9185      -1478.2009      307.74434      1285.9521      3840.7412      0.99696119
   1763000  -1280.0143      239.53842     -1519.5527      315.13795      629.71343      3840.7412      0.99696119
   1764000  -1273.0317      241.2373      -1514.269       317.373       -94.901164      3840.7412      0.99696119
   1765000  -1274.3134      206.37676     -1480.6901      271.5103      -200.58926      3840.7412      0.99696119
   1766000  -1245.5608      214.61383     -1460.1746      282.34702     -58.040205      3840.7412      0.99696119
   1767000  -1245.4459      226.42785     -1471.8738      297.88961      2907.5095      3840.7412      0.99696119
   1768000  -1270.8582      217.83271     -1488.6909      286.58181      309.85426      3840.7412      0.99696119
   1769000  -1248.4121      224.85757     -1473.2697      295.82374     -1275.6472      3840.7412      0.99696119
   1770000  -1270.849       226.31961     -1497.1686      297.74721     -660.16158      3840.7412      0.99696119
   1771000  -1256.2903      244.08635     -1500.3766      321.12122     -127.13358      3840.7412      0.99696119
   1772000  -1299.1776      223.68865     -1522.8663      294.28591      191.37274      3840.7412      0.99696119
   1773000  -1254.8333      221.89299     -1476.7263      291.92353     -671.55352      3840.7412      0.99696119
   1774000  -1288.4113      227.37587     -1515.7872      299.13683     -1077.2586      3840.7412      0.99696119
   1775000  -1227.8027      233.76516     -1461.5678      307.54261      846.85218      3840.7412      0.99696119
   1776000  -1273.327       231.21994     -1504.5469      304.19412     -268.7754       3840.7412      0.99696119
   1777000  -1235.7984      238.5612      -1474.3596      313.85231      1244.2484      3840.7412      0.99696119
   1778000  -1261.4462      217.70041     -1479.1466      286.40775      1082.8584      3840.7412      0.99696119
   1779000  -1269.6385      212.58608     -1482.2246      279.67931      381.03768      3840.7412      0.99696119
   1780000  -1294.6417      227.34992     -1521.9916      299.1027      -359.69632      3840.7412      0.99696119
   1781000  -1233.9075      230.73353     -1464.6411      303.55419      2238.3625      3840.7412      0.99696119
   1782000  -1248.8077      214.20128     -1463.009       281.80428      1898.5978      3840.7412      0.99696119
   1783000  -1251.3783      207.97792     -1459.3562      273.61679      1212.5         3840.7412      0.99696119
   1784000  -1280.5971      209.94005     -1490.5371      276.19818     -720.00585      3840.7412      0.99696119
   1785000  -1228.9364      238.82539     -1467.7617      314.19988     -59.199523      3840.7412      0.99696119
   1786000  -1273.9096      220.9188      -1494.8284      290.64187     -898.34339      3840.7412      0.99696119
   1787000  -1274.0242      242.95625     -1516.9804      319.63445     -9.7455664      3840.7412      0.99696119
   1788000  -1325.9879      209.20378     -1535.1916      275.22954      1135.2658      3840.7412      0.99696119
   1789000  -1279.1736      224.3859      -1503.5595      295.20322      120.60275      3840.7412      0.99696119
   1790000  -1237.7383      241.49364     -1479.2319      317.71024     -117.33824      3840.7412      0.99696119
   1791000  -1238.0476      241.4439      -1479.4915      317.6448      -160.16733      3840.7412      0.99696119
   1792000  -1266.7202      235.65597     -1502.3762      310.03017      3022.8203      3840.7412      0.99696119
   1793000  -1305.6688      223.2238      -1528.8926      293.67435     -60.917735      3840.7412      0.99696119
   1794000  -1264.745       233.87134     -1498.6163      307.68231     -1688.4211      3840.7412      0.99696119
   1795000  -1240.5562      231.85765     -1472.4138      305.03309     -1202.9039      3840.7412      0.99696119
   1796000  -1272.2064      236.48693     -1508.6933      311.12339     -946.55503      3840.7412      0.99696119
   1797000  -1292.6279      207.49801     -1500.1259      272.98543     -2095.9426      3840.7412      0.99696119
   1798000  -1259.3269      232.87283     -1492.1998      306.36866     -424.91955      3840.7412      0.99696119
   1799000  -1251.0609      233.88694     -1484.9479      307.70283      894.60138      3840.7412      0.99696119
   1800000  -1243.6432      227.47668     -1471.1199      299.26947     -1739.4308      3840.7412      0.99696119
   1801000  -1269.5331      213.98006     -1483.5131      281.51324     -753.83441      3840.7412      0.99696119
   1802000  -1275.3921      234.25251     -1509.6446      308.18377      952.38893      3840.7412      0.99696119
   1803000  -1261.3269      223.45728     -1484.7842      293.98152     -658.34607      3840.7412      0.99696119
   1804000  -1273.3731      228.3493      -1501.7224      300.41748      48.761806      3840.7412      0.99696119
   1805000  -1299.2325      225.83306     -1525.0656      297.10711     -232.55076      3840.7412      0.99696119
   1806000  -1259.859       214.96902     -1474.828       282.81431      146.27115      3840.7412      0.99696119
   1807000  -1278.2174      229.57971     -1507.7971      302.03622      1355.7303      3840.7412      0.99696119
   1808000  -1268.6736      227.30284     -1495.9764      299.04076      101.97592      3840.7412      0.99696119
   1809000  -1248.6901      236.72946     -1485.4196      311.44247      961.56886      3840.7412      0.99696119
   1810000  -1278.8348      220.91036     -1499.7452      290.63077      1222.5181      3840.7412      0.99696119
   1811000  -1275.3642      235.77623     -1511.1404      310.18839      394.81064      3840.7412      0.99696119
   1812000  -1247.6041      229.64883     -1477.253       302.12715      731.27725      3840.7412      0.99696119
   1813000  -1260.0108      229.74923     -1489.76        302.25923     -3813.1723      3840.7412      0.99696119
   1814000  -1269.5534      229.52491     -1499.0783      301.96412      1193.9033      3840.7412      0.99696119
   1815000  -1273.8846      207.59949     -1481.4841      273.11893      828.58115      3840.7412      0.99696119
   1816000  -1275.3602      217.19156     -1492.5517      285.73831     -1598.1835      3840.7412      0.99696119
   1817000  -1271.8812      227.93048     -1499.8117      299.86649      722.10714      3840.7412      0.99696119
   1818000  -1260.4354      218.33792     -1478.7733      287.24646      2187.3485      3840.7412      0.99696119
   1819000  -1261.1588      212.22029     -1473.3791      279.19807      1818.1361      3840.7412      0.99696119
   1820000  -1253.2622      246.54846     -1499.8107      324.36039     -879.30374      3840.7412      0.99696119
   1821000  -1309.6245      219.97761     -1529.6021      289.40365     -461.09109      3840.7412      0.99696119
   1822000  -1267.8264      219.38596     -1487.2124      288.62527     -854.86731      3840.7412      0.99696119
   1823000  -1251.6435      224.92639     -1476.5699      295.91429      161.42437      3840.7412      0.99696119
   1824000  -1263.12        224.27167     -1487.3916      295.05293      1575.8182      3840.7412      0.99696119
   1825000  -1281.6446      233.13279     -1514.7774      306.71066      4.5800125      3840.7412      0.99696119
   1826000  -1274.5678      217.8968      -1492.4646      286.66612      284.29674      3840.7412      0.99696119
   1827000  -1299.7004      207.97869     -1507.6791      273.6178       1262.7026      3840.7412      0.99696119
   1828000  -1300.6293      234.00897     -1534.6383      307.86338     -1008.6086      3840.7412      0.99696119
   1829000  -1267.5682      232.38971     -1499.9579      305.73307      2446.0625      3840.7412      0.99696119
   1830000  -1283.9854      223.14811     -1507.1335      293.57477      139.91851      3840.7412      0.99696119
   1831000  -1250.0017      229.88207     -1479.8837      302.434        1346.4605      3840.7412      0.99696119
   1832000  -1295.5109      225.66803     -1521.1789      296.88999     -2038.3873      3840.7412      0.99696119
   1833000  -1304.0145      207.11277     -1511.1273      272.4786      -19.838722      3840.7412      0.99696119
   1834000  -1270.3787      242.56016     -1512.9389      319.11336      793.242        3840.7412      0.99696119
   1835000  -1256.7697      230.88793     -1487.6576      303.75732     -307.25204      3840.7412      0.99696119
   1836000  -1271.595       220.53729     -1492.1323      290.13996      1445.4585      3840.7412      0.99696119
   1837000  -1270.1109      216.95331     -1487.0642      285.42486      30.841797      3840.7412      0.99696119
   1838000  -1247.3325      225.77846     -1473.111       297.03527      224.52439      3840.7412      0.99696119
   1839000  -1250.8058      211.93471     -1462.7405      278.82236      162.05113      3840.7412      0.99696119
   1840000  -1247.8801      256.69018     -1504.5702      337.70289      342.05872      3840.7412      0.99696119
   1841000  -1264.3892      216.87283     -1481.2621      285.31898     -821.08782      3840.7412      0.99696119
   1842000  -1243.4878      233.91955     -1477.4073      307.74573     -1726.1663      3840.7412      0.99696119
   1843000  -1279.101       225.57814     -1504.6792      296.77174      981.13068      3840.7412      0.99696119
   1844000  -1239.6707      221.94631     -1461.617       291.99368      379.92811      3840.7412      0.99696119
   1845000  -1264.5275      217.17868     -1481.7062      285.72136      2474.3217      3840.7412      0.99696119
   1846000  -1287.9928      212.35528     -1500.348       279.37567     -614.0274       3840.7412      0.99696119
   1847000  -1248.4447      246.47856     -1494.9233      324.26843      371.3353       3840.7412      0.99696119
   1848000  -1287.6306      212.65477     -1500.2854      279.76968      503.35263      3840.7412      0.99696119
   1849000  -1302.6686      205.20834     -1507.877       269.97311      1219.7162      3840.7412      0.99696119
   1850000  -1237.8199      253.44911     -1491.269       333.43891      1041.4926      3840.7412      0.99696119
   1851000  -1281.6608      213.71365     -1495.3744      281.16275      514.46838      3840.7412      0.99696119
   1852000  -1283.7438      221.92006     -1505.6638      291.95914      1319.6716      3840.7412      0.99696119
   1853000  -1260.574       224.53788     -1485.1119      295.40317      1018.2238      3840.7412      0.99696119
   1854000  -1298.0496      209.69574     -1507.7453      275.87676     -1127.5701      3840.7412      0.99696119
   1855000  -1246.2602      223.22645     -1469.4866      293.67784      2181.3954      3840.7412      0.99696119
   1856000  -1281.8654      226.72256     -1508.588       298.27733      706.28978      3840.7412      0.99696119
   1857000  -1274.9312      237.2776      -1512.2088      312.1636       211.49972      3840.7412      0.99696119
   1858000  -1268.6587      237.64557     -1506.3043      312.6477       762.86101      3840.7412      0.99696119
   1859000  -1261.8297      234.77742     -1496.6071      308.87434     -419.28023      3840.7412      0.99696119
   1860000  -1286.8203      233.52104     -1520.3413      307.22144      1043.9226      3840.7412      0.99696119
   1861000  -1283.013       229.91342     -1512.9264      302.47524     -150.06586      3840.7412      0.99696119
   1862000  -1264.8357      246.19335     -1511.0291      323.89321      1250.7104      3840.7412      0.99696119
   1863000  -1312.4079      217.47335     -1529.8813      286.10903      1654.9802      3840.7412      0.99696119
   1864000  -1293.313       227.00458     -1520.3176      298.64836      1922.2846      3840.7412      0.99696119
   1865000  -1267.0989      245.33235     -1512.4313      322.76046      833.24873      3840.7412      0.99696119
   1866000  -1289.3242      209.00021     -1498.3244      274.96173      1301.9815      3840.7412      0.99696119
   1867000  -1258.9861      240.06643     -1499.0525      315.83259     -1954.0828      3840.7412      0.99696119
   1868000  -1291.6159      229.07294     -1520.6888      301.3695       410.4151       3840.7412      0.99696119
   1869000  -1288.2036      198.1126      -1486.3162      260.63793     -1186.5356      3840.7412      0.99696119
   1870000  -1260.8216      207.73934     -1468.561       273.30291     -199.25207      3840.7412      0.99696119
   1871000  -1244.619       220.59855     -1465.2176      290.22055     -21.624859      3840.7412      0.99696119
   1872000  -1248.014       241.52223     -1489.5362      317.74785     -1132.3287      3840.7412      0.99696119
   1873000  -1209.7727      236.45229     -1446.225       311.07781      367.86555      3840.7412      0.99696119
   1874000  -1299.568       221.2354      -1520.8034      291.0584       22.013807      3840.7412      0.99696119
   1875000  -1259.1615      212.95631     -1472.1178      280.16639      262.15068      3840.7412      0.99696119
   1876000  -1274.6843      208.61896     -1483.3032      274.46014      521.49247      3840.7412      0.99696119
   1877000  -1248.8693      225.203       -1474.0723      296.27819     -449.55361      3840.7412      0.99696119
   1878000  -1288.7791      227.57642     -1516.3555      299.40067     -326.07848      3840.7412      0.99696119
   1879000  -1238.3618      230.48573     -1468.8475      303.22818      1704.5038      3840.7412      0.99696119
   1880000  -1250.0538      237.29297     -1487.3468      312.18382      2070.9697      3840.7412      0.99696119
   1881000  -1250.9033      221.94556     -1472.8488      291.99269     -352.72351      3840.7412      0.99696119
   1882000  -1354.7314      189.30757     -1544.039       249.05398     -2985.8726      3840.7412      0.99696119
   1883000  -1269.0418      228.22537     -1497.2671      300.25444     -354.13858      3840.7412      0.99696119
   1884000  -1267.3414      216.78109     -1484.1224      285.19829     -898.36276      3840.7412      0.99696119
   1885000  -1307.5214      212.80633     -1520.3277      279.96908      1154.5969      3840.7412      0.99696119
   1886000  -1296.514       210.04866     -1506.5626      276.34107     -842.01566      3840.7412      0.99696119
   1887000  -1289.4299      224.19664     -1513.6265      294.95422      835.05053      3840.7412      0.99696119
   1888000  -1236.3208      234.2049      -1470.5257      308.12114     -1157.7808      3840.7412      0.99696119
   1889000  -1231.1133      221.97836     -1453.0917      292.03584      1164.9847      3840.7412      0.99696119
   1890000  -1258.4167      229.55661     -1487.9733      302.00583      1156.8242      3840.7412      0.99696119
   1891000  -1236.1688      229.26531     -1465.4341      301.62259     -698.65534      3840.7412      0.99696119
   1892000  -1254.273       236.84511     -1491.1181      311.59462     -1613.9079      3840.7412      0.99696119
   1893000  -1263.4468      219.35862     -1482.8054      288.58929     -160.13186      3840.7412      0.99696119
   1894000  -1274.9634      202.09339     -1477.0568      265.87508      464.45747      3840.7412      0.99696119
   1895000  -1227.3508      225.88686     -1453.2376      297.17788      147.39789      3840.7412      0.99696119
   1896000  -1272.933       222.31264     -1495.2457      292.47563     -135.84308      3840.7412      0.99696119
   1897000  -1248.8536      217.31273     -1466.1664      285.89771     -692.39037      3840.7412      0.99696119
   1898000  -1257.3854      210.40971     -1467.7951      276.81607     -307.75721      3840.7412      0.99696119
   1899000  -1260.724       201.81105     -1462.535       265.50363     -433.72944      3840.7412      0.99696119
   1900000  -1267.6335      212.31851     -1479.952       279.32729      1521.7785      3840.7412      0.99696119
   1901000  -1220.7394      245.56351     -1466.303       323.06458     -791.83478      3840.7412      0.99696119
   1902000  -1271.9266      225.78497     -1497.7115      297.04384      722.82971      3840.7412      0.99696119
   1903000  -1241.8833      231.7534      -1473.6367      304.89593      603.01347      3840.7412      0.99696119
   1904000  -1281.8878      234.6178      -1516.5056      308.66436      680.33242      3840.7412      0.99696119
   1905000  -1289.2373      216.01926     -1505.2566      284.19602     -1224.34        3840.7412      0.99696119
   1906000  -1290.8903      222.08649     -1512.9768      292.1781      -1138.9873      3840.7412      0.99696119
   1907000  -1258.8198      230.49619     -1489.316       303.24194     -50.443822      3840.7412      0.99696119
   1908000  -1229.1823      213.77493     -1442.9572      281.24337      1036.1524      3840.7412      0.99696119
   1909000  -1236.3185      256.32936     -1492.6479      337.22819     -611.66896      3840.7412      0.99696119
   1910000  -1253.3326      232.90124     -1486.2339      306.40603     -585.64311      3840.7412      0.99696119
   1911000  -1238.4756      245.81745     -1484.2931      323.39867     -990.63419      3840.7412      0.99696119
   1912000  -1222.2329      245.28446     -1467.5173      322.69747     -785.1408       3840.7412      0.99696119
   1913000  -1265.9518      215.51586     -1481.4677      283.53375     -811.18452      3840.7412      0.99696119
   1914000  -1229.534       236.21029     -1465.7443      310.75944     -773.91038      3840.7412      0.99696119
   1915000  -1251.9226      223.8678      -1475.7904      294.5216      -251.30984      3840.7412      0.99696119
   1916000  -1268.2393      217.19388     -1485.4332      285.74135      46.879522      3840.7412      0.99696119
   1917000  -1256.3935      245.06588     -1501.4594      322.4099      -1523.4302      3840.7412      0.99696119
   1918000  -1290.2326      220.32148     -1510.5541      289.85604     -964.64713      3840.7412      0.99696119
   1919000  -1251.8972      232.66876     -1484.566       306.10019      418.76675      3840.7412      0.99696119
   1920000  -1266.2998      241.0097      -1507.3095      317.07356     -288.94506      3840.7412      0.99696119
   1921000  -1305.2344      211.79028     -1517.0247      278.63235      1635.5495      3840.7412      0.99696119
   1922000  -1236.6632      237.19384     -1473.8571      312.0534       1189.984       3840.7412      0.99696119
   1923000  -1270.4476      225.26418     -1495.7118      296.35868     -856.3965       3840.7412      0.99696119
   1924000  -1263.6766      215.33481     -1479.0114      283.29556      661.61524      3840.7412      0.99696119
   1925000  -1261.189       234.68092     -1495.8699      308.74739     -1161.6062      3840.7412      0.99696119
   1926000  -1263.9078      213.5384      -1477.4463      280.93219     -1127.039       3840.7412      0.99696119
   1927000  -1274.6386      235.22247     -1509.861       309.45986     -703.20252      3840.7412      0.99696119
   1928000  -1248.9263      261.83457     -1510.7609      344.47087     -6.6633105      3840.7412      0.99696119
   1929000  -1274.1195      243.34948     -1517.4689      320.15179     -516.84484      3840.7412      0.99696119
   1930000  -1304.9643      218.8798      -1523.8441      287.95936      528.4986       3840.7412      0.99696119
   1931000  -1281.9925      226.94048     -1508.933       298.56404      1198.5679      3840.7412      0.99696119
   1932000  -1256.4075      224.43929     -1480.8468      295.27345     -802.14306      3840.7412      0.99696119
   1933000  -1287.9713      212.40129     -1500.3726      279.4362       367.55527      3840.7412      0.99696119
   1934000  -1271.5043      243.59246     -1515.0968      320.47146      460.99561      3840.7412      0.99696119
   1935000  -1246.4585      245.11538     -1491.5738      322.47502      1071.4153      3840.7412      0.99696119
   1936000  -1288.1279      231.55366     -1519.6816      304.63316      583.90202      3840.7412      0.99696119
   1937000  -1279.1659      219.13185     -1498.2977      288.29096      1579.4491      3840.7412      0.99696119
   1938000  -1240.3367      231.14743     -1471.4841      304.09872      167.00581      3840.7412      0.99696119
   1939000  -1283.6215      220.7544      -1504.3759      290.4256      -8.8817813      3840.7412      0.99696119
   1940000  -1255.6035      228.05124     -1483.6548      300.02536      1136.4381      3840.7412      0.99696119
   1941000  -1272.7201      202.35118     -1475.0713      266.21423     -699.74582      3840.7412      0.99696119
   1942000  -1266.8457      225.77217     -1492.6178      297.027        305.79424      3840.7412      0.99696119
   1943000  -1242.3744      231.91475     -1474.2892      305.10821     -1124.6456      3840.7412      0.99696119
   1944000  -1266.4417      229.34527     -1495.787       301.72779      947.33002      3840.7412      0.99696119
   1945000  -1291.1166      217.11827     -1508.2349      285.64188     -1197.6206      3840.7412      0.99696119
   1946000  -1285.3774      226.37304     -1511.7504      297.81751     -384.15867      3840.7412      0.99696119
   1947000  -1280.6353      242.28695     -1522.9223      318.75393      1070.4713      3840.7412      0.99696119
   1948000  -1247.8293      237.37615     -1485.2054      312.29325     -348.6762       3840.7412      0.99696119
   1949000  -1273.2195      209.03801     -1482.2575      275.01146     -95.467238      3840.7412      0.99696119
   1950000  -1275.8241      224.23586     -1500.06        295.00582      1495.166       3840.7412      0.99696119
   1951000  -1259.4516      219.01175     -1478.4633      288.13296     -369.53539      3840.7412      0.99696119
   1952000  -1285.5625      212.49272     -1498.0552      279.55648      384.46231      3840.7412      0.99696119
   1953000  -1258.8878      242.43797     -1501.3258      318.95261     -1370.5625      3840.7412      0.99696119
   1954000  -1234.5192      237.06016     -1471.5793      311.87754      690.36145      3840.7412      0.99696119
   1955000  -1259.1209      242.93507     -1502.0559      319.60659     -297.04517      3840.7412      0.99696119
   1956000  -1258.2796      222.01151     -1480.2911      292.07945     -543.31657      3840.7412      0.99696119
   1957000  -1262.8417      222.82972     -1485.6714      293.1559      -212.10491      3840.7412      0.99696119
   1958000  -1267.835       212.41408     -1480.249       279.45302      1181.0224      3840.7412      0.99696119
   1959000  -1249.2879      221.86456     -1471.1524      291.88613      1706.1824      3840.7412      0.99696119
   1960000  -1249.9076      237.3141      -1487.2217      312.21162     -127.25717      3840.7412      0.99696119
   1961000  -1207.544       242.89635     -1450.4404      319.55566     -1327.3584      3840.7412      0.99696119
   1962000  -1292.1611      208.75851     -1500.9196      274.64373     -200.61757      3840.7412      0.99696119
   1963000  -1271.4202      222.38076     -1493.8009      292.56524     -926.01739      3840.7412      0.99696119
   1964000  -1274.0494      237.94002     -1511.9894      313.03508     -240.32669      3840.7412      0.99696119
   1965000  -1277.1291      229.10619     -1506.2353      301.41326     -1636.2892      3840.7412      0.99696119
   1966000  -1272.2867      219.86415     -1492.1509      289.25438     -1660.4905      3840.7412      0.99696119
   1967000  -1281.8807      232.13872     -1514.0195      305.40286      745.45822      3840.7412      0.99696119
   1968000  -1211.9241      253.11048     -1465.0346      332.99342      4011.9294      3840.7412      0.99696119
   1969000  -1254.0902      222.35796     -1476.4481      292.53524      1111.3823      3840.7412      0.99696119
   1970000  -1294.0312      232.82992     -1526.8611      306.3122      -355.22224      3840.7412      0.99696119
   1971000  -1265.4948      232.92636     -1498.4211      306.43908      1185.018       3840.7412      0.99696119
   1972000  -1238.5564      232.70102     -1471.2574      306.14263      1826.5218      3840.7412      0.99696119
   1973000  -1281.9633      216.38317     -1498.3464      284.67478      1024.3712      3840.7412      0.99696119
   1974000  -1255.9319      239.68239     -1495.6143      315.32736     -376.43852      3840.7412      0.99696119
   1975000  -1270.0925      215.09432     -1485.1868      282.97916      776.21045      3840.7412      0.99696119
   1976000  -1264.0902      244.09464     -1508.1849      321.13212     -2246.3764      3840.7412      0.99696119
   1977000  -1258.4291      237.36817     -1495.7972      312.28276     -1512.9485      3840.7412      0.99696119
   1978000  -1266.0669      222.34296     -1488.4099      292.51551     -1880.9375      3840.7412      0.99696119
   1979000  -1259.2934      221.32102     -1480.6144      291.17105      1329.4291      3840.7412      0.99696119
   1980000  -1298.193       211.12541     -1509.3184      277.75765     -1032.2172      3840.7412      0.99696119
   1981000  -1288.5264      226.88974     -1515.4162      298.49728      1268.0669      3840.7412      0.99696119
   1982000  -1257.3598      218.0391      -1475.3989      286.85333     -133.41983      3840.7412      0.99696119
   1983000  -1277.6857      234.08938     -1511.7751      307.96916      2154.081       3840.7412      0.99696119
   1984000  -1270.518       234.17904     -1504.6971      308.08712     -651.66631      3840.7412      0.99696119
   1985000  -1248.3527      239.64421     -1487.9969      315.27712      1170.1207      3840.7412      0.99696119
   1986000  -1255.2286      226.72852     -1481.9571      298.28518     -55.504285      3840.7412      0.99696119
   1987000  -1250.0789      227.78727     -1477.8662      299.67807      2500.4791      3840.7412      0.99696119
   1988000  -1237.3533      237.61981     -1474.9731      312.61382      865.8305       3840.7412      0.99696119
   1989000  -1264.8908      226.74917     -1491.6399      298.31235     -1542.8226      3840.7412      0.99696119
   1990000  -1264.322       223.52509     -1487.8471      294.07073     -185.02783      3840.7412      0.99696119
   1991000  -1274.9307      221.60685     -1496.5375      291.54708     -145.63246      3840.7412      0.99696119
   1992000  -1287.702       209.85844     -1497.5604      276.09082      270.40435      3840.7412      0.99696119
   1993000  -1296.1484      228.79492     -1524.9433      301.00374      275.80374      3840.7412      0.99696119
   1994000  -1274.902       212.46329     -1487.3653      279.51777     -721.54576      3840.7412      0.99696119
   1995000  -1241.7073      215.89227     -1457.5996      284.02896      1386.7229      3840.7412      0.99696119
   1996000  -1274.8311      203.12349     -1477.9546      267.23028      38.377794      3840.7412      0.99696119
   1997000  -1253.4653      223.36891     -1476.8342      293.86526     -266.17337      3840.7412      0.99696119
   1998000  -1262.3927      223.18137     -1485.574       293.61853     -1724.8936      3840.7412      0.99696119
   1999000  -1239.6811      234.42121     -1474.1023      308.40571     -1752.116       3840.7412      0.99696119
   2000000  -1262.8398      233.27914     -1496.1189      306.9032       2087.3203      3840.7412      0.99696119
   2001000  -1274.2468      228.61815     -1502.8649      300.77119      25.244573      3840.7412      0.99696119
   2002000  -1244.6201      232.29631     -1476.9164      305.61019      2709.8685      3840.7412      0.99696119
   2003000  -1230.1273      248.45291     -1478.5803      326.8659       259.34561      3840.7412      0.99696119
   2004000  -1251.2583      239.97337     -1491.2317      315.71017     -1582.2984      3840.7412      0.99696119
   2005000  -1303.1371      196.76822     -1499.9053      258.86925     -2376.9904      3840.7412      0.99696119
   2006000  -1277.383       210.28281     -1487.6658      276.64911      801.38178      3840.7412      0.99696119
   2007000  -1264.8044      230.82709     -1495.6315      303.67727     -1596.1007      3840.7412      0.99696119
   2008000  -1266.2552      233.05487     -1499.3101      306.60816     -306.55822      3840.7412      0.99696119
   2009000  -1296.3641      231.74608     -1528.1102      304.8863       263.73202      3840.7412      0.99696119
   2010000  -1297.2676      214.35809     -1511.6257      282.01057     -1925.6845      3840.7412      0.99696119
   2011000  -1285.7988      207.15475     -1492.9535      272.53382      176.74014      3840.7412      0.99696119
   2012000  -1271.2123      224.86576     -1496.0781      295.83452      955.54716      3840.7412      0.99696119
   2013000  -1286.3405      221.48624     -1507.8268      291.3884      -168.78079      3840.7412      0.99696119
   2014000  -1215.5537      227.54744     -1443.1011      299.36255     -545.43329      3840.7412      0.99696119
   2015000  -1256.2505      210.33469     -1466.5852      276.71737      210.36807      3840.7412      0.99696119
   2016000  -1252.2739      241.48831     -1493.7622      317.70322     -1097.1639      3840.7412      0.99696119
   2017000  -1257.5705      222.75867     -1480.3291      293.06243      1577.6446      3840.7412      0.99696119
   2018000  -1276.801       208.41307     -1485.2141      274.18928      1174.4259      3840.7412      0.99696119
   2019000  -1244.3812      239.67766     -1484.0589      315.32113      270.0496       3840.7412      0.99696119
   2020000  -1256.0387      228.77954     -1484.8183      300.98351     -33.431226      3840.7412      0.99696119
   2021000  -1284.1139      219.83879     -1503.9527      289.22101     -1134.0539      3840.7412      0.99696119
   2022000  -1245.8957      233.53731     -1479.433       307.24285     -2345.6383      3840.7412      0.99696119
   2023000  -1232.7222      226.92087     -1459.6431      298.53823      282.57962      3840.7412      0.99696119
   2024000  -1271.875       214.87083     -1486.7459      282.68514      51.366001      3840.7412      0.99696119
   2025000  -1273.1052      231.9303      -1505.0355      305.12867     -1677.1435      3840.7412      0.99696119
   2026000  -1238.2092      229.91214     -1468.1213      302.47356      167.69339      3840.7412      0.99696119
   2027000  -1262.7273      239.63268     -1502.36        315.26196     -41.035112      3840.7412      0.99696119
   2028000  -1273.6         227.16556     -1500.7655      298.86015     -2017.9949      3840.7412      0.99696119
   2029000  -1290.6091      227.11668     -1517.7258      298.79584      83.450425      3840.7412      0.99696119
   2030000  -1273.5855      212.23428     -1485.8197      279.21649     -747.01875      3840.7412      0.99696119
   2031000  -1233.586       245.75737     -1479.3434      323.31963     -736.20378      3840.7412      0.99696119
   2032000  -1274.5892      223.44109     -1498.0303      293.96022      1174.3227      3840.7412      0.99696119
   2033000  -1277.9292      220.17476     -1498.104       289.66302     -1174.4102      3840.7412      0.99696119
   2034000  -1271.9167      226.94985     -1498.8665      298.57636     -640.00635      3840.7412      0.99696119
   2035000  -1263.7516      234.07585     -1497.8275      307.95137     -390.46858      3840.7412      0.99696119
   2036000  -1259.1354      222.0364      -1481.1718      292.1122      -1598.0229      3840.7412      0.99696119
   2037000  -1254.5628      214.28505     -1468.8478      281.91448      471.59212      3840.7412      0.99696119
   2038000  -1287.7988      212.51997     -1500.3188      279.59234      672.98666      3840.7412      0.99696119
   2039000  -1258.6799      239.43987     -1498.1198      315.00829      2434.9748      3840.7412      0.99696119
   2040000  -1292.5115      224.02603     -1516.5376      294.72976      2505.9494      3840.7412      0.99696119
   2041000  -1282.7919      231.52215     -1514.314       304.5917       122.58259      3840.7412      0.99696119
   2042000  -1265.4229      231.35247     -1496.7753      304.36847     -807.31085      3840.7412      0.99696119
   2043000  -1320.2823      205.90852     -1526.1909      270.89428      822.38955      3840.7412      0.99696119
   2044000  -1273.2623      201.47038     -1474.7327      265.05544      79.652636      3840.7412      0.99696119
   2045000  -1280.433       213.29864     -1493.7316      280.61676      739.40421      3840.7412      0.99696119
   2046000  -1282.9003      219.61414     -1502.5144      288.92546      2244.3567      3840.7412      0.99696119
   2047000  -1281.1639      242.47795     -1523.6418      319.0052       1226.5281      3840.7412      0.99696119
   2048000  -1337.7665      223.46445     -1561.2309      293.99095      1156.7316      3840.7412      0.99696119
   2049000  -1291.5185      234.76851     -1526.287       308.86263     -182.55842      3840.7412      0.99696119
   2050000  -1244.5896      228.3006      -1472.8902      300.35342     -557.28213      3840.7412      0.99696119
   2051000  -1251.9489      228.39416     -1480.343       300.4765       1830.0902      3840.7412      0.99696119
   2052000  -1279.7577      220.96496     -1500.7227      290.70261      104.90749      3840.7412      0.99696119
   2053000  -1253.522       222.87221     -1476.3943      293.2118      -542.867        3840.7412      0.99696119
   2054000  -1260.8098      213.24682     -1474.0566      280.54858     -355.29722      3840.7412      0.99696119
   2055000  -1264.8873      217.87646     -1482.7638      286.63936      85.817581      3840.7412      0.99696119
   2056000  -1248.6713      222.75381     -1471.4251      293.05602      1946.6589      3840.7412      0.99696119
   2057000  -1271.2258      227.51883     -1498.7446      299.32491      353.6601       3840.7412      0.99696119
   2058000  -1253.2976      223.12927     -1476.4269      293.54999      449.55817      3840.7412      0.99696119
   2059000  -1256.1351      237.427       -1493.5621      312.36015     -222.18116      3840.7412      0.99696119
   2060000  -1272.3915      218.60182     -1490.9933      287.59365     -416.41264      3840.7412      0.99696119
   2061000  -1258.4222      247.27737     -1505.6995      325.31935     -1335.4179      3840.7412      0.99696119
   2062000  -1259.2957      207.88455     -1467.1803      273.49396     -1505.3337      3840.7412      0.99696119
   2063000  -1255.5616      216.67306     -1472.2347      285.05617      2362.1701      3840.7412      0.99696119
   2064000  -1277.1157      224.58795     -1501.7036      295.46903      1219.1541      3840.7412      0.99696119
   2065000  -1249.6637      235.00068     -1484.6643      309.16807      1284.9456      3840.7412      0.99696119
   2066000  -1243.474       243.38805     -1486.8621      320.20254      712.43836      3840.7412      0.99696119
   2067000  -1269.235       227.08206     -1496.317       298.7503       1247.8557      3840.7412      0.99696119
   2068000  -1244.0201      234.04819     -1478.0683      307.91497     -1157.5132      3840.7412      0.99696119
   2069000  -1252.396       207.83513     -1460.2312      273.42894      1912.6528      3840.7412      0.99696119
   2070000  -1297.6404      221.83375     -1519.4741      291.8456       747.52828      3840.7412      0.99696119
   2071000  -1258.0181      227.2802      -1485.2983      299.01097     -75.075934      3840.7412      0.99696119
   2072000  -1268.0076      235.83354     -1503.8411      310.26379     -2224.3429      3840.7412      0.99696119
   2073000  -1285.3052      231.07618     -1516.3814      304.00498      1347.17        3840.7412      0.99696119
   2074000  -1308.3347      225.5886      -1533.9233      296.78549     -1938.7724      3840.7412      0.99696119
   2075000  -1267.9052      220.91188     -1488.8171      290.63277     -924.99679      3840.7412      0.99696119
   2076000  -1272.851       214.04085     -1486.8918      281.59322     -33.860334      3840.7412      0.99696119
   2077000  -1260.6832      230.06417     -1490.7474      302.67358     -1565.2524      3840.7412      0.99696119
   2078000  -1215.8465      228.99753     -1444.8441      301.2703       1182.4429      3840.7412      0.99696119
   2079000  -1245.261       243.50203     -1488.7631      320.35249      3041.7514      3840.7412      0.99696119
   2080000  -1270.2223      208.44527     -1478.6676      274.23164     -1582.8102      3840.7412      0.99696119
   2081000  -1256.36        227.10872     -1483.4687      298.78536     -597.40154      3840.7412      0.99696119
   2082000  -1272.0957      222.3085      -1494.4042      292.47017      687.45413      3840.7412      0.99696119
   2083000  -1253.7219      243.03247     -1496.7543      319.73474      1400.0334      3840.7412      0.99696119
   2084000  -1236.764       227.60424     -1464.3682      299.43727     -250.4974       3840.7412      0.99696119
   2085000  -1253.9315      242.69996     -1496.6315      319.29728      400.18097      3840.7412      0.99696119
   2086000  -1271.2214      217.12846     -1488.3499      285.65529      605.29214      3840.7412      0.99696119
   2087000  -1244.4169      234.47419     -1478.8911      308.47542      697.60489      3840.7412      0.99696119
   2088000  -1268.674       214.10678     -1482.7808      281.67995      1007.5069      3840.7412      0.99696119
   2089000  -1268.571       231.38522     -1499.9563      304.41156      343.11399      3840.7412      0.99696119
   2090000  -1265.1249      227.24038     -1492.3653      298.95858     -79.351734      3840.7412      0.99696119
   2091000  -1231.6627      242.37382     -1474.0365      318.86822      1408.9608      3840.7412      0.99696119
   2092000  -1257.2321      236.53543     -1493.7675      311.18719     -913.73274      3840.7412      0.99696119
   2093000  -1276.5984      205.57338     -1482.1718      270.45337     -1441.9582      3840.7412      0.99696119
   2094000  -1269.4603      230.15924     -1499.6196      302.79865     -950.40885      3840.7412      0.99696119
   2095000  -1285.137       236.88777     -1522.0248      311.65074      663.53039      3840.7412      0.99696119
   2096000  -1248.5062      234.5009      -1483.0071      308.51055      279.54652      3840.7412      0.99696119
   2097000  -1297.7325      204.96703     -1502.6995      269.65565     -11.833574      3840.7412      0.99696119
   2098000  -1256.9575      217.5471      -1474.5046      286.20605      452.97996      3840.7412      0.99696119
   2099000  -1295.925       220.64119     -1516.5662      290.27666     -699.22323      3840.7412      0.99696119
   2100000  -1256.1264      236.38077     -1492.5071      310.98372     -273.92393      3840.7412      0.99696119
   2101000  -1293.6586      220.61872     -1514.2773      290.2471      -731.59466      3840.7412      0.99696119
   2102000  -1277.5946      233.81364     -1511.4083      307.60639      1815.2497      3840.7412      0.99696119
   2103000  -1273.6915      213.96798     -1487.6594      281.49735     -1375.9879      3840.7412      0.99696119
   2104000  -1273.7038      237.13038     -1510.8342      311.96991     -1479.5378      3840.7412      0.99696119
   2105000  -1307.7001      206.36383     -1514.064       271.49329      584.3789       3840.7412      0.99696119
   2106000  -1266.7633      226.46748     -1493.2308      297.94175     -310.37616      3840.7412      0.99696119
   2107000  -1266.0721      227.78369     -1493.8558      299.67336     -1259.2217      3840.7412      0.99696119
   2108000  -1278.7872      229.36414     -1508.1513      301.75261     -1930.7156      3840.7412      0.99696119
   2109000  -1312.0701      211.08046     -1523.1506      277.69851      473.03528      3840.7412      0.99696119
   2110000  -1265.9782      233.47458     -1499.4528      307.16032     -187.46307      3840.7412      0.99696119
   2111000  -1298.0568      227.36318     -1525.42        299.12013     -62.018972      3840.7412      0.99696119
   2112000  -1248.5357      238.10996     -1486.6457      313.25866     -2265.1736      3840.7412      0.99696119
   2113000  -1255.4471      230.52623     -1485.9733      303.28147      998.97931      3840.7412      0.99696119
   2114000  -1261.9935      219.05878     -1481.0523      288.19482      507.69778      3840.7412      0.99696119
   2115000  -1258.5249      232.13396     -1490.6589      305.39661      1148.8346      3840.7412      0.99696119
   2116000  -1233.445       245.19427     -1478.6393      322.57881      348.38775      3840.7412      0.99696119
   2117000  -1270.6568      215.32631     -1485.9831      283.28438      1018.3511      3840.7412      0.99696119
   2118000  -1236.467       243.11089     -1479.5779      319.8379      -1064.4482      3840.7412      0.99696119
   2119000  -1267.2325      231.85293     -1499.0854      305.02687      612.96974      3840.7412      0.99696119
   2120000  -1283.7751      212.95599     -1496.7311      280.16596     -2404.2397      3840.7412      0.99696119
   2121000  -1267.1102      219.48694     -1486.5971      288.75812      459.48127      3840.7412      0.99696119
   2122000  -1312.7966      214.88631     -1527.6829      282.70551     -571.42008      3840.7412      0.99696119
   2123000  -1282.2531      221.31567     -1503.5688      291.16401     -155.1735       3840.7412      0.99696119
   2124000  -1310.314       217.63413     -1527.9481      286.32055     -198.58178      3840.7412      0.99696119
   2125000  -1283.1371      234.43051     -1517.5676      308.41795      1204.5007      3840.7412      0.99696119
   2126000  -1256.2191      226.51579     -1482.7349      298.00531      1152.5769      3840.7412      0.99696119
   2127000  -1272.2274      235.10193     -1507.3293      309.30127     -1124.4233      3840.7412      0.99696119
   2128000  -1296.3032      223.04331     -1519.3465      293.4369      -836.25569      3840.7412      0.99696119
   2129000  -1291.7516      242.40221     -1534.1539      318.90556      56.650993      3840.7412      0.99696119
   2130000  -1307.2397      225.63944     -1532.8791      296.85237     -452.60741      3840.7412      0.99696119
   2131000  -1270.7518      204.41078     -1475.1626      268.92385      162.12157      3840.7412      0.99696119
   2132000  -1236.347       246.50946     -1482.8564      324.30908      3000.054       3840.7412      0.99696119
   2133000  -1250.5301      239.10861     -1489.6387      314.57249     -924.20489      3840.7412      0.99696119
   2134000  -1246.2202      242.38633     -1488.6065      318.88467     -1204.7387      3840.7412      0.99696119
   2135000  -1246.7193      242.27426     -1488.9936      318.73723     -115.55829      3840.7412      0.99696119
   2136000  -1254.5057      225.06523     -1479.5709      296.09694     -1219.0865      3840.7412      0.99696119
   2137000  -1254.0216      218.73396     -1472.7556      287.76749      2653.8699      3840.7412      0.99696119
   2138000  -1277.1312      216.21924     -1493.3504      284.45912      770.26216      3840.7412      0.99696119
   2139000  -1257.7993      241.59496     -1499.3942      317.84354      941.91318      3840.7412      0.99696119
   2140000  -1269.6044      239.83526     -1509.4397      315.52847      1360.0808      3840.7412      0.99696119
   2141000  -1275.7168      235.01253     -1510.7294      309.18365      1129.5441      3840.7412      0.99696119
   2142000  -1275.4488      232.11708     -1507.5659      305.3744       696.00381      3840.7412      0.99696119
   2143000  -1232.9314      245.96713     -1478.8985      323.59559     -121.23899      3840.7412      0.99696119
   2144000  -1275.9189      225.24745     -1501.1664      296.33667     -1995.2246      3840.7412      0.99696119
   2145000  -1236.3876      246.30636     -1482.6939      324.04188      683.82289      3840.7412      0.99696119
   2146000  -1259.5643      234.35154     -1493.9158      308.31406      931.44933      3840.7412      0.99696119
   2147000  -1268.04        219.75513     -1487.7951      289.11095     -18.862683      3840.7412      0.99696119
   2148000  -1277.7562      235.31857     -1513.0747      309.58629      1078.7604      3840.7412      0.99696119
   2149000  -1260.2718      229.34731     -1489.6191      301.73048      1172.3741      3840.7412      0.99696119
   2150000  -1275.212       223.52216     -1498.7342      294.06687      244.02684      3840.7412      0.99696119
   2151000  -1337.266       208.58643     -1545.8525      274.41735      628.19608      3840.7412      0.99696119
   2152000  -1288.7039      218.48557     -1507.1895      287.44071      529.47243      3840.7412      0.99696119
   2153000  -1288.1299      221.24742     -1509.3773      291.07421     -668.12464      3840.7412      0.99696119
   2154000  -1261.1226      230.13196     -1491.2546      302.76275     -922.80055      3840.7412      0.99696119
   2155000  -1272.2901      221.36892     -1493.659       291.23406     -1927.8758      3840.7412      0.99696119
   2156000  -1268.659       230.59556     -1499.2546      303.37267     -1153.761       3840.7412      0.99696119
   2157000  -1285.3151      215.58756     -1500.9026      283.62808      1710.3912      3840.7412      0.99696119
   2158000  -1215.0803      233.21696     -1448.2972      306.82139      1196.2925      3840.7412      0.99696119
   2159000  -1260.1698      232.61542     -1492.7852      306.03001      1497.9867      3840.7412      0.99696119
   2160000  -1239.3614      223.49745     -1462.8588      294.03436     -556.73197      3840.7412      0.99696119
   2161000  -1271.8307      228.48685     -1500.3175      300.59845      882.6465       3840.7412      0.99696119
   2162000  -1235.4183      255.30977     -1490.7281      335.88681      591.6561       3840.7412      0.99696119
   2163000  -1243.7278      220.82292     -1464.5507      290.51573     -1147.0026      3840.7412      0.99696119
   2164000  -1280.8039      211.67044     -1492.4743      278.47469      660.69564      3840.7412      0.99696119
   2165000  -1248.3082      234.94005     -1483.2482      309.0883       344.30213      3840.7412      0.99696119
   2166000  -1285.4768      207.00985     -1492.4866      272.3432       465.25071      3840.7412      0.99696119
   2167000  -1246.4405      224.09199     -1470.5325      294.81654      1906.6609      3840.7412      0.99696119
   2168000  -1313.5704      224.92461     -1538.495       295.91195      397.25316      3840.7412      0.99696119
   2169000  -1257.1469      231.65793     -1488.8048      304.77033      944.18298      3840.7412      0.99696119
   2170000  -1265.2936      221.46573     -1486.7593      291.36143      3823.3646      3840.7412      0.99696119
   2171000  -1245.8416      218.91333     -1464.755       288.00347      1536.1105      3840.7412      0.99696119
   2172000  -1270.9865      230.60669     -1501.5932      303.38732     -1272.1095      3840.7412      0.99696119
   2173000  -1283.9461      221.32171     -1505.2678      291.17194     -102.9784       3840.7412      0.99696119
   2174000  -1249.7983      214.98404     -1464.7823      282.83408      96.692379      3840.7412      0.99696119
   2175000  -1295.6378      214.9288      -1510.5666      282.76141      1039.0134      3840.7412      0.99696119
   2176000  -1222.1467      240.91473     -1463.0614      316.94862     -932.54604      3840.7412      0.99696119
   2177000  -1276.5939      230.85246     -1507.4464      303.71066     -317.91396      3840.7412      0.99696119
   2178000  -1227.0998      229.47049     -1456.5703      301.89253      1517.4647      3840.7412      0.99696119
   2179000  -1256.4127      212.90074     -1469.3134      280.09328     -629.32181      3840.7412      0.99696119
   2180000  -1271.9017      219.55617     -1491.4578      288.84919      857.78482      3840.7412      0.99696119
   2181000  -1241.6122      217.83776     -1459.4499      286.58845      721.52407      3840.7412      0.99696119
   2182000  -1231.8702      247.73845     -1479.6086      325.92594      1083.2766      3840.7412      0.99696119
   2183000  -1250.7791      229.50622     -1480.2853      301.93953      741.1599       3840.7412      0.99696119
   2184000  -1223.3552      247.05749     -1470.4127      325.03007      1631.5066      3840.7412      0.99696119
   2185000  -1271.7835      207.24857     -1479.032       272.65726     -1234.3871      3840.7412      0.99696119
   2186000  -1288.6471      225.2184      -1513.8655      296.29845      841.82011      3840.7412      0.99696119
   2187000  -1297.1905      226.20308     -1523.3936      297.59391     -366.37624      3840.7412      0.99696119
   2188000  -1263.1448      232.75348     -1495.8983      306.21165     -245.80812      3840.7412      0.99696119
   2189000  -1291.0707      211.47587     -1502.5466      278.21871      1470.005       3840.7412      0.99696119
   2190000  -1267.9619      228.36        -1496.3219      300.43156     -1131.7266      3840.7412      0.99696119
   2191000  -1279.3698      235.22154     -1514.5913      309.45864      134.54155      3840.7412      0.99696119
   2192000  -1276.8664      221.92789     -1498.7942      291.96944     -1872.038       3840.7412      0.99696119
   2193000  -1285.8303      227.64655     -1513.4769      299.49294      1735.2167      3840.7412      0.99696119
   2194000  -1303.1673      214.35421     -1517.5215      282.00547     -87.518162      3840.7412      0.99696119
   2195000  -1287.5778      229.79914     -1517.3769      302.3249       646.5887       3840.7412      0.99696119
   2196000  -1302.0212      207.89284     -1509.914       273.50486      562.02428      3840.7412      0.99696119
   2197000  -1262.7551      245.88178     -1508.6369      323.4833       1219.5991      3840.7412      0.99696119
   2198000  -1250.8988      236.65022     -1487.549       311.33821     -1143.5257      3840.7412      0.99696119
   2199000  -1266.3082      234.6051      -1500.9132      308.64764     -1102.3177      3840.7412      0.99696119
   2200000  -1278.1098      215.95032     -1494.0601      284.10532     -1786.6389      3840.7412      0.99696119
   2201000  -1284.4856      219.07383     -1503.5594      288.21463      1393.2002      3840.7412      0.99696119
   2202000  -1260.4415      228.80426     -1489.2457      301.01603      1422.3345      3840.7412      0.99696119
   2203000  -1265.2992      228.98638     -1494.2856      301.25563     -747.88436      3840.7412      0.99696119
   2204000  -1288.6846      233.3391      -1522.0237      306.98209      608.22939      3840.7412      0.99696119
   2205000  -1296.2772      228.80302     -1525.0802      301.0144      -527.10377      3840.7412      0.99696119
   2206000  -1257.5078      211.88699     -1469.3948      278.75959      323.25918      3840.7412      0.99696119
   2207000  -1272.2278      231.89225     -1504.1201      305.07861      1422.0877      3840.7412      0.99696119
   2208000  -1259.0448      220.88666     -1479.9315      290.5996      -814.85997      3840.7412      0.99696119
   2209000  -1255.5549      221.45651     -1477.0115      291.34929     -1335.6771      3840.7412      0.99696119
   2210000  -1255.1195      222.35567     -1477.4752      292.53224     -2260.6692      3840.7412      0.99696119
   2211000  -1243.5156      232.91536     -1476.431       306.42461      146.92087      3840.7412      0.99696119
   2212000  -1267.7913      252.95991     -1520.7512      332.79533      3010.872       3840.7412      0.99696119
   2213000  -1287.1905      227.6057      -1514.7962      299.43919     -670.46341      3840.7412      0.99696119
   2214000  -1243.1708      237.44127     -1480.6121      312.37893      115.80614      3840.7412      0.99696119
   2215000  -1276.8023      206.25015     -1483.0524      271.34374      141.6105       3840.7412      0.99696119
   2216000  -1267.7515      211.73874     -1479.4903      278.56454     -70.863614      3840.7412      0.99696119
   2217000  -1259.6398      226.22914     -1485.8689      297.62819      879.07889      3840.7412      0.99696119
   2218000  -1276.7255      227.20991     -1503.9354      298.9185      -1506.539       3840.7412      0.99696119
   2219000  -1249.3503      218.98744     -1468.3377      288.10097      2034.2286      3840.7412      0.99696119
   2220000  -1251.0159      217.02039     -1468.0363      285.51312      1322.3402      3840.7412      0.99696119
   2221000  -1248.1034      231.33333     -1479.4367      304.34329      1451.118       3840.7412      0.99696119
   2222000  -1241.2115      243.18785     -1484.3993      319.93915     -200.23095      3840.7412      0.99696119
   2223000  -1230.8545      231.0715      -1461.926       303.99883      1794.6124      3840.7412      0.99696119
   2224000  -1256.0417      228.23797     -1484.2797      300.27102      2055.3715      3840.7412      0.99696119
   2225000  -1264.2342      253.76751     -1518.0017      333.85781      615.95954      3840.7412      0.99696119
   2226000  -1304.0282      206.35241     -1510.3806      271.47827      726.06025      3840.7412      0.99696119
   2227000  -1282.8826      235.51903     -1518.4016      309.85001      257.75609      3840.7412      0.99696119
   2228000  -1288.4886      218.31865     -1506.8073      287.22111     -573.87081      3840.7412      0.99696119
   2229000  -1301.522       211.98939     -1513.5114      278.89431      435.30332      3840.7412      0.99696119
   2230000  -1277.6712      239.01206     -1516.6832      314.44546      282.04738      3840.7412      0.99696119
   2231000  -1256.2711      223.75593     -1480.027       294.37442      29.703642      3840.7412      0.99696119
   2232000  -1233.3511      247.65505     -1481.0062      325.81623      1980.3754      3840.7412      0.99696119
   2233000  -1226.9964      243.49158     -1470.488       320.33874      1569.6366      3840.7412      0.99696119
   2234000  -1257.2097      237.79202     -1495.0018      312.84038      918.51718      3840.7412      0.99696119
   2235000  -1255.3467      223.87825     -1479.225       294.53534     -207.41185      3840.7412      0.99696119
   2236000  -1322.8021      200.31779     -1523.1199      263.53909      303.83207      3840.7412      0.99696119
   2237000  -1262.147       237.51145     -1499.6585      312.47125      941.43942      3840.7412      0.99696119
   2238000  -1256.6711      242.47226     -1499.1433      318.99771     -418.18312      3840.7412      0.99696119
   2239000  -1276.3292      224.48894     -1500.8182      295.33877     -942.42981      3840.7412      0.99696119
   2240000  -1250.7085      236.54565     -1487.2542      311.20064     -369.5541       3840.7412      0.99696119
   2241000  -1247.6006      234.0976      -1481.6982      307.97998     -513.3982       3840.7412      0.99696119
   2242000  -1289.1937      209.28315     -1498.4769      275.33396     -1440.5413      3840.7412      0.99696119
   2243000  -1281.6999      220.96166     -1502.6616      290.69827      881.38521      3840.7412      0.99696119
   2244000  -1256.2937      234.47199     -1490.7657      308.47252      1481.4895      3840.7412      0.99696119
   2245000  -1277.733       207.92643     -1485.6594      273.54905     -1295.1094      3840.7412      0.99696119
   2246000  -1251.9833      233.22597     -1485.2093      306.83326     -1709.9181      3840.7412      0.99696119
   2247000  -1273.5685      226.1437      -1499.7122      297.51578      238.80094      3840.7412      0.99696119
   2248000  -1245.7847      232.44146     -1478.2261      305.80115      96.459209      3840.7412      0.99696119
   2249000  -1295.7261      206.59733     -1502.3234      271.80048     -894.21093      3840.7412      0.99696119
   2250000  -1261.5697      217.17788     -1478.7476      285.72031     -1161.4368      3840.7412      0.99696119
   2251000  -1260.2296      245.41605     -1505.6457      322.87058      147.47893      3840.7412      0.99696119
   2252000  -1251.062       220.64692     -1471.7089      290.2842       1833.6206      3840.7412      0.99696119
   2253000  -1252.5946      245.02285     -1497.6175      322.35329     -265.03882      3840.7412      0.99696119
   2254000  -1215.3942      243.30204     -1458.6962      320.08938      352.07812      3840.7412      0.99696119
   2255000  -1269.2962      235.14928     -1504.4454      309.36357     -309.92297      3840.7412      0.99696119
   2256000  -1304.1986      231.24235     -1535.441       304.22359      42.233063      3840.7412      0.99696119
   2257000  -1261.5521      232.95778     -1494.5098      306.48042     -807.63065      3840.7412      0.99696119
   2258000  -1282.7451      219.23945     -1501.9846      288.43252     -458.91249      3840.7412      0.99696119
   2259000  -1301.2498      229.28022     -1530.53        301.64221      318.54506      3840.7412      0.99696119
   2260000  -1255.2396      243.78946     -1499.0291      320.73063     -375.31099      3840.7412      0.99696119
   2261000  -1266.558       227.99048     -1494.5484      299.94541      2232.6423      3840.7412      0.99696119
   2262000  -1287.6037      228.58814     -1516.1919      300.7317       1961.1995      3840.7412      0.99696119
   2263000  -1284.3263      231.39283     -1515.7192      304.42157      1274.3974      3840.7412      0.99696119
   2264000  -1288.9449      220.66578     -1509.6107      290.309        1665.0027      3840.7412      0.99696119
   2265000  -1262.2333      216.40344     -1478.6368      284.70145     -643.72881      3840.7412      0.99696119
   2266000  -1256.5152      232.28697     -1488.8022      305.59789     -151.3926       3840.7412      0.99696119
   2267000  -1256.5092      223.74334     -1480.2525      294.35785     -801.50462      3840.7412      0.99696119
   2268000  -1269.6716      225.9774      -1495.649       297.297        1332.4568      3840.7412      0.99696119
   2269000  -1259.023       219.42982     -1478.4528      288.68297      408.50368      3840.7412      0.99696119
   2270000  -1282.4648      214.8984      -1497.3631      282.72141     -231.01321      3840.7412      0.99696119
   2271000  -1285.815       237.52938     -1523.3444      312.49485      765.68226      3840.7412      0.99696119
   2272000  -1302.8787      215.85475     -1518.7335      283.97959     -1341.4536      3840.7412      0.99696119
   2273000  -1267.7941      247.88799     -1515.6821      326.12268     -1263.2435      3840.7412      0.99696119
   2274000  -1262.8946      225.00682     -1487.9014      296.0201      -1772.1308      3840.7412      0.99696119
   2275000  -1292.1996      221.2851      -1513.4847      291.12379     -643.20387      3840.7412      0.99696119
   2276000  -1262.653       231.75151     -1494.4045      304.89344      560.21326      3840.7412      0.99696119
   2277000  -1267.6856      233.22267     -1500.9083      306.82892      155.45672      3840.7412      0.99696119
   2278000  -1249.1142      228.94742     -1478.0616      301.20437     -1027.3199      3840.7412      0.99696119
   2279000  -1267.3424      212.21734     -1479.5597      279.1942       813.74705      3840.7412      0.99696119
   2280000  -1250.6597      225.20068     -1475.8604      296.27514     -1219.7601      3840.7412      0.99696119
   2281000  -1277.1732      211.14987     -1488.3231      277.78982      70.10311       3840.7412      0.99696119
   2282000  -1280.5657      231.76079     -1512.3265      304.90565      158.53316      3840.7412      0.99696119
   2283000  -1311.0653      205.53205     -1516.5973      270.39899     -1123.6165      3840.7412      0.99696119
   2284000  -1260.2491      217.48797     -1477.7371      286.12826      2657.4159      3840.7412      0.99696119
   2285000  -1244.6602      217.29222     -1461.9524      285.87074     -928.35248      3840.7412      0.99696119
   2286000  -1266.1496      220.76385     -1486.9134      290.43803      897.33807      3840.7412      0.99696119
   2287000  -1218.8949      234.72811     -1453.623       308.80947     -581.16649      3840.7412      0.99696119
   2288000  -1262.9056      211.2449      -1474.1505      277.91485      38.447616      3840.7412      0.99696119
   2289000  -1263.9849      215.21036     -1479.1953      283.13183     -452.3163       3840.7412      0.99696119
   2290000  -1248.9345      228.49929     -1477.4338      300.61482      719.95736      3840.7412      0.99696119
   2291000  -1228.7649      248.16814     -1476.933       326.49124      974.01186      3840.7412      0.99696119
   2292000  -1271.6223      222.30487     -1493.9272      292.4654      -85.298687      3840.7412      0.99696119
   2293000  -1246.9971      240.86592     -1487.863       316.88441      1344.1658      3840.7412      0.99696119
   2294000  -1263.2213      221.83552     -1485.0568      291.84792     -1739.9541      3840.7412      0.99696119
   2295000  -1278.618       217.84299     -1496.461       286.59532     -608.41126      3840.7412      0.99696119
   2296000  -1246.4175      223.21397     -1469.6315      293.66142      1143.2163      3840.7412      0.99696119
   2297000  -1275.3355      221.78057     -1497.1161      291.77563     -1760.5105      3840.7412      0.99696119
   2298000  -1240.6724      247.92628     -1488.5987      326.17306     -739.24348      3840.7412      0.99696119
   2299000  -1275.3277      207.90499     -1483.2327      273.52084      2133.5177      3840.7412      0.99696119
   2300000  -1230.9155      234.76993     -1465.6854      308.8645      -663.02598      3840.7412      0.99696119
   2301000  -1268.6143      207.99616     -1476.6104      273.64078      871.35433      3840.7412      0.99696119
   2302000  -1235.4327      247.72542     -1483.1581      325.9088       364.12872      3840.7412      0.99696119
   2303000  -1242.9039      239.15919     -1482.0631      314.63903      2390.5423      3840.7412      0.99696119
   2304000  -1241.5848      230.88591     -1472.4707      303.75466      1729.1428      3840.7412      0.99696119
   2305000  -1249.4756      229.57705     -1479.0526      302.03272      1157.8509      3840.7412      0.99696119
   2306000  -1245.8897      233.71127     -1479.601       307.47172      261.97241      3840.7412      0.99696119
   2307000  -1279.073       238.5068      -1517.5798      313.78074      354.74642      3840.7412      0.99696119
   2308000  -1272.0398      223.02327     -1495.0631      293.41054      2035.5766      3840.7412      0.99696119
   2309000  -1220.9674      249.84344     -1470.8109      328.69528     -297.30383      3840.7412      0.99696119
   2310000  -1262.2339      225.30234     -1487.5362      296.40889      480.3478       3840.7412      0.99696119
   2311000  -1272.1293      228.40987     -1500.5392      300.49717      106.32652      3840.7412      0.99696119
   2312000  -1305.5859      215.96777     -1521.5537      284.12828      2046.8316      3840.7412      0.99696119
   2313000  -1289.5585      215.54499     -1505.1035      283.57207     -621.30309      3840.7412      0.99696119
   2314000  -1274.8641      235.72396     -1510.5881      310.11962     -578.99742      3840.7412      0.99696119
   2315000  -1304.3792      215.09821     -1519.4774      282.98428     -1059.9577      3840.7412      0.99696119
   2316000  -1302.348       209.01492     -1511.3629      274.98108      1101.8735      3840.7412      0.99696119
   2317000  -1267.1732      221.51389     -1488.6871      291.42479      648.41455      3840.7412      0.99696119
   2318000  -1259.2623      244.64685     -1503.9091      321.85863      427.09441      3840.7412      0.99696119
   2319000  -1296.804       223.14548     -1519.9495      293.57131      1175.9169      3840.7412      0.99696119
   2320000  -1245.5292      235.46495     -1480.9942      309.77886     -1150.5398      3840.7412      0.99696119
   2321000  -1272.635       219.07967     -1491.7147      288.22231     -1954.27        3840.7412      0.99696119
   2322000  -1268.2779      229.17832     -1497.4562      301.50814     -1169.4127      3840.7412      0.99696119
   2323000  -1232.2156      242.83956     -1475.0552      319.48095      2895.0005      3840.7412      0.99696119
   2324000  -1287.0681      231.45391     -1518.522       304.50192     -871.22178      3840.7412      0.99696119
   2325000  -1279.544       225.54396     -1505.088       296.72676     -481.37793      3840.7412      0.99696119
   2326000  -1268.7422      229.09099     -1497.8332      301.39325      183.7169       3840.7412      0.99696119
   2327000  -1301.6469      216.11616     -1517.763       284.3235      -426.025        3840.7412      0.99696119
   2328000  -1262.899       239.048       -1501.947       314.49275     -1375.3582      3840.7412      0.99696119
   2329000  -1291.2219      229.66891     -1520.8908      302.15357      526.76537      3840.7412      0.99696119
   2330000  -1241.8926      248.05026     -1489.9429      326.33617     -943.65097      3840.7412      0.99696119
   2331000  -1279.8858      218.17046     -1498.0563      287.02615     -265.36104      3840.7412      0.99696119
   2332000  -1263.6078      218.21397     -1481.8218      287.08339     -627.30503      3840.7412      0.99696119
   2333000  -1295.5161      224.69273     -1520.2088      295.60688     -2069.9461      3840.7412      0.99696119
   2334000  -1250.7766      240.76272     -1491.5393      316.74864     -7.1260387      3840.7412      0.99696119
   2335000  -1285.0375      214.63463     -1499.6721      282.3744       527.56858      3840.7412      0.99696119
   2336000  -1265.1523      228.13101     -1493.2833      300.1303      -23.420776      3840.7412      0.99696119
   2337000  -1276.7614      243.89239     -1520.6538      320.86605     -96.711375      3840.7412      0.99696119
   2338000  -1277.8203      224.72945     -1502.5498      295.65519      6.3793107      3840.7412      0.99696119
   2339000  -1256.823       215.22486     -1472.0479      283.15091      51.301204      3840.7412      0.99696119
   2340000  -1304.1906      217.71333     -1521.904       286.42475      165.07443      3840.7412      0.99696119
   2341000  -1263.8953      248.18879     -1512.0841      326.51842      337.13638      3840.7412      0.99696119
   2342000  -1268.632       239.82385     -1508.4559      315.51345     -572.10125      3840.7412      0.99696119
   2343000  -1262.2116      236.44387     -1498.6555      311.06674      1936.8215      3840.7412      0.99696119
   2344000  -1260.7222      220.29933     -1481.0215      289.82691     -865.1398       3840.7412      0.99696119
   2345000  -1229.79        239.17421     -1468.9642      314.65879      246.79443      3840.7412      0.99696119
   2346000  -1276.2972      215.11886     -1491.416       283.01144      1175.6176      3840.7412      0.99696119
   2347000  -1282.7691      220.39347     -1503.1625      289.95075     -697.56634      3840.7412      0.99696119
   2348000  -1269.1019      229.60919     -1498.7111      302.075        1641.64        3840.7412      0.99696119
   2349000  -1247.7125      241.62894     -1489.3414      317.88825      594.13259      3840.7412      0.99696119
   2350000  -1268.197       221.12063     -1489.3176      290.9074       2344.7244      3840.7412      0.99696119
   2351000  -1246.8603      221.23079     -1468.0911      291.05233     -496.36975      3840.7412      0.99696119
   2352000  -1248.7715      236.29467     -1485.0662      310.87045      35.063884      3840.7412      0.99696119
   2353000  -1271.6355      241.80886     -1513.4444      318.12494      464.81111      3840.7412      0.99696119
   2354000  -1268.6763      213.87073     -1482.547       281.3694       2038.8031      3840.7412      0.99696119
   2355000  -1285.4069      208.0057      -1493.4126      273.65335      2508.6593      3840.7412      0.99696119
   2356000  -1273.7472      219.46725     -1493.2144      288.73221      2286.7524      3840.7412      0.99696119
   2357000  -1273.1358      239.19385     -1512.3296      314.68463      222.60152      3840.7412      0.99696119
   2358000  -1257.3831      243.39038     -1500.7735      320.2056      -265.03679      3840.7412      0.99696119
   2359000  -1270.4532      213.39004     -1483.8432      280.73701      706.90745      3840.7412      0.99696119
   2360000  -1276.5533      237.47336     -1514.0266      312.42115      198.66157      3840.7412      0.99696119
   2361000  -1243.9648      242.23251     -1486.1973      318.6823       2072.9761      3840.7412      0.99696119
   2362000  -1271.8982      226.71601     -1498.6142      298.26872      884.90857      3840.7412      0.99696119
   2363000  -1261.0624      236.16141     -1497.2238      310.69514      348.00585      3840.7412      0.99696119
   2364000  -1243.3344      224.66479     -1467.9992      295.57012     -90.732882      3840.7412      0.99696119
   2365000  -1262.9804      232.1048      -1495.0852      305.35824     -1846.8597      3840.7412      0.99696119
   2366000  -1265.5098      234.93036     -1500.4401      309.07556     -752.98485      3840.7412      0.99696119
   2367000  -1264.6976      226.61966     -1491.3173      298.14195     -1723.2453      3840.7412      0.99696119
   2368000  -1257.5287      221.88828     -1479.417       291.91733      213.50825      3840.7412      0.99696119
   2369000  -1296.6752      215.00127     -1511.6765      282.85675      2979.4926      3840.7412      0.99696119
   2370000  -1272.5003      223.17445     -1495.6747      293.60942      793.42645      3840.7412      0.99696119
   2371000  -1227.6113      235.57177     -1463.1831      309.9194      -735.13029      3840.7412      0.99696119
   2372000  -1286.7599      223.76465     -1510.5246      294.3859       1088.2763      3840.7412      0.99696119
   2373000  -1255.945       221.72754     -1477.6726      291.70586      1686.593       3840.7412      0.99696119
   2374000  -1221.2814      226.98119     -1448.2626      298.61759      1444.5533      3840.7412      0.99696119
   2375000  -1283.5672      209.91826     -1493.4854      276.16952     -1061.4677      3840.7412      0.99696119
   2376000  -1289.2255      229.47276     -1518.6982      301.89552      634.86936      3840.7412      0.99696119
   2377000  -1241.4631      230.5943      -1472.0574      303.37101      1986.608       3840.7412      0.99696119
   2378000  -1276.5172      204.34051     -1480.8577      268.8314       835.94924      3840.7412      0.99696119
   2379000  -1233.2         239.91818     -1473.1182      315.63756      1925.6479      3840.7412      0.99696119
   2380000  -1214.5742      255.21503     -1469.7892      335.76217      340.91615      3840.7412      0.99696119
   2381000  -1314.3501      212.02208     -1526.3721      278.93731      669.70099      3840.7412      0.99696119
   2382000  -1267.1661      231.14117     -1498.3073      304.09048      1741.92        3840.7412      0.99696119
   2383000  -1282.6495      238.39613     -1521.0456      313.63514     -564.23214      3840.7412      0.99696119
   2384000  -1281.3525      239.3824      -1520.7349      314.93268     -1432.5224      3840.7412      0.99696119
   2385000  -1270.5895      225.91283     -1496.5023      297.21205     -1419.0464      3840.7412      0.99696119
   2386000  -1297.4057      221.79717     -1519.2028      291.79747      1218.0599      3840.7412      0.99696119
   2387000  -1309.7         208.44763     -1518.1477      274.23475      54.977958      3840.7412      0.99696119
   2388000  -1267.3497      232.68685     -1500.0366      306.12399      72.459665      3840.7412      0.99696119
   2389000  -1245.828       237.1784      -1483.0064      312.0331      -516.39304      3840.7412      0.99696119
   2390000  -1287.552       222.85231     -1510.4044      293.18561      45.523385      3840.7412      0.99696119
   2391000  -1272.1457      232.8523      -1504.998       306.34165     -250.47611      3840.7412      0.99696119
   2392000  -1273.4995      236.73778     -1510.2372      311.45341      2002.8766      3840.7412      0.99696119
   2393000  -1298.903       216.81474     -1515.7177      285.24255     -1212.0936      3840.7412      0.99696119
   2394000  -1266.6391      223.23241     -1489.8716      293.68567      343.84617      3840.7412      0.99696119
   2395000  -1272.0144      211.67167     -1483.6861      278.47631     -1785.258       3840.7412      0.99696119
   2396000  -1252.353       229.47867     -1481.8317      301.90329      993.70952      3840.7412      0.99696119
   2397000  -1301.0291      217.02541     -1518.0545      285.51971     -126.97432      3840.7412      0.99696119
   2398000  -1271.0029      225.93172     -1496.9347      297.23691     -1867.1885      3840.7412      0.99696119
   2399000  -1303.347       222.67618     -1526.0232      292.95389      233.15592      3840.7412      0.99696119
   2400000  -1275.3432      228.63813     -1503.9814      300.79747     -588.5457       3840.7412      0.99696119
   2401000  -1305.3106      225.30657     -1530.6172      296.41445     -1071.1093      3840.7412      0.99696119
   2402000  -1275.1467      214.76914     -1489.9158      282.55135      362.4549       3840.7412      0.99696119
   2403000  -1255.8766      219.5301      -1475.4067      288.8149       1343.1986      3840.7412      0.99696119
   2404000  -1278.6489      223.20537     -1501.8543      293.6501      -2529.8745      3840.7412      0.99696119
   2405000  -1251.2012      242.4842      -1493.6854      319.01343      192.38017      3840.7412      0.99696119
   2406000  -1233.3329      231.97972     -1465.3126      305.19368      506.95919      3840.7412      0.99696119
   2407000  -1281.188       233.33507     -1514.523       306.97678      1203.7455      3840.7412      0.99696119
   2408000  -1316.19        206.68378     -1522.8738      271.91422     -824.55898      3840.7412      0.99696119
   2409000  -1263.4704      231.15813     -1494.6285      304.11279      0.45579441     3840.7412      0.99696119
   2410000  -1237.7247      234.17246     -1471.8972      308.07846      403.75032      3840.7412      0.99696119
   2411000  -1282.4097      245.87148     -1528.2812      323.46975      857.3171       3840.7412      0.99696119
   2412000  -1246.8697      216.68918     -1463.5589      285.07737     -1037.1034      3840.7412      0.99696119
   2413000  -1264.6083      238.13431     -1502.7426      313.29069      3110.3108      3840.7412      0.99696119
   2414000  -1244.7257      226.68027     -1471.4059      298.22169      300.05548      3840.7412      0.99696119
   2415000  -1283.7917      217.57487     -1501.3665      286.24259      202.42424      3840.7412      0.99696119
   2416000  -1293.9325      219.2626      -1513.1951      288.46297     -1374.3574      3840.7412      0.99696119
   2417000  -1241.2419      225.97273     -1467.2147      297.29085      2303.2192      3840.7412      0.99696119
   2418000  -1259.7046      225.48976     -1485.1944      296.65546      1442.092       3840.7412      0.99696119
   2419000  -1265.5749      229.76133     -1495.3362      302.27515     -505.26732      3840.7412      0.99696119
   2420000  -1253.386       223.18873     -1476.5747      293.62821      1033.1347      3840.7412      0.99696119
   2421000  -1272.1671      225.64245     -1497.8096      296.85634     -75.546383      3840.7412      0.99696119
   2422000  -1256.6988      227.82603     -1484.5249      299.72906      62.340562      3840.7412      0.99696119
   2423000  -1290.8159      207.35669     -1498.1726      272.7995       66.008889      3840.7412      0.99696119
   2424000  -1237.103       238.6364      -1475.7394      313.95124      586.7288       3840.7412      0.99696119
   2425000  -1288.2112      192.84234     -1481.0535      253.70435      2310.9563      3840.7412      0.99696119
   2426000  -1254.3952      221.6663      -1476.0615      291.62529      503.53278      3840.7412      0.99696119
   2427000  -1239.6987      243.57424     -1483.2729      320.44749      1401.6406      3840.7412      0.99696119
   2428000  -1275.7972      228.82389     -1504.6211      301.04186      146.5616       3840.7412      0.99696119
   2429000  -1279.3589      213.69275     -1493.0516      281.13525      205.55303      3840.7412      0.99696119
   2430000  -1286.8945      226.0201      -1512.9146      297.35318      728.67062      3840.7412      0.99696119
   2431000  -1243.5572      234.89591     -1478.4531      309.03023     -1169.1678      3840.7412      0.99696119
   2432000  -1280.7594      234.65842     -1515.4179      308.7178      -65.068204      3840.7412      0.99696119
   2433000  -1265.7157      239.81993     -1505.5356      315.5083       239.75122      3840.7412      0.99696119
   2434000  -1267.2508      255.88173     -1523.1325      336.63928      319.80367      3840.7412      0.99696119
   2435000  -1284.7326      230.10031     -1514.8329      302.72112      438.49142      3840.7412      0.99696119
   2436000  -1298.4872      224.97561     -1523.4629      295.97904      2631.9688      3840.7412      0.99696119
   2437000  -1271.9093      221.23049     -1493.1398      291.05194     -788.35829      3840.7412      0.99696119
   2438000  -1301.4764      231.99473     -1533.4711      305.21343      2533.7502      3840.7412      0.99696119
   2439000  -1279.8323      240.51664     -1520.349       316.4249      -108.62593      3840.7412      0.99696119
   2440000  -1281.4278      220.06554     -1501.4934      289.51933      1334.5303      3840.7412      0.99696119
   2441000  -1263.6304      230.90585     -1494.5362      303.7809       508.82454      3840.7412      0.99696119
   2442000  -1276.5963      230.25839     -1506.8547      302.92909      78.086457      3840.7412      0.99696119
   2443000  -1281.0483      224.14533     -1505.1936      294.88672     -1175.2877      3840.7412      0.99696119
   2444000  -1257.9099      249.65017     -1507.5601      328.44102      846.49748      3840.7412      0.99696119
   2445000  -1247.2981      242.9529      -1490.251       319.63005      245.67308      3840.7412      0.99696119
   2446000  -1279.2616      233.02168     -1512.2833      306.56449      109.58057      3840.7412      0.99696119
   2447000  -1269.3827      229.48039     -1498.8631      301.90554     -463.35388      3840.7412      0.99696119
   2448000  -1291.904       245.66083     -1537.5648      323.19261     -362.97         3840.7412      0.99696119
   2449000  -1267.0371      219.08204     -1486.1192      288.22542     -1003.8215      3840.7412      0.99696119
   2450000  -1277.4919      223.69786     -1501.1898      294.29803     -1122.2195      3840.7412      0.99696119
   2451000  -1288.9394      210.39495     -1499.3343      276.79665      252.56218      3840.7412      0.99696119
   2452000  -1253.8096      219.01529     -1472.8249      288.13761      10.503135      3840.7412      0.99696119
   2453000  -1260.7348      233.03706     -1493.7719      306.58472      141.83537      3840.7412      0.99696119
   2454000  -1254.4561      253.68519     -1508.1413      333.74951     -510.40283      3840.7412      0.99696119
   2455000  -1216.2041      259.75864     -1475.9627      341.73977      633.32815      3840.7412      0.99696119
   2456000  -1247.3123      232.75023     -1480.0625      306.20737     -579.06453      3840.7412      0.99696119
   2457000  -1286.384       211.2934      -1497.6774      277.97866      1349.4771      3840.7412      0.99696119
   2458000  -1256.0367      227.68195     -1483.7187      299.53952     -355.4702       3840.7412      0.99696119
   2459000  -1235.7298      233.71833     -1469.4481      307.48101     -308.2648       3840.7412      0.99696119
   2460000  -1240.1643      225.71244     -1465.8768      296.94842     -218.20413      3840.7412      0.99696119
   2461000  -1287.0111      231.55014     -1518.5613      304.62852     -380.90167      3840.7412      0.99696119
   2462000  -1245.6625      235.68534     -1481.3479      310.06882      1029.0152      3840.7412      0.99696119
   2463000  -1264.9852      225.22232     -1490.2075      296.30361      2873.9181      3840.7412      0.99696119
   2464000  -1277.758       205.55989     -1483.3179      270.43562     -1382.1472      3840.7412      0.99696119
   2465000  -1295.9832      224.38917     -1520.3723      295.20751      148.75621      3840.7412      0.99696119
   2466000  -1273.8415      230.59384     -1504.4353      303.37041      1473.7094      3840.7412      0.99696119
   2467000  -1283.323       230.80833     -1514.1313      303.6526       422.83126      3840.7412      0.99696119
   2468000  -1277.9446      228.09401     -1506.0387      300.08162     -791.82182      3840.7412      0.99696119
   2469000  -1234.9472      251.63538     -1486.5826      331.05276     -190.98438      3840.7412      0.99696119
   2470000  -1285.8613      232.58859     -1518.4499      305.99472      266.73354      3840.7412      0.99696119
   2471000  -1248.5133      235.02646     -1483.5398      309.20198      1785.5665      3840.7412      0.99696119
   2472000  -1251.2376      216.52281     -1467.7604      284.8585      -1208.158       3840.7412      0.99696119
   2473000  -1236.0956      220.26921     -1456.3648      289.78728     -805.06799      3840.7412      0.99696119
   2474000  -1290.2198      204.08517     -1494.305       268.49548     -532.90973      3840.7412      0.99696119
   2475000  -1251.3068      234.69816     -1486.005       308.77008      487.88005      3840.7412      0.99696119
   2476000  -1257.3458      240.35019     -1497.696       316.20591      13.383908      3840.7412      0.99696119
   2477000  -1253.5698      234.40055     -1487.9704      308.37853     -26.626961      3840.7412      0.99696119
   2478000  -1276.7866      212.40624     -1489.1928      279.44271      1323.2716      3840.7412      0.99696119
   2479000  -1266.1249      224.03613     -1490.161       294.74305     -1143.4177      3840.7412      0.99696119
   2480000  -1270.823       250.16222     -1520.9852      329.11467      686.36459      3840.7412      0.99696119
   2481000  -1287.4259      216.82988     -1504.2557      285.26248      1702.727       3840.7412      0.99696119
   2482000  -1278.4464      219.37008     -1497.8164      288.60438      933.8593       3840.7412      0.99696119
   2483000  -1302.3433      234.27724     -1536.6205      308.21631      1792.5049      3840.7412      0.99696119
   2484000  -1299.1156      221.78284     -1520.8984      291.77861     -1148.7603      3840.7412      0.99696119
   2485000  -1262.1128      228.97772     -1491.0905      301.24424     -46.079862      3840.7412      0.99696119
   2486000  -1245.5965      228.7795      -1474.376       300.98345      52.068474      3840.7412      0.99696119
   2487000  -1250.6569      228.21722     -1478.8741      300.24371      424.7866       3840.7412      0.99696119
   2488000  -1227.881       223.85729     -1451.7383      294.50777     -903.39584      3840.7412      0.99696119
   2489000  -1280.7447      210.49113     -1491.2359      276.92319     -1479.0074      3840.7412      0.99696119
   2490000  -1233.6637      237.14368     -1470.8074      311.98741      61.077078      3840.7412      0.99696119
   2491000  -1252.3418      224.90437     -1477.2462      295.88531     -397.91988      3840.7412      0.99696119
   2492000  -1284.0411      211.09306     -1495.1341      277.71509     -660.8722       3840.7412      0.99696119
   2493000  -1315.0665      224.57957     -1539.6461      295.458       -301.23384      3840.7412      0.99696119
   2494000  -1298.4444      215.9257      -1514.3701      284.07293      950.99495      3840.7412      0.99696119
   2495000  -1286.9919      224.14861     -1511.1405      294.89103     -103.58668      3840.7412      0.99696119
   2496000  -1250.6629      233.99149     -1484.6544      307.84038     -310.96287      3840.7412      0.99696119
   2497000  -1238.8851      237.13429     -1476.0194      311.97506     -231.82636      3840.7412      0.99696119
   2498000  -1266.6537      224.34788     -1491.0016      295.1532       1801.8879      3840.7412      0.99696119
   2499000  -1267.6366      219.26041     -1486.897       288.46009      1049.4366      3840.7412      0.99696119
   2500000  -1266.1976      205.57931     -1471.777       270.46117      642.76077      3840.7412      0.99696119
   2501000  -1227.8829      224.90218     -1452.7851      295.88243      978.76638      3840.7412      0.99696119
   2502000  -1248.965       232.32242     -1481.2874      305.64453      2263.2121      3840.7412      0.99696119
   2503000  -1263.8389      227.12495     -1490.9639      298.80672      847.10541      3840.7412      0.99696119
   2504000  -1232.3992      232.40639     -1464.8056      305.75501     -139.02487      3840.7412      0.99696119
   2505000  -1276.6676      223.96759     -1500.6352      294.65288     -500.31888      3840.7412      0.99696119
   2506000  -1271.5951      229.45702     -1501.0521      301.8748      -1163.5261      3840.7412      0.99696119
   2507000  -1249.1366      206.24615     -1455.3827      271.33847      2234.8317      3840.7412      0.99696119
   2508000  -1246.5167      229.16488     -1475.6815      301.49046     -970.0954       3840.7412      0.99696119
   2509000  -1287.9376      225.68613     -1513.6237      296.9138      -271.82252      3840.7412      0.99696119
   2510000  -1266.7823      225.25193     -1492.0343      296.34256      1422.225       3840.7412      0.99696119
   2511000  -1283.4121      215.93984     -1499.3519      284.09153      83.355757      3840.7412      0.99696119
   2512000  -1221.0792      230.94844     -1452.0276      303.83693     -1658.8099      3840.7412      0.99696119
   2513000  -1243.3633      242.58483     -1485.9481      319.14581      162.92513      3840.7412      0.99696119
   2514000  -1266.7595      237.27176     -1504.0312      312.15592      1923.2781      3840.7412      0.99696119
   2515000  -1274.9598      210.2303      -1485.1901      276.58003      1400.2613      3840.7412      0.99696119
   2516000  -1273.5684      222.74138     -1496.3098      293.03968      758.11613      3840.7412      0.99696119
   2517000  -1250.4312      242.88448     -1493.3156      319.54003      2230.393       3840.7412      0.99696119
   2518000  -1273.0337      229.93644     -1502.9702      302.50553     -290.09123      3840.7412      0.99696119
   2519000  -1299.3617      216.12035     -1515.4821      284.32902     -713.4322       3840.7412      0.99696119
   2520000  -1264.7077      226.55072     -1491.2584      298.05126      1542.5951      3840.7412      0.99696119
   2521000  -1248.9041      234.121       -1483.0251      308.01075      1305.7112      3840.7412      0.99696119
   2522000  -1268.8016      227.88438     -1496.686       299.80583     -2136.8881      3840.7412      0.99696119
   2523000  -1259.8941      223.27055     -1483.1646      293.73585      1112.1211      3840.7412      0.99696119
   2524000  -1241.7654      225.48284     -1467.2483      296.64635     -145.56995      3840.7412      0.99696119
   2525000  -1266.4579      207.00213     -1473.46        272.33303      659.58397      3840.7412      0.99696119
   2526000  -1290.4865      217.84204     -1508.3286      286.59408     -1194.4966      3840.7412      0.99696119
   2527000  -1286.5836      242.89094     -1529.4746      319.54854      1291.0092      3840.7412      0.99696119
   2528000  -1296.3651      238.10226     -1534.4673      313.24853     -190.40694      3840.7412      0.99696119
   2529000  -1299.7763      226.84806     -1526.6244      298.44244      2287.5489      3840.7412      0.99696119
   2530000  -1272.326       221.8401      -1494.1661      291.85394      789.84188      3840.7412      0.99696119
   2531000  -1290.2977      230.88695     -1521.1846      303.75602     -367.21634      3840.7412      0.99696119
   2532000  -1291.8318      211.01604     -1502.8478      277.61376      441.09803      3840.7412      0.99696119
   2533000  -1274.3049      225.67245     -1499.9773      296.8958       518.58503      3840.7412      0.99696119
   2534000  -1262.6013      222.09029     -1484.6915      292.18309      947.04063      3840.7412      0.99696119
   2535000  -1275.3233      208.19429     -1483.5176      273.90145      273.03201      3840.7412      0.99696119
   2536000  -1270.8169      223.61726     -1494.4342      294.19199     -656.57568      3840.7412      0.99696119
   2537000  -1260.8511      224.2703      -1485.1214      295.05113      147.67786      3840.7412      0.99696119
   2538000  -1230.5831      238.12309     -1468.7062      313.27593     -49.236134      3840.7412      0.99696119
   2539000  -1260.1488      205.82918     -1465.978       270.7899       2563.9276      3840.7412      0.99696119
   2540000  -1253.2034      242.08558     -1495.289       318.489        405.81933      3840.7412      0.99696119
   2541000  -1264.5356      226.31674     -1490.8523      297.74344      409.766        3840.7412      0.99696119
   2542000  -1246.1631      224.76798     -1470.931       295.70588     -800.93285      3840.7412      0.99696119
   2543000  -1256.3905      228.53329     -1484.9238      300.65954     -577.21294      3840.7412      0.99696119
   2544000  -1259.413       226.19275     -1485.6057      297.58032     -587.9762       3840.7412      0.99696119
   2545000  -1265.4298      207.97234     -1473.4021      273.60945      81.647674      3840.7412      0.99696119
   2546000  -1234.8242      230.20741     -1465.0317      302.86202      590.67288      3840.7412      0.99696119
   2547000  -1280.7058      220.67169     -1501.3775      290.31678     -417.02071      3840.7412      0.99696119
   2548000  -1283.7531      216.66223     -1500.4153      285.04192     -512.09284      3840.7412      0.99696119
   2549000  -1270.7398      217.15921     -1487.899       285.69575      938.67081      3840.7412      0.99696119
   2550000  -1243.6516      240.4109      -1484.0625      316.28578      2368.5616      3840.7412      0.99696119
   2551000  -1268.5928      214.98003     -1483.5728      282.8288      -145.98065      3840.7412      0.99696119
   2552000  -1251.2702      223.66695     -1474.9371      294.25736      1452.1351      3840.7412      0.99696119
   2553000  -1271.9077      195.10115     -1467.0089      256.67606     -380.867        3840.7412      0.99696119
   2554000  -1255.3802      222.92276     -1478.303       293.2783      -943.6908       3840.7412      0.99696119
   2555000  -1244.2938      235.74938     -1480.0432      310.15307     -1746.7813      3840.7412      0.99696119
   2556000  -1280.186       235.15517     -1515.3412      309.37132     -6.6206861      3840.7412      0.99696119
   2557000  -1287.2718      223.40302     -1510.6748      293.91013      1911.8362      3840.7412      0.99696119
   2558000  -1270.7629      221.39294     -1492.1559      291.26566      1493.755       3840.7412      0.99696119
   2559000  -1282.1487      224.59739     -1506.7461      295.48144     -972.52542      3840.7412      0.99696119
   2560000  -1285.198       227.51054     -1512.7085      299.31401     -1766.7647      3840.7412      0.99696119
   2561000  -1292.9802      232.93344     -1525.9136      306.4484      -242.43231      3840.7412      0.99696119
   2562000  -1302.8594      231.54033     -1534.3997      304.61562      90.536843      3840.7412      0.99696119
   2563000  -1261.3841      225.88877     -1487.2728      297.1804       2681.0377      3840.7412      0.99696119
   2564000  -1272.1557      221.91803     -1494.0738      291.95647      315.30735      3840.7412      0.99696119
   2565000  -1287.3114      220.76534     -1508.0768      290.43998      302.88205      3840.7412      0.99696119
   2566000  -1268.878       226.89434     -1495.7723      298.50332     -37.694357      3840.7412      0.99696119
   2567000  -1259.4156      220.67152     -1480.0871      290.31656     -509.88962      3840.7412      0.99696119
   2568000  -1280.2061      223.4768      -1503.6829      294.0072      -1519.3558      3840.7412      0.99696119
   2569000  -1262.6787      233.68481     -1496.3635      307.43691      583.17288      3840.7412      0.99696119
   2570000  -1275.114       246.24047     -1521.3544      323.95519      1045.6529      3840.7412      0.99696119
   2571000  -1266.6018      241.69568     -1508.2975      317.97605      1447.8903      3840.7412      0.99696119
   2572000  -1233.6707      237.86851     -1471.5393      312.94101      1272.5893      3840.7412      0.99696119
   2573000  -1272.5929      244.37177     -1516.9647      321.49673     -1742.4252      3840.7412      0.99696119
   2574000  -1311.8817      222.48765     -1534.3694      292.70587     -152.74039      3840.7412      0.99696119
   2575000  -1268.3681      229.69827     -1498.0663      302.19219     -293.80596      3840.7412      0.99696119
   2576000  -1278.5919      231.58065     -1510.1725      304.66867     -681.70977      3840.7412      0.99696119
   2577000  -1286.3619      231.08501     -1517.4469      304.0166      -121.07989      3840.7412      0.99696119
   2578000  -1290.4938      213.83527     -1504.3291      281.32275      1224.7424      3840.7412      0.99696119
   2579000  -1254.994       212.13499     -1467.129       279.08585      2423.583       3840.7412      0.99696119
   2580000  -1265.4882      217.15705     -1482.6453      285.6929       1200.4442      3840.7412      0.99696119
   2581000  -1215.3617      236.06224     -1451.424       310.56466     -72.336019      3840.7412      0.99696119
   2582000  -1272.6921      224.85224     -1497.5444      295.81673      995.69187      3840.7412      0.99696119
   2583000  -1280.7431      239.14384     -1519.8869      314.61883      135.43062      3840.7412      0.99696119
   2584000  -1251.9786      237.66365     -1489.6422      312.67149      676.94973      3840.7412      0.99696119
   2585000  -1262.2396      237.78727     -1500.0269      312.83412     -133.22046      3840.7412      0.99696119
   2586000  -1216.983       247.05965     -1464.0426      325.03292      769.07835      3840.7412      0.99696119
   2587000  -1261.7217      220.41731     -1482.1391      289.98212     -1320.9483      3840.7412      0.99696119
   2588000  -1283.6078      224.18253     -1507.7904      294.93566     -1058.5541      3840.7412      0.99696119
   2589000  -1291.0271      225.75513     -1516.7822      297.00458      1153.7523      3840.7412      0.99696119
   2590000  -1289.3106      218.38544     -1507.696       287.30898     -1076.2884      3840.7412      0.99696119
   2591000  -1300.013       227.20035     -1527.2134      298.90592      342.48454      3840.7412      0.99696119
   2592000  -1251.4316      235.8982      -1487.3298      310.34886     -544.04549      3840.7412      0.99696119
   2593000  -1266.1802      219.20397     -1485.3841      288.38585     -154.10116      3840.7412      0.99696119
   2594000  -1292.5964      228.59455     -1521.191       300.74014     -799.23019      3840.7412      0.99696119
   2595000  -1242.4103      227.59621     -1470.0065      299.42671     -592.29086      3840.7412      0.99696119
   2596000  -1284.405       218.75969     -1503.1647      287.80134      1017.0301      3840.7412      0.99696119
   2597000  -1302.9543      212.0944      -1515.0487      279.03246     -1386.342       3840.7412      0.99696119
   2598000  -1259.8088      230.33867     -1490.1475      303.03471      543.45956      3840.7412      0.99696119
   2599000  -1260.5882      248.81077     -1509.399       327.3367      -1298.9133      3840.7412      0.99696119
   2600000  -1240.6988      241.96184     -1482.6606      318.32621     -1114.1794      3840.7412      0.99696119
   2601000  -1220.9349      252.66261     -1473.5976      332.4042       322.62759      3840.7412      0.99696119
   2602000  -1263.9885      234.73923     -1498.7277      308.82411     -1034.5132      3840.7412      0.99696119
   2603000  -1297.1496      212.55282     -1509.7024      279.63556      790.12814      3840.7412      0.99696119
   2604000  -1272.7974      211.42294     -1484.2203      278.14908      725.69263      3840.7412      0.99696119
   2605000  -1240.6224      239.37892     -1480.0013      314.9281      -748.69667      3840.7412      0.99696119
   2606000  -1226.6152      243.12924     -1469.7445      319.86205      1176.6506      3840.7412      0.99696119
   2607000  -1253.4051      221.79989     -1475.205       291.80105     -698.75401      3840.7412      0.99696119
   2608000  -1267.4108      217.75928     -1485.1701      286.48521     -783.61375      3840.7412      0.99696119
   2609000  -1280.6481      209.79849     -1490.4466      276.01194      1196.326       3840.7412      0.99696119
   2610000  -1259.9433      222.53848     -1482.4818      292.77273     -550.14568      3840.7412      0.99696119
   2611000  -1273.2938      224.29878     -1497.5926      295.0886       362.40428      3840.7412      0.99696119
   2612000  -1275.8745      221.33939     -1497.2139      291.19521      1076.1942      3840.7412      0.99696119
   2613000  -1280.5921      216.29661     -1496.8887      284.56091      246.85816      3840.7412      0.99696119
   2614000  -1271.163       233.65996     -1504.823       307.40421      1577.7229      3840.7412      0.99696119
   2615000  -1312.7272      218.49658     -1531.2238      287.45519     -1744.1684      3840.7412      0.99696119
   2616000  -1259.678       246.14227     -1505.8203      323.826        1347.9588      3840.7412      0.99696119
   2617000  -1307.8823      221.42843     -1529.3107      291.31235      124.83698      3840.7412      0.99696119
   2618000  -1245.6095      237.49246     -1483.102       312.44627      525.73563      3840.7412      0.99696119
   2619000  -1298.1304      225.96369     -1524.0941      297.27896     -1822.6627      3840.7412      0.99696119
   2620000  -1274.5944      231.48491     -1506.0793      304.5427       531.02504      3840.7412      0.99696119
   2621000  -1237.2768      250.7864      -1488.0632      329.93585     -1814.5311      3840.7412      0.99696119
   2622000  -1266.2105      217.83334     -1484.0438      286.58263     -1944.0808      3840.7412      0.99696119
   2623000  -1249.6776      247.16557     -1496.8432      325.17226      302.22972      3840.7412      0.99696119
   2624000  -1235.1759      234.55965     -1469.7355      308.58785     -980.47786      3840.7412      0.99696119
   2625000  -1253.8091      220.37254     -1474.1816      289.92322      1106.6596      3840.7412      0.99696119
   2626000  -1249.0177      226.43536     -1475.4531      297.89949     -2421.1373      3840.7412      0.99696119
   2627000  -1229.8912      244.6354      -1474.5266      321.84356     -126.39858      3840.7412      0.99696119
   2628000  -1260.7649      221.63333     -1482.3982      291.58191      1511.869       3840.7412      0.99696119
   2629000  -1250.7548      228.71877     -1479.4735      300.90357      828.6224       3840.7412      0.99696119
   2630000  -1236.7911      230.14639     -1466.9375      302.78174     -1283.5805      3840.7412      0.99696119
   2631000  -1261.122       229.80205     -1490.924       302.32873      911.0814       3840.7412      0.99696119
   2632000  -1243.8698      244.65941     -1488.5292      321.87514     -797.84873      3840.7412      0.99696119
   2633000  -1273.3648      222.61533     -1495.9801      292.87384     -2004.604       3840.7412      0.99696119
   2634000  -1256.517       235.1285      -1491.6455      309.33624     -255.43603      3840.7412      0.99696119
   2635000  -1239.9735      228.79456     -1468.768       301.00327      942.55921      3840.7412      0.99696119
   2636000  -1278.0258      222.2388      -1500.2646      292.37848      1204.3788      3840.7412      0.99696119
   2637000  -1269.7787      218.66804     -1488.4467      287.68077     -969.13304      3840.7412      0.99696119
   2638000  -1247.7777      231.85202     -1479.6298      305.02568     -877.13277      3840.7412      0.99696119
   2639000  -1284.6903      235.86341     -1520.5537      310.30308      1005.7755      3840.7412      0.99696119
   2640000  -1260.4837      224.50786     -1484.9915      295.36366     -1883.1541      3840.7412      0.99696119
   2641000  -1245.9049      237.38912     -1483.294       312.31031     -522.53045      3840.7412      0.99696119
   2642000  -1269.822       219.76678     -1489.5887      289.12628     -1153.2999      3840.7412      0.99696119
   2643000  -1304.1412      213.65304     -1517.7942      281.08301     -12.449818      3840.7412      0.99696119
   2644000  -1303.8214      229.96414     -1533.7855      302.54198     -359.4517       3840.7412      0.99696119
   2645000  -1313.5083      211.56039     -1525.0687      278.32991      273.97646      3840.7412      0.99696119
   2646000  -1267.8253      253.08471     -1520.91        332.95951      1855.7734      3840.7412      0.99696119
   2647000  -1266.5254      231.95781     -1498.4832      305.16486      1008.8274      3840.7412      0.99696119
   2648000  -1274.6423      232.07139     -1506.7136      305.31428     -1136.4054      3840.7412      0.99696119
   2649000  -1279.1983      230.19996     -1509.3982      302.85222      582.92794      3840.7412      0.99696119
   2650000  -1301.3206      225.9736      -1527.2942      297.292        1166.459       3840.7412      0.99696119
   2651000  -1239.305       226.73839     -1466.0434      298.29816      1228.3591      3840.7412      0.99696119
   2652000  -1265.0595      223.63389     -1488.6933      294.21387     -2122.8848      3840.7412      0.99696119
   2653000  -1279.4386      201.73005     -1481.1687      265.39707     -370.67082      3840.7412      0.99696119
   2654000  -1270.3779      213.37715     -1483.755       280.72004     -245.85711      3840.7412      0.99696119
   2655000  -1208.7865      237.88054     -1446.6671      312.95683      1903.6936      3840.7412      0.99696119
   2656000  -1251.6063      238.94561     -1490.5519      314.35804     -64.666059      3840.7412      0.99696119
   2657000  -1254.8841      229.64322     -1484.5274      302.11977      1613.4749      3840.7412      0.99696119
   2658000  -1232.7929      250.24585     -1483.0388      329.2247       579.27234      3840.7412      0.99696119
   2659000  -1284.3439      214.99003     -1499.3339      282.84196     -358.25025      3840.7412      0.99696119
   2660000  -1269.8538      215.25155     -1485.1054      283.18602     -110.65939      3840.7412      0.99696119
   2661000  -1243.9877      242.90463     -1486.8923      319.56655      486.53786      3840.7412      0.99696119
   2662000  -1290.7663      226.89123     -1517.6575      298.49924     -813.02986      3840.7412      0.99696119
   2663000  -1273.2024      217.02055     -1490.2229      285.51332     -151.53498      3840.7412      0.99696119
   2664000  -1261.6487      230.82649     -1492.4752      303.67649     -371.79837      3840.7412      0.99696119
   2665000  -1281.732       240.2817      -1522.0137      316.11581      575.00982      3840.7412      0.99696119
   2666000  -1248.6992      220.22824     -1468.9274      289.73338     -67.98203       3840.7412      0.99696119
   2667000  -1267.5588      247.1847      -1514.7435      325.19743     -491.85972      3840.7412      0.99696119
   2668000  -1279.5682      212.61104     -1492.1792      279.71215      649.0787       3840.7412      0.99696119
   2669000  -1259.7657      260.53606     -1520.3018      342.76254     -1532.6168      3840.7412      0.99696119
   2670000  -1231.549       243.72514     -1475.2741      320.64601      709.75464      3840.7412      0.99696119
   2671000  -1244.089       226.17219     -1470.2612      297.55327      2924.5959      3840.7412      0.99696119
   2672000  -1275.4154      227.47807     -1502.8934      299.27129     -536.56         3840.7412      0.99696119
   2673000  -1260.8421      223.50137     -1484.3434      294.03952      969.59868      3840.7412      0.99696119
   2674000  -1277.8483      229.67        -1507.5183      302.155       -495.93839      3840.7412      0.99696119
   2675000  -1237.139       248.33222     -1485.4712      326.70711      729.57953      3840.7412      0.99696119
   2676000  -1261.9667      231.6479      -1493.6146      304.75714      823.68965      3840.7412      0.99696119
   2677000  -1236.5878      219.86641     -1456.4542      289.25734      993.45996      3840.7412      0.99696119
   2678000  -1242.5069      230.34975     -1472.8567      303.04928      796.56926      3840.7412      0.99696119
   2679000  -1243.9079      245.6596      -1489.5675      323.19101     -863.09419      3840.7412      0.99696119
   2680000  -1246.0976      249.37556     -1495.4731      328.07973     -637.67206      3840.7412      0.99696119
   2681000  -1304.4875      216.48644     -1520.9739      284.81064      647.36888      3840.7412      0.99696119
   2682000  -1284.7252      221.23088     -1505.9561      291.05245      2428.128       3840.7412      0.99696119
   2683000  -1258.9181      234.35047     -1493.2685      308.31265     -947.68276      3840.7412      0.99696119
   2684000  -1267.2072      224.64884     -1491.856       295.54914      127.00879      3840.7412      0.99696119
   2685000  -1241.6108      232.80575     -1474.4166      306.28041     -1224.0661      3840.7412      0.99696119
   2686000  -1259.1632      219.88593     -1479.0492      289.28303      50.405409      3840.7412      0.99696119
   2687000  -1271.9223      225.28952     -1497.2118      296.39202     -1407.7377      3840.7412      0.99696119
   2688000  -1271.8568      231.46939     -1503.3262      304.52229     -450.87801      3840.7412      0.99696119
   2689000  -1282.6424      220.0346      -1502.677       289.47862      2590.9907      3840.7412      0.99696119
   2690000  -1266.3947      219.30392     -1485.6986      288.51734     -1028.4547      3840.7412      0.99696119
   2691000  -1276.6877      226.01085     -1502.6985      297.341       -1072.8566      3840.7412      0.99696119
   2692000  -1255.7986      217.69483     -1473.4934      286.40041      642.06643      3840.7412      0.99696119
   2693000  -1245.2467      230.93428     -1476.181       303.81829     -168.65356      3840.7412      0.99696119
   2694000  -1269.6783      238.1297      -1507.808       313.28463      642.68918      3840.7412      0.99696119
   2695000  -1300.4542      212.71081     -1513.165       279.84341     -1042.6352      3840.7412      0.99696119
   2696000  -1246.2076      230.09867     -1476.3062      302.71897     -368.78234      3840.7412      0.99696119
   2697000  -1224.3539      229.33423     -1453.6881      301.71327      955.48449      3840.7412      0.99696119
   2698000  -1258.7345      234.3568      -1493.0913      308.32098     -1235.2161      3840.7412      0.99696119
   2699000  -1248.6689      242.18911     -1490.858       318.6252       196.04867      3840.7412      0.99696119
   2700000  -1299.1774      226.95699     -1526.1344      298.58575      716.65105      3840.7412      0.99696119
   2701000  -1269.9529      219.72652     -1489.6794      289.07331     -1537.7766      3840.7412      0.99696119
   2702000  -1298.6868      216.08902     -1514.7758      284.2878      -2338.8383      3840.7412      0.99696119
   2703000  -1264.4499      213.79425     -1478.2441      281.26879      129.37788      3840.7412      0.99696119
   2704000  -1265.025       225.60918     -1490.6342      296.81257      1345.6017      3840.7412      0.99696119
   2705000  -1250.1188      231.43128     -1481.5501      304.47214      660.2199       3840.7412      0.99696119
   2706000  -1284.8402      212.44743     -1497.2876      279.4969       838.35159      3840.7412      0.99696119
   2707000  -1276.1905      233.47931     -1509.6698      307.16655     -918.40263      3840.7412      0.99696119
   2708000  -1262.2329      224.06753     -1486.3004      294.78436      253.86761      3840.7412      0.99696119
   2709000  -1274.1473      219.65514     -1493.8024      288.97941     -1354.9868      3840.7412      0.99696119
   2710000  -1256.975       226.04536     -1483.0203      297.38641     -735.83643      3840.7412      0.99696119
   2711000  -1224.2214      249.13889     -1473.3602      327.76837      138.26899      3840.7412      0.99696119
   2712000  -1264.4736      211.69973     -1476.1734      278.51322      1488.0474      3840.7412      0.99696119
   2713000  -1224.0035      223.79967     -1447.8032      294.43197      1684.4533      3840.7412      0.99696119
   2714000  -1280.2692      225.87129     -1506.1405      297.15741      604.75277      3840.7412      0.99696119
   2715000  -1296.3006      199.17962     -1495.4802      262.04171     -1334.3261      3840.7412      0.99696119
   2716000  -1310.004       220.76391     -1530.7679      290.4381      -912.2461       3840.7412      0.99696119
   2717000  -1266.9241      222.63948     -1489.5636      292.90561      941.63693      3840.7412      0.99696119
   2718000  -1296.5854      231.07148     -1527.6569      303.99879     -77.038442      3840.7412      0.99696119
   2719000  -1272.0292      216.03723     -1488.0664      284.21966      757.55573      3840.7412      0.99696119
   2720000  -1245.3648      225.79493     -1471.1598      297.05694      236.11129      3840.7412      0.99696119
   2721000  -1282.2303      219.77146     -1502.0017      289.13244      1242.3672      3840.7412      0.99696119
   2722000  -1316.9532      219.75677     -1536.71        289.11311      1431.5808      3840.7412      0.99696119
   2723000  -1270.424       208.85083     -1479.2748      274.76519     -408.92143      3840.7412      0.99696119
   2724000  -1270.9391      233.34772     -1504.2869      306.99342     -652.49965      3840.7412      0.99696119
   2725000  -1228.8126      249.93034     -1478.743       328.8096       174.91503      3840.7412      0.99696119
   2726000  -1240.0221      225.87097     -1465.8931      297.15698     -515.02331      3840.7412      0.99696119
   2727000  -1247.3448      229.81095     -1477.1557      302.34043     -1825.452       3840.7412      0.99696119
   2728000  -1230.7631      237.33527     -1468.0984      312.23947     -601.81942      3840.7412      0.99696119
   2729000  -1276.5335      213.89722     -1490.4308      281.40426      1142.0127      3840.7412      0.99696119
   2730000  -1248.6544      230.5891      -1479.2435      303.36417      996.06051      3840.7412      0.99696119
   2731000  -1253.8112      222.25015     -1476.0614      292.39341     -679.29697      3840.7412      0.99696119
   2732000  -1337.6938      210.33113     -1548.025       276.71269      2022.6209      3840.7412      0.99696119
   2733000  -1264.8456      223.48937     -1488.3349      294.02373     -1764.8267      3840.7412      0.99696119
   2734000  -1253.162       235.80713     -1488.9692      310.22904      1489.7903      3840.7412      0.99696119
   2735000  -1275.3858      238.38588     -1513.7716      313.62165     -776.67379      3840.7412      0.99696119
   2736000  -1238.7203      239.27946     -1477.9998      314.79726     -359.71245      3840.7412      0.99696119
   2737000  -1225.0165      248.10361     -1473.1201      326.40636     -1683.455       3840.7412      0.99696119
   2738000  -1267.9074      218.37254     -1486.2799      287.292        2552.2521      3840.7412      0.99696119
   2739000  -1297.6414      208.79594     -1506.4373      274.69298      824.52348      3840.7412      0.99696119
   2740000  -1292.9082      224.14244     -1517.0507      294.88292      1035.1665      3840.7412      0.99696119
   2741000  -1267.2027      232.62795     -1499.8307      306.0465       814.87074      3840.7412      0.99696119
   2742000  -1246.4133      236.72695     -1483.1402      311.43916      2063.2463      3840.7412      0.99696119
   2743000  -1262.7338      224.24516     -1486.979       295.01805      1618.1612      3840.7412      0.99696119
   2744000  -1281.6106      208.68043     -1490.2911      274.54101      329.34096      3840.7412      0.99696119
   2745000  -1268.1078      226.9144      -1495.0222      298.52972      2184.8267      3840.7412      0.99696119
   2746000  -1253.4133      222.71942     -1476.1327      293.01078      575.56518      3840.7412      0.99696119
   2747000  -1232.0869      260.32904     -1492.4159      342.49018     -142.43773      3840.7412      0.99696119
   2748000  -1270.3948      235.2429      -1505.6377      309.48674      536.6801       3840.7412      0.99696119
   2749000  -1262.0017      225.35906     -1487.3607      296.48351      692.8207       3840.7412      0.99696119
   2750000  -1283.435       222.92186     -1506.3569      293.27712     -28.789323      3840.7412      0.99696119
   2751000  -1246.9663      241.26273     -1488.2291      317.40646     -236.06599      3840.7412      0.99696119
   2752000  -1256.4339      222.83248     -1479.2664      293.15953      1290.6638      3840.7412      0.99696119
   2753000  -1283.7305      236.70579     -1520.4363      311.41133      2347.9547      3840.7412      0.99696119
   2754000  -1335.4056      213.63159     -1549.0372      281.05479      1701.1223      3840.7412      0.99696119
   2755000  -1286.525       224.02981     -1510.5548      294.73474     -189.92108      3840.7412      0.99696119
   2756000  -1292.748       230.32507     -1523.073       303.01681      1526.2078      3840.7412      0.99696119
   2757000  -1246.6542      246.98674     -1493.641       324.93699     -547.79529      3840.7412      0.99696119
   2758000  -1281.665       233.61919     -1515.2842      307.35058      1250.0166      3840.7412      0.99696119
   2759000  -1270.3016      242.13332     -1512.4349      318.55181      1589.7075      3840.7412      0.99696119
   2760000  -1279.7922      233.75255     -1513.5447      307.52602      1160.0673      3840.7412      0.99696119
   2761000  -1254.1763      245.43394     -1499.6102      322.89412      800.35055      3840.7412      0.99696119
   2762000  -1282.5968      200.01992     -1482.6167      263.14721      296.80545      3840.7412      0.99696119
   2763000  -1240.0308      231.52972     -1471.5605      304.60166      785.7252       3840.7412      0.99696119
   2764000  -1273.2127      211.07243     -1484.2852      277.68794     -515.61155      3840.7412      0.99696119
   2765000  -1261.8156      220.43546     -1482.2511      290.006       -45.182139      3840.7412      0.99696119
   2766000  -1234.8447      224.00526     -1458.85        294.70244      3.3990695      3840.7412      0.99696119
   2767000  -1326.5242      211.36913     -1537.8933      278.07829      533.63764      3840.7412      0.99696119
   2768000  -1277.1751      240.43321     -1517.6083      316.31514      308.16338      3840.7412      0.99696119
   2769000  -1292.5443      225.27223     -1517.8165      296.36927     -1527.823       3840.7412      0.99696119
   2770000  -1251.4051      236.99089     -1488.3959      311.7864      -1610.4749      3840.7412      0.99696119
   2771000  -1262.3296      228.66878     -1490.9984      300.83779     -596.60324      3840.7412      0.99696119
   2772000  -1250.9937      245.4435      -1496.4372      322.9067      -203.45725      3840.7412      0.99696119
   2773000  -1263.7478      226.49166     -1490.2395      297.97357     -1506.3512      3840.7412      0.99696119
   2774000  -1290.3875      203.23128     -1493.6187      267.37209     -493.1188       3840.7412      0.99696119
   2775000  -1249.1778      230.93229     -1480.1101      303.81568      379.91837      3840.7412      0.99696119
   2776000  -1237.4878      261.66512     -1499.1529      344.24795     -843.80674      3840.7412      0.99696119
   2777000  -1272.9461      239.4406      -1512.3867      315.00926      526.95865      3840.7412      0.99696119
   2778000  -1224.3771      236.51101     -1460.8881      311.15507      1039.1524      3840.7412      0.99696119
   2779000  -1274.8703      220.90481     -1495.7751      290.62347      1523.1973      3840.7412      0.99696119
   2780000  -1275.289       222.29155     -1497.5805      292.44788      844.5827       3840.7412      0.99696119
   2781000  -1247.681       221.18729     -1468.8683      290.99511     -816.44447      3840.7412      0.99696119
   2782000  -1260.4281      256.39047     -1516.8186      337.30858     -901.56667      3840.7412      0.99696119
   2783000  -1294.3255      209.27745     -1503.6029      275.32646     -686.90897      3840.7412      0.99696119
   2784000  -1271.5446      229.9442      -1501.4888      302.51574      1506.8279      3840.7412      0.99696119
   2785000  -1298.3004      206.68799     -1504.9884      271.91976      394.91759      3840.7412      0.99696119
   2786000  -1274.177       207.65711     -1481.8341      273.19474      79.50312       3840.7412      0.99696119
   2787000  -1281.9131      209.20853     -1491.1216      275.23578      199.2204       3840.7412      0.99696119
   2788000  -1248.1587      233.40136     -1481.56        307.06399      133.67687      3840.7412      0.99696119
   2789000  -1265.2696      230.50181     -1495.7715      303.24934      130.26951      3840.7412      0.99696119
   2790000  -1294.3627      218.90551     -1513.2682      287.99319     -80.56027       3840.7412      0.99696119
   2791000  -1263.8471      238.44876     -1502.2958      313.70439     -472.83852      3840.7412      0.99696119
   2792000  -1229.5279      240.44149     -1469.9694      316.32602     -639.44229      3840.7412      0.99696119
   2793000  -1286.8983      242.41578     -1529.3141      318.92342     -908.41141      3840.7412      0.99696119
   2794000  -1276.679       210.44871     -1487.1277      276.86738     -505.31077      3840.7412      0.99696119
   2795000  -1269.3675      232.89295     -1502.2605      306.39513      330.44077      3840.7412      0.99696119
   2796000  -1278.0842      233.69512     -1511.7793      307.45047     -864.07394      3840.7412      0.99696119
   2797000  -1292.2463      222.06031     -1514.3066      292.14366     -969.54931      3840.7412      0.99696119
   2798000  -1269.771       216.76584     -1486.5368      285.17822      2915.1836      3840.7412      0.99696119
   2799000  -1253.4454      214.66753     -1468.113       282.41768      1578.2849      3840.7412      0.99696119
   2800000  -1306.4796      219.81603     -1526.2956      289.19107     -1071.2101      3840.7412      0.99696119
   2801000  -1261.8477      241.98824     -1503.836       318.36094      1031.1726      3840.7412      0.99696119
   2802000  -1267.8242      208.01131     -1475.8355      273.66072     -1879.2917      3840.7412      0.99696119
   2803000  -1250.9721      223.14695     -1474.119       293.57324      1866.8907      3840.7412      0.99696119
   2804000  -1300.5538      230.789       -1531.3428      303.62716      302.10364      3840.7412      0.99696119
   2805000  -1264.6711      209.04311     -1473.7142      275.01817      1971.7165      3840.7412      0.99696119
   2806000  -1280.9859      237.50516     -1518.491       312.46298     -574.98025      3840.7412      0.99696119
   2807000  -1267.7202      224.66139     -1492.3816      295.56565      2874.5138      3840.7412      0.99696119
   2808000  -1260.3754      229.41733     -1489.7928      301.82259      650.5363       3840.7412      0.99696119
   2809000  -1263.4709      226.66189     -1490.1328      298.19752      934.54525      3840.7412      0.99696119
   2810000  -1300.5423      214.2308      -1514.7731      281.84311     -245.96208      3840.7412      0.99696119
   2811000  -1281.0546      216.75858     -1497.8132      285.16867     -986.75549      3840.7412      0.99696119
   2812000  -1260.5243      233.94531     -1494.4696      307.77962     -141.38931      3840.7412      0.99696119
   2813000  -1295.5582      217.54448     -1513.1027      286.2026      -150.58262      3840.7412      0.99696119
   2814000  -1259.2302      239.07097     -1498.3012      314.52296     -152.00758      3840.7412      0.99696119
   2815000  -1288.7813      233.62458     -1522.4059      307.35767      873.13903      3840.7412      0.99696119
   2816000  -1261.2355      227.39922     -1488.6347      299.16755     -78.691511      3840.7412      0.99696119
   2817000  -1300.7768      194.54691     -1495.3237      255.94689     -1508.8267      3840.7412      0.99696119
   2818000  -1269.2166      216.81525     -1486.0319      285.24323      787.49921      3840.7412      0.99696119
   2819000  -1245.6078      248.53883     -1494.1466      326.97892     -1127.2037      3840.7412      0.99696119
   2820000  -1263.7032      213.78116     -1477.4844      281.25156     -785.65385      3840.7412      0.99696119
   2821000  -1284.3191      212.33061     -1496.6497      279.34321      572.21926      3840.7412      0.99696119
   2822000  -1233.8702      237.68448     -1471.5547      312.69889     -2792.7633      3840.7412      0.99696119
   2823000  -1217.5667      243.52252     -1461.0893      320.37945      312.90542      3840.7412      0.99696119
   2824000  -1256.357       220.09047     -1476.4475      289.55213     -1020.1781      3840.7412      0.99696119
   2825000  -1251.391       240.04865     -1491.4396      315.80921      2060.4786      3840.7412      0.99696119
   2826000  -1289.7558      224.39513     -1514.1509      295.21535     -468.84198      3840.7412      0.99696119
   2827000  -1241.1089      236.33411     -1477.443       310.92234      2734.8553      3840.7412      0.99696119
   2828000  -1285.2123      234.69795     -1519.9103      308.7698       223.09051      3840.7412      0.99696119
   2829000  -1280.648       223.60954     -1504.2575      294.18183      915.91638      3840.7412      0.99696119
   2830000  -1282.4717      224.13096     -1506.6026      294.86781     -1917.8776      3840.7412      0.99696119
   2831000  -1235.8614      217.24429     -1453.1057      285.80768      1433.0651      3840.7412      0.99696119
   2832000  -1282.9437      226.53938     -1509.4831      298.03634     -495.54432      3840.7412      0.99696119
   2833000  -1260.8373      215.03378     -1475.871       282.89952      547.33353      3840.7412      0.99696119
   2834000  -1241.2182      242.06028     -1483.2784      318.45572      800.11571      3840.7412      0.99696119
   2835000  -1303.5247      230.11536     -1533.6401      302.74092      1531.1288      3840.7412      0.99696119
   2836000  -1296.5118      227.14281     -1523.6546      298.83022      1239.2421      3840.7412      0.99696119
   2837000  -1248.212       229.50115     -1477.7132      301.93286      334.23565      3840.7412      0.99696119
   2838000  -1294.1376      220.74617     -1514.8838      290.41477     -610.33808      3840.7412      0.99696119
   2839000  -1243.1571      248.98023     -1492.1374      327.55964      1670.6357      3840.7412      0.99696119
   2840000  -1277.0793      227.78815     -1504.8674      299.67923     -209.45627      3840.7412      0.99696119
   2841000  -1274.4028      215.17202     -1489.5748      283.08138     -216.6724       3840.7412      0.99696119
   2842000  -1246.4791      236.15615     -1482.6352      310.68821     -465.45009      3840.7412      0.99696119
   2843000  -1274.1743      207.01533     -1481.1896      272.3504       866.72238      3840.7412      0.99696119
   2844000  -1265.1069      218.10606     -1483.2129      286.94142     -1966.2973      3840.7412      0.99696119
   2845000  -1266.1425      223.35145     -1489.494       293.84228     -750.55341      3840.7412      0.99696119
   2846000  -1254.0693      236.30871     -1490.378       310.88893     -640.56133      3840.7412      0.99696119
   2847000  -1258.1785      217.93596     -1476.1144      286.71764     -252.75648      3840.7412      0.99696119
   2848000  -1282.2514      232.70818     -1514.9596      306.15205      1061.0841      3840.7412      0.99696119
   2849000  -1282.9716      226.39346     -1509.3651      297.84437     -397.32295      3840.7412      0.99696119
   2850000  -1229.2061      234.52501     -1463.7312      308.54227      491.25934      3840.7412      0.99696119
   2851000  -1270.1169      226.01722     -1496.1341      297.34938     -845.85988      3840.7412      0.99696119
   2852000  -1257.6123      218.30459     -1475.9169      287.20261      1370.4561      3840.7412      0.99696119
   2853000  -1248.4005      208.57902     -1456.9795      274.4076      -641.03061      3840.7412      0.99696119
   2854000  -1273.0616      213.51669     -1486.5783      280.90363      1301.0727      3840.7412      0.99696119
   2855000  -1235.5133      221.49588     -1457.0092      291.40109     -1564.0377      3840.7412      0.99696119
   2856000  -1271.3319      229.76471     -1501.0966      302.2796      -370.16312      3840.7412      0.99696119
   2857000  -1242.1314      237.87011     -1480.0015      312.94311     -399.41294      3840.7412      0.99696119
   2858000  -1249.4639      230.34789     -1479.8118      303.04684      54.851726      3840.7412      0.99696119
   2859000  -1257.3581      231.59035     -1488.9485      304.68143      1502.7456      3840.7412      0.99696119
   2860000  -1287.3276      221.30719     -1508.6348      291.15285     -180.1977       3840.7412      0.99696119
   2861000  -1264.4337      238.674       -1503.1077      314.0007       937.91313      3840.7412      0.99696119
   2862000  -1256.3236      237.28173     -1493.6054      312.16903      1553.602       3840.7412      0.99696119
   2863000  -1271.6338      229.24952     -1500.8833      301.60182     -1566.6109      3840.7412      0.99696119
   2864000  -1259.2923      227.31359     -1486.6059      299.05489      502.09594      3840.7412      0.99696119
   2865000  -1254.8066      236.80553     -1491.6122      311.54254      438.07443      3840.7412      0.99696119
   2866000  -1269.1126      230.04836     -1499.1609      302.65277      607.9604       3840.7412      0.99696119
   2867000  -1249.7049      260.56138     -1510.2663      342.79586     -190.43744      3840.7412      0.99696119
   2868000  -1270.119       203.39494     -1473.5139      267.58741      680.9736       3840.7412      0.99696119
   2869000  -1265.7307      221.13946     -1486.8701      290.93218     -1770.9159      3840.7412      0.99696119
   2870000  -1260.5726      216.92747     -1477.5001      285.39086      379.15884      3840.7412      0.99696119
   2871000  -1270.4934      243.89216     -1514.3855      320.86574     -1524.3283      3840.7412      0.99696119
   2872000  -1248.1437      237.53629     -1485.68        312.50394      615.01205      3840.7412      0.99696119
   2873000  -1286.4943      236.15343     -1522.6477      310.68464      1273.2034      3840.7412      0.99696119
   2874000  -1261.0697      223.02476     -1484.0945      293.41249      964.08079      3840.7412      0.99696119
   2875000  -1244.0468      231.43062     -1475.4774      304.47128     -710.13879      3840.7412      0.99696119
   2876000  -1235.1534      235.03113     -1470.1846      309.20813      1101.2405      3840.7412      0.99696119
   2877000  -1261.9706      244.54825     -1506.5189      321.7289      -1201.9619      3840.7412      0.99696119
   2878000  -1205.2873      250.30547     -1455.5928      329.30313      118.64815      3840.7412      0.99696119
   2879000  -1258.5829      221.23644     -1479.8194      291.05977      393.96286      3840.7412      0.99696119
   2880000  -1286.1425      201.17092     -1487.3135      264.66147     -326.47732      3840.7412      0.99696119
   2881000  -1234.7985      236.35452     -1471.153       310.94919      1219.9484      3840.7412      0.99696119
   2882000  -1211.1672      241.57231     -1452.7395      317.81374      666.96871      3840.7412      0.99696119
   2883000  -1281.2367      219.19068     -1500.4273      288.36836      187.40363      3840.7412      0.99696119
   2884000  -1258.3154      231.70284     -1490.0183      304.82942     -909.41221      3840.7412      0.99696119
   2885000  -1310.811       208.44476     -1519.2557      274.23096      582.40436      3840.7412      0.99696119
   2886000  -1282.256       224.8222      -1507.0782      295.77722      1032.4942      3840.7412      0.99696119
   2887000  -1265.3304      225.52556     -1490.8559      296.70256      2655.8333      3840.7412      0.99696119
   2888000  -1305.1292      214.48956     -1519.6188      282.18354      650.46754      3840.7412      0.99696119
   2889000  -1309.9812      232.81785     -1542.799       306.29632     -312.51305      3840.7412      0.99696119
   2890000  -1278.2368      228.68573     -1506.9225      300.86009      914.58436      3840.7412      0.99696119
   2891000  -1275.2878      238.38812     -1513.6759      313.6246      -1104.9931      3840.7412      0.99696119
   2892000  -1276.3528      225.80123     -1502.154       297.06522      217.15522      3840.7412      0.99696119
   2893000  -1270.8004      238.86139     -1509.6617      314.24724      777.90055      3840.7412      0.99696119
   2894000  -1274.0192      220.53664     -1494.5558      290.13911      1404.4246      3840.7412      0.99696119
   2895000  -1265.3277      210.34668     -1475.6744      276.73315      770.93732      3840.7412      0.99696119
   2896000  -1254.0799      233.36505     -1487.445       307.01622      1341.6999      3840.7412      0.99696119
   2897000  -1240.4579      219.79124     -1460.2491      289.15846      1072.8805      3840.7412      0.99696119
   2898000  -1281.786       217.34695     -1499.1329      285.94274      1336.1439      3840.7412      0.99696119
   2899000  -1286.7826      229.70179     -1516.4844      302.19683     -1210.0477      3840.7412      0.99696119
   2900000  -1283.404       222.02775     -1505.4317      292.10082      283.2401       3840.7412      0.99696119
   2901000  -1291.4897      209.50717     -1500.9968      275.62868     -665.10295      3840.7412      0.99696119
   2902000  -1301.3695      226.74148     -1528.111       298.30222     -507.41707      3840.7412      0.99696119
   2903000  -1319.3158      201.27307     -1520.5889      264.79586      1199.972       3840.7412      0.99696119
   2904000  -1266.6451      230.7829      -1497.428       303.61915      101.29903      3840.7412      0.99696119
   2905000  -1261.2131      220.38235     -1481.5954      289.93612     -328.71643      3840.7412      0.99696119
   2906000  -1237.9919      242.82531     -1480.8173      319.46219     -53.87239       3840.7412      0.99696119
   2907000  -1258.1174      227.03122     -1485.1486      298.68341      298.4631       3840.7412      0.99696119
   2908000  -1261.7587      236.90269     -1498.6614      311.67036      572.74625      3840.7412      0.99696119
   2909000  -1263.4358      241.68512     -1505.1209      317.96215      716.80014      3840.7412      0.99696119
   2910000  -1288.4478      242.86098     -1531.3088      319.50913     -457.83541      3840.7412      0.99696119
   2911000  -1261.7125      238.48987     -1500.2023      313.75847     -1740.2124      3840.7412      0.99696119
   2912000  -1284.2059      203.48955     -1487.6954      267.71188      215.68533      3840.7412      0.99696119
   2913000  -1285.0366      216.90761     -1501.9442      285.36474     -533.7371       3840.7412      0.99696119
   2914000  -1273.5842      241.09803     -1514.6822      317.18978     -1264.0048      3840.7412      0.99696119
   2915000  -1288.0041      192.61369     -1480.6178      253.40353     -1168.3661      3840.7412      0.99696119
   2916000  -1253.2822      224.01625     -1477.2985      294.7169      -903.4342       3840.7412      0.99696119
   2917000  -1288.4971      212.7241      -1501.2212      279.86089     -887.25845      3840.7412      0.99696119
   2918000  -1271.3941      245.57453     -1516.9687      323.07907      122.5492       3840.7412      0.99696119
   2919000  -1296.0007      218.23714     -1514.2379      287.11388      1257.7827      3840.7412      0.99696119
   2920000  -1272.9959      246.07117     -1519.0671      323.73247      2035.5317      3840.7412      0.99696119
   2921000  -1250.3845      218.54397     -1468.9285      287.51754     -138.96596      3840.7412      0.99696119
   2922000  -1265.5586      233.51493     -1499.0735      307.21341     -36.032788      3840.7412      0.99696119
   2923000  -1295.9474      231.35614     -1527.3036      304.37329     -86.067484      3840.7412      0.99696119
   2924000  -1217.9549      243.00476     -1460.9596      319.69828      1356.4914      3840.7412      0.99696119
   2925000  -1266.582       222.60893     -1489.1909      292.86542     -46.270797      3840.7412      0.99696119
   2926000  -1255.6278      216.05231     -1471.6801      284.2395       637.61138      3840.7412      0.99696119
   2927000  -1237.7062      238.07445     -1475.7807      313.21194     -545.38709      3840.7412      0.99696119
   2928000  -1251.7401      224.73372     -1476.4738      295.66081      923.10833      3840.7412      0.99696119
   2929000  -1267.1907      227.43519     -1494.6258      299.21488      2132.7183      3840.7412      0.99696119
   2930000  -1227.6124      241.82211     -1469.4345      318.14237      88.502388      3840.7412      0.99696119
   2931000  -1277.7161      226.63047     -1504.3466      298.15618     -1287.4208      3840.7412      0.99696119
   2932000  -1291.7947      206.31662     -1498.1113      271.43118      2000.9441      3840.7412      0.99696119
   2933000  -1255.1394      242.71947     -1497.8589      319.32295      144.36324      3840.7412      0.99696119
   2934000  -1246.5964      240.68933     -1487.2857      316.65209     -308.23832      3840.7412      0.99696119
   2935000  -1274.7071      221.04753     -1495.7546      290.81123     -275.28575      3840.7412      0.99696119
   2936000  -1249.9606      252.02588     -1501.9865      331.5665      -575.56311      3840.7412      0.99696119
   2937000  -1237.2581      241.68462     -1478.9427      317.96149      17.471914      3840.7412      0.99696119
   2938000  -1267.5886      238.88423     -1506.4728      314.27729      1545.2269      3840.7412      0.99696119
   2939000  -1251.4467      241.2342      -1492.6809      317.36892      1759.2327      3840.7412      0.99696119
   2940000  -1290.8498      218.12314     -1508.9729      286.96389      447.24033      3840.7412      0.99696119
   2941000  -1294.4089      197.80373     -1492.2127      260.23158     -1234.7706      3840.7412      0.99696119
   2942000  -1273.034       222.08513     -1495.1192      292.17631      809.10148      3840.7412      0.99696119
   2943000  -1245.3409      211.12135     -1456.4623      277.75231     -112.33528      3840.7412      0.99696119
   2944000  -1255.018       223.03049     -1478.0485      293.42003     -241.70159      3840.7412      0.99696119
   2945000  -1264.585       221.34866     -1485.9337      291.2074      -420.28153      3840.7412      0.99696119
   2946000  -1263.0267      238.13905     -1501.1657      313.29693      771.88503      3840.7412      0.99696119
   2947000  -1257.9077      231.87436     -1489.7821      305.05508     -358.88023      3840.7412      0.99696119
   2948000  -1253.7869      243.91761     -1497.7045      320.89922      370.17944      3840.7412      0.99696119
   2949000  -1311.1815      213.75865     -1524.9402      281.22195     -441.44912      3840.7412      0.99696119
   2950000  -1274.2828      214.27826     -1488.561       281.90556     -1635.8711      3840.7412      0.99696119
   2951000  -1263.5706      206.04643     -1469.6171      271.07572      169.3771       3840.7412      0.99696119
   2952000  -1315.607       209.4017      -1525.0087      275.48993     -618.67397      3840.7412      0.99696119
   2953000  -1284.0548      215.42991     -1499.4848      283.42067     -467.78781      3840.7412      0.99696119
   2954000  -1268.3703      233.13008     -1501.5004      306.70709      1175.2973      3840.7412      0.99696119
   2955000  -1227.8278      244.51832     -1472.3461      321.68952     -969.44823      3840.7412      0.99696119
   2956000  -1247.8003      234.42965     -1482.23        308.41682     -81.015669      3840.7412      0.99696119
   2957000  -1283.6603      222.71058     -1506.3708      292.99916      338.3596       3840.7412      0.99696119
   2958000  -1265.9121      221.45884     -1487.3709      291.35236      609.14943      3840.7412      0.99696119
   2959000  -1292.3983      215.51791     -1507.9162      283.53645     -854.14625      3840.7412      0.99696119
   2960000  -1277.3357      222.73499     -1500.0707      293.03127      1104.7198      3840.7412      0.99696119
   2961000  -1283.8359      228.09444     -1511.9303      300.08219      708.13621      3840.7412      0.99696119
   2962000  -1267.1153      239.05914     -1506.1745      314.5074       156.84864      3840.7412      0.99696119
   2963000  -1296.9572      219.7217      -1516.6789      289.06697     -109.46569      3840.7412      0.99696119
   2964000  -1251.989       236.91382     -1488.9028      311.68501     -499.32167      3840.7412      0.99696119
   2965000  -1282.7364      208.45095     -1491.1873      274.23911     -2669.4916      3840.7412      0.99696119
   2966000  -1265.3081      230.55946     -1495.8676      303.32519      1422.2102      3840.7412      0.99696119
   2967000  -1268.1146      217.04193     -1485.1566      285.54145      2658.5738      3840.7412      0.99696119
   2968000  -1234.5717      231.51904     -1466.0907      304.58761      1466.3317      3840.7412      0.99696119
   2969000  -1294.5395      215.03163     -1509.5711      282.89669     -947.95809      3840.7412      0.99696119
   2970000  -1291.3849      233.31752     -1524.7024      306.9537      -1228.7892      3840.7412      0.99696119
   2971000  -1246.2005      243.35107     -1489.5516      320.15389      460.36084      3840.7412      0.99696119
   2972000  -1255.6623      232.62309     -1488.2853      306.0401       203.38893      3840.7412      0.99696119
   2973000  -1256.8307      217.63892     -1474.4696      286.32685      84.261286      3840.7412      0.99696119
   2974000  -1256.2531      220.97213     -1477.2253      290.71204      137.06028      3840.7412      0.99696119
   2975000  -1290.3338      221.63786     -1511.9717      291.58788      2058.0945      3840.7412      0.99696119
   2976000  -1258.7406      231.56685     -1490.3075      304.6505       892.81333      3840.7412      0.99696119
   2977000  -1258.5145      230.1531      -1488.6676      302.79056      608.64687      3840.7412      0.99696119
   2978000  -1295.0811      221.68931     -1516.7704      291.65557     -773.61515      3840.7412      0.99696119
   2979000  -1254.0297      226.81558     -1480.8453      298.39971      1635.5346      3840.7412      0.99696119
   2980000  -1283.9994      227.43672     -1511.4361      299.21689     -1067.3086      3840.7412      0.99696119
   2981000  -1260.5655      232.53263     -1493.0982      305.92109     -1268.2728      3840.7412      0.99696119
   2982000  -1268.1027      224.18899     -1492.2917      294.94416      994.6898       3840.7412      0.99696119
   2983000  -1295.4819      223.21139     -1518.6933      293.65802      188.54617      3840.7412      0.99696119
   2984000  -1261.4563      229.19733     -1490.6537      301.53315      44.910607      3840.7412      0.99696119
   2985000  -1260.3006      215.4731      -1475.7737      283.47748     -154.3568       3840.7412      0.99696119
   2986000  -1264.9473      232.62916     -1497.5764      306.04808     -1064.2414      3840.7412      0.99696119
   2987000  -1263.4127      234.95306     -1498.3657      309.10542      683.01481      3840.7412      0.99696119
   2988000  -1243.3006      234.43221     -1477.7328      308.42019     -568.29173      3840.7412      0.99696119
   2989000  -1312.782       196.91005     -1509.692       259.05584     -137.48026      3840.7412      0.99696119
   2990000  -1258.3411      224.24244     -1482.5836      295.01448      400.90867      3840.7412      0.99696119
   2991000  -1257.8323      212.05102     -1469.8833      278.97538     -565.6579       3840.7412      0.99696119
   2992000  -1280.4869      223.56773     -1504.0546      294.12683     -1570.579       3840.7412      0.99696119
   2993000  -1293.1909      214.14812     -1507.339       281.73434      743.05904      3840.7412      0.99696119
   2994000  -1248.9233      233.34689     -1482.2702      306.99234      1641.6894      3840.7412      0.99696119
   2995000  -1264.4322      217.48771     -1481.9199      286.12792     -46.855314      3840.7412      0.99696119
   2996000  -1241.3535      228.28536     -1469.6388      300.33336     -46.154202      3840.7412      0.99696119
   2997000  -1263.7325      216.41173     -1480.1442      284.71236     -359.62228      3840.7412      0.99696119
   2998000  -1270.1725      216.02251     -1486.195       284.2003       689.51085      3840.7412      0.99696119
   2999000  -1312.0286      234.1586      -1546.1872      308.06023     -123.79788      3840.7412      0.99696119
   3000000  -1271.0788      229.79469     -1500.8734      302.31904     -501.4471       3840.7412      0.99696119
Loop time of 2355.66 on 2 procs for 2000000 steps with 384 atoms

Performance: 73.355 ns/day, 0.327 hours/ns, 849.021 timesteps/s
99.6% CPU use with 2 MPI tasks x 1 OpenMP threads

MPI task timing breakdown:
Section |  min time  |  avg time  |  max time  |%varavg| %total
---------------------------------------------------------------
Pair    | 1523.9     | 1532       | 1540.1     |  20.7 | 65.04
Bond    | 0.15615    | 0.17003    | 0.18392    |   3.4 |  0.01
Kspace  | 436.61     | 443.1      | 449.58     |  30.8 | 18.81
Neigh   | 109.01     | 109.01     | 109.01     |   0.0 |  4.63
Comm    | 156.02     | 157.87     | 159.72     |  14.7 |  6.70
Output  | 0.52644    | 0.56056    | 0.59468    |   4.6 |  0.02
Modify  | 106.73     | 106.95     | 107.16     |   2.1 |  4.54
Other   |            | 6.004      |            |       |  0.25

Nlocal:            192 ave         195 max         189 min
Histogram: 1 0 0 0 0 0 0 0 0 1
Nghost:           4867 ave        4873 max        4861 min
Histogram: 1 0 0 0 0 0 0 0 0 1
Neighs:        69361.5 ave       70386 max       68337 min
Histogram: 1 0 0 0 0 0 0 0 0 1

Total # of neighbors = 138723
Ave neighs/atom = 361.25781
Ave special neighs/atom = 2
Neighbor list builds = 67804
Dangerous builds = 0

# write data file
write_data data.after_prod.lmp
System init for write_data ...
PPPM initialization ...
  using 12-bit tables for long-range coulomb (src/kspace.cpp:342)
  G vector (1/distance) = 0.31203871
  grid = 15 15 15
  stencil order = 5
  estimated absolute RMS force accuracy = 0.0022228175
  estimated relative force accuracy = 6.6939488e-06
  using double precision FFTW3
  3d grid and FFT values/proc = 6776 1800
Generated 1 of 1 mixed pair_coeff terms from geometric mixing rule

# clean up
undump dPROD
unfix fTHERMO
unfix fMOM
unfix fSHAKE
Total wall time: 0:58:52
