LAMMPS (23 Jun 2022 - Update 4)
  using 1 OpenMP thread(s) per MPI task
# created by fftool

# System settings
units real
boundary p p p  # Periodic boundary conditions

# definition of atoms, bonds, angles
atom_style full
bond_style harmonic
angle_style harmonic

# definition of pair potentials
special_bonds lj/coul 0.0 0.0 0.5
pair_style lj/cut/coul/long 10.0 10.0
pair_modify mix geometric tail yes
kspace_style pppm 1.0e-5

# read data file
read_data data.lmp
Reading data file ...
  orthogonal box = (0 0 0) to (12.42973 12.42973 12.42973)
  1 by 1 by 1 MPI processor grid
  reading atoms ...
  192 atoms
  scanning bonds ...
  1 = max bonds/atom
  scanning angles ...
  1 = max angles/atom
  reading bonds ...
  128 bonds
  reading angles ...
  64 angles
Finding 1-2 1-3 1-4 neighbors ...
  special bond factors lj:    0        0        0.5
  special bond factors coul:  0        0        0.5
     2 = max # of 1-2 neighbors
     1 = max # of 1-3 neighbors
     1 = max # of 1-4 neighbors
     2 = max # of special neighbors
  special bonds CPU = 0.000 seconds
  read_data CPU = 0.005 seconds

# definition of LJ parameters
pair_coeff    1    1     0.000000     0.000000  # Hw Hw
pair_coeff    2    2     0.163315     3.168823  # Ow-Ow

############################################

# remove energy hotspots
minimize 1.0e-4 1.0e-6 100 1000
WARNING: Using 'neigh_modify every 1 delay 0 check yes' setting during minimization (src/min.cpp:187)
PPPM initialization ...
  using 12-bit tables for long-range coulomb (src/kspace.cpp:342)
  G vector (1/distance) = 0.31260513
  grid = 12 12 12
  stencil order = 5
  estimated absolute RMS force accuracy = 0.0021455329
  estimated relative force accuracy = 6.4612085e-06
  using double precision FFTW3
  3d grid and FFT values/proc = 6859 1728
Generated 1 of 1 mixed pair_coeff terms from geometric mixing rule
Neighbor list info ...
  update every 1 steps, delay 0 steps, check yes
  max neighbors/atom: 2000, page size: 100000
  master list distance cutoff = 12
  ghost atom cutoff = 12
  binsize = 6, bins = 3 3 3
  1 neighbor lists, perpetual/occasional/extra = 1 0 0
  (1) pair lj/cut/coul/long, perpetual
      attributes: half, newton on
      pair build: half/bin/newton
      stencil: half/bin/3d
      bin: standard
Per MPI rank memory allocation (min/avg/max) = 8.743 | 8.743 | 8.743 Mbytes
   Step          Temp          E_pair         E_mol          TotEng         Press
         0   0              176438.79      2.4014708e-07  176438.79      25273842
       100   0             -950.31314      74.578231     -875.73491     -6201.3411
Loop time of 0.212876 on 1 procs for 100 steps with 192 atoms

99.6% CPU use with 1 MPI tasks x 1 OpenMP threads

Minimization stats:
  Stopping criterion = max iterations
  Energy initial, next-to-last, final =
      176438.794318238  -874.920239244017  -875.734910249635
  Force two-norm initial, final = 1322222.6 18.551346
  Force max component initial, final = 729542.32 3.2141011
  Final line search alpha, max atom move = 0.0029961451 0.0096299132
  Iterations, force evaluations = 100 179

MPI task timing breakdown:
Section |  min time  |  avg time  |  max time  |%varavg| %total
---------------------------------------------------------------
Pair    | 0.18184    | 0.18184    | 0.18184    |   0.0 | 85.42
Bond    | 0.00069505 | 0.00069505 | 0.00069505 |   0.0 |  0.33
Kspace  | 0.021823   | 0.021823   | 0.021823   |   0.0 | 10.25
Neigh   | 0.0050039  | 0.0050039  | 0.0050039  |   0.0 |  2.35
Comm    | 0.0025641  | 0.0025641  | 0.0025641  |   0.0 |  1.20
Output  | 1.0349e-05 | 1.0349e-05 | 1.0349e-05 |   0.0 |  0.00
Modify  | 0          | 0          | 0          |   0.0 |  0.00
Other   |            | 0.0009429  |            |       |  0.44

Nlocal:            192 ave         192 max         192 min
Histogram: 1 0 0 0 0 0 0 0 0 0
Nghost:           4788 ave        4788 max        4788 min
Histogram: 1 0 0 0 0 0 0 0 0 0
Neighs:          69116 ave       69116 max       69116 min
Histogram: 1 0 0 0 0 0 0 0 0 0

Total # of neighbors = 69116
Ave neighs/atom = 359.97917
Ave special neighs/atom = 2
Neighbor list builds = 4
Dangerous builds = 0
reset_timestep 0

# constrain water bonds and angles
fix fSHAKE all shake 0.0001 20 0 b 1 a 1
       0 = # of size 2 clusters
       0 = # of size 3 clusters
       0 = # of size 4 clusters
      64 = # of frozen angles
  find clusters CPU = 0.000 seconds

# remove Center of Mass movement every 100 steps
fix fMOM all momentum 100 linear 1 1 1

# define the neighbor list
neighbor 2.0 bin

# IMPORTANT: timestep and temperature and pressure
timestep 1.0
variable vTK equal 298.15
variable vPBAR equal 1.0

# randomize velocities
velocity all create ${vTK} 45338
velocity all create 298.15 45338

# thermostat (solving the ODE)
fix fTHERMO all nvt temp ${vTK} ${vTK} 100
fix fTHERMO all nvt temp 298.15 ${vTK} 100
fix fTHERMO all nvt temp 298.15 298.15 100

# print settings
thermo 1000
thermo_style custom step etotal ke pe temp press vol density
# trajectory output
dump dEQUI all custom 1000 equi.lammpstrj id element xu yu zu
dump_modify dEQUI element H O sort id

# equilibration
# 1 ns
run 1000000
PPPM initialization ...
  using 12-bit tables for long-range coulomb (src/kspace.cpp:342)
  G vector (1/distance) = 0.31260513
  grid = 12 12 12
  stencil order = 5
  estimated absolute RMS force accuracy = 0.0021455329
  estimated relative force accuracy = 6.4612085e-06
  using double precision FFTW3
  3d grid and FFT values/proc = 6859 1728
Generated 1 of 1 mixed pair_coeff terms from geometric mixing rule
Per MPI rank memory allocation (min/avg/max) = 9.76 | 9.76 | 9.76 Mbytes
   Step         TotEng         KinEng         PotEng          Temp          Press          Volume        Density
         0  -837.44462      112.86852     -950.31314      298.15         6753.3606      1920.3708      0.9969611
      1000  -620.71624      119.89132     -740.60756      316.70121      2564.8893      1920.3708      0.9969611
      2000  -628.32321      118.60116     -746.92437      313.29316     -570.08527      1920.3708      0.9969611
      3000  -637.29045      123.03379     -760.32424      325.00226      770.75709      1920.3708      0.9969611
      4000  -669.7099       106.24829     -775.95819      280.6622      -1942.7575      1920.3708      0.9969611
      5000  -646.28796      111.58506     -757.87302      294.75965     -2715.2362      1920.3708      0.9969611
      6000  -642.49335      108.97603     -751.46937      287.8677      -253.88092      1920.3708      0.9969611
      7000  -651.80991      120.39843     -772.20834      318.04077     -910.34868      1920.3708      0.9969611
      8000  -636.59929      106.95411     -743.5534       282.52668     -2247.3154      1920.3708      0.9969611
      9000  -655.60598      106.57254     -762.17851      281.51873     -2531.5382      1920.3708      0.9969611
     10000  -639.12315      122.39314     -761.5163       323.30995      1988.4591      1920.3708      0.9969611
     11000  -655.94686      108.76391     -764.71077      287.30739     -2163.8968      1920.3708      0.9969611
     12000  -646.89326      116.98154     -763.8748       309.01483     -768.03813      1920.3708      0.9969611
     13000  -672.79231      107.56561     -780.35792      284.14198     -1771.4491      1920.3708      0.9969611
     14000  -638.11055      111.79874     -749.90929      295.3241       680.40579      1920.3708      0.9969611
     15000  -651.51803      105.76508     -757.28312      279.38577      3312.5054      1920.3708      0.9969611
     16000  -651.75883      108.4979      -760.25673      286.60471     -1659.6481      1920.3708      0.9969611
     17000  -645.0057       116.13409     -761.13979      306.77623     -2343.4614      1920.3708      0.9969611
     18000  -654.86677      107.37078     -762.23756      283.62734     -310.24212      1920.3708      0.9969611
     19000  -649.90393      121.06078     -770.96471      319.79042      554.97311      1920.3708      0.9969611
     20000  -665.57891      119.23801     -784.81692      314.97545     -33.67012       1920.3708      0.9969611
     21000  -669.3907       110.86253     -780.25323      292.85104     -390.28322      1920.3708      0.9969611
     22000  -638.96266      105.11528     -744.07794      277.66929      792.80325      1920.3708      0.9969611
     23000  -627.3816       121.91704     -749.29864      322.05227     -1225.2281      1920.3708      0.9969611
     24000  -645.47065      103.02122     -748.49187      272.13768     -71.30997       1920.3708      0.9969611
     25000  -605.98809      113.47416     -719.46225      299.74984     -160.14143      1920.3708      0.9969611
     26000  -603.78359      141.82505     -745.60864      374.64067      2433.8546      1920.3708      0.9969611
     27000  -628.11918      124.09337     -752.21256      327.80123     -1955.3244      1920.3708      0.9969611
     28000  -655.34835      104.89676     -760.24511      277.09205      1122.7763      1920.3708      0.9969611
     29000  -662.89988      93.369557     -756.26944      246.64214      2516.8405      1920.3708      0.9969611
     30000  -629.84359      114.22543     -744.06902      301.73436     -2051.6655      1920.3708      0.9969611
     31000  -654.16661      111.68565     -765.85226      295.02536      492.22225      1920.3708      0.9969611
     32000  -639.69956      108.08082     -747.78038      285.50296      385.30627      1920.3708      0.9969611
     33000  -639.32128      113.44644     -752.76772      299.67662     -365.47872      1920.3708      0.9969611
     34000  -639.03833      111.21186     -750.25019      293.77381     -0.14847444     1920.3708      0.9969611
     35000  -655.10349      114.92288     -770.02637      303.57673      1123.3171      1920.3708      0.9969611
     36000  -627.88837      110.06945     -737.95782      290.75605     -1188.3159      1920.3708      0.9969611
     37000  -679.24162      103.56371     -782.80532      273.57069      1653.423       1920.3708      0.9969611
     38000  -638.33816      117.09215     -755.43031      309.30701      1426.0429      1920.3708      0.9969611
     39000  -648.91424      106.29515     -755.2094       280.78599      956.69085      1920.3708      0.9969611
     40000  -631.85831      122.02613     -753.88444      322.34046     -966.66223      1920.3708      0.9969611
     41000  -666.56819      107.59432     -774.16251      284.21782      839.10262      1920.3708      0.9969611
     42000  -650.4475       106.43725     -756.88475      281.16136     -1980.7274      1920.3708      0.9969611
     43000  -655.65552      115.13065     -770.78617      304.12558     -498.87189      1920.3708      0.9969611
     44000  -673.90537      109.11203     -783.0174       288.22698      2154.1867      1920.3708      0.9969611
     45000  -651.39886      112.55144     -763.95031      297.31242      521.04084      1920.3708      0.9969611
     46000  -649.57509      108.79186     -758.36695      287.38122      2102.1622      1920.3708      0.9969611
     47000  -659.71987      104.14042     -763.86029      275.09412     -204.0572       1920.3708      0.9969611
     48000  -657.9844       108.91904     -766.90344      287.71716      278.49901      1920.3708      0.9969611
     49000  -664.61861      108.27302     -772.89163      286.01066     -753.83658      1920.3708      0.9969611
     50000  -656.95458      121.57707     -778.53165      321.15422      689.17551      1920.3708      0.9969611
     51000  -663.96779      110.061       -774.02878      290.73373      1498.6312      1920.3708      0.9969611
     52000  -629.96516      113.58679     -743.55194      300.04735     -1835.7717      1920.3708      0.9969611
     53000  -650.2185       110.82931     -761.04781      292.76328      533.15771      1920.3708      0.9969611
     54000  -655.39604      103.78116     -759.17721      274.14511     -2416.4205      1920.3708      0.9969611
     55000  -639.33762      111.44573     -750.78336      294.39161      581.92523      1920.3708      0.9969611
     56000  -656.85779      113.09919     -769.95698      298.75933      1294.4279      1920.3708      0.9969611
     57000  -623.78022      111.87146     -735.65168      295.51619      285.70882      1920.3708      0.9969611
     58000  -641.20915      108.639       -749.84816      286.97743     -698.74459      1920.3708      0.9969611
     59000  -663.85741      113.69111     -777.54852      300.32292      673.91895      1920.3708      0.9969611
     60000  -637.55514      114.56746     -752.1226       302.63787     -1257.0509      1920.3708      0.9969611
     61000  -601.37458      126.41145     -727.78602      333.92457     -1870.809       1920.3708      0.9969611
     62000  -637.10277      106.91783     -744.02059      282.43083      451.56235      1920.3708      0.9969611
     63000  -649.74111      109.568       -759.3091       289.43144     -1049.9495      1920.3708      0.9969611
     64000  -652.03288      110.12958     -762.16246      290.91489      2110.5992      1920.3708      0.9969611
     65000  -648.2025       120.4823      -768.6848       318.26232      1384.9254      1920.3708      0.9969611
     66000  -652.11224      114.47715     -766.58939      302.3993      -2346.9661      1920.3708      0.9969611
     67000  -641.89541      111.69603     -753.59144      295.05278     -3763.07        1920.3708      0.9969611
     68000  -664.52454      107.46127     -771.98581      283.86638     -1560.2674      1920.3708      0.9969611
     69000  -667.58425      110.35674     -777.941        291.51497     -2102.5865      1920.3708      0.9969611
     70000  -638.94322      111.19926     -750.14248      293.74052      2858.855       1920.3708      0.9969611
     71000  -660.35357      119.71994     -780.07351      316.24849      2411.9287      1920.3708      0.9969611
     72000  -611.45424      126.2348      -737.68904      333.45796     -2480.4638      1920.3708      0.9969611
     73000  -670.67051      109.77638     -780.4469       289.9819       2315.906       1920.3708      0.9969611
     74000  -643.75105      114.12742     -757.87847      301.47546     -178.56292      1920.3708      0.9969611
     75000  -657.38558      103.06126     -760.44684      272.24344      937.03998      1920.3708      0.9969611
     76000  -667.52557      110.23765     -777.76322      291.20036     -863.16589      1920.3708      0.9969611
     77000  -670.9129       101.33697     -772.24987      267.68862      2383.9019      1920.3708      0.9969611
     78000  -652.35417      103.28357     -755.63774      272.8307       1514.9977      1920.3708      0.9969611
     79000  -650.90095      107.16994     -758.07089      283.0968      -2731.7498      1920.3708      0.9969611
     80000  -651.98424      118.56486     -770.5491       313.19726     -351.13307      1920.3708      0.9969611
     81000  -643.52593      118.60783     -762.13376      313.31078      288.80168      1920.3708      0.9969611
     82000  -640.28251      113.33474     -753.61725      299.38154      259.6177       1920.3708      0.9969611
     83000  -668.36362      102.26509     -770.62871      270.14031     -723.91564      1920.3708      0.9969611
     84000  -638.95827      108.06827     -747.02653      285.46979     -588.14288      1920.3708      0.9969611
     85000  -660.441        103.74094     -764.18194      274.03885      1043.2483      1920.3708      0.9969611
     86000  -664.68665      100.34598     -765.03263      265.07083     -2463.9779      1920.3708      0.9969611
     87000  -664.86178      106.69197     -771.55375      281.83421      3186.9143      1920.3708      0.9969611
     88000  -635.96848      111.19999     -747.16847      293.74246      734.78933      1920.3708      0.9969611
     89000  -660.93887      114.14674     -775.08562      301.52651     -1515.333       1920.3708      0.9969611
     90000  -638.40319      123.00608     -761.40927      324.92906     -2525.7498      1920.3708      0.9969611
     91000  -652.59434      108.46482     -761.05915      286.51731     -2008.7016      1920.3708      0.9969611
     92000  -655.7187       106.04014     -761.75884      280.11237      1166.6122      1920.3708      0.9969611
     93000  -625.44529      130.76141     -756.2067       345.41531      1494.1779      1920.3708      0.9969611
     94000  -639.99445      111.65234     -751.64679      294.93736     -13.10151       1920.3708      0.9969611
     95000  -672.49668      103.2596      -775.75628      272.76737     -2922.2748      1920.3708      0.9969611
     96000  -598.87329      133.94039     -732.81368      353.81279      11.961452      1920.3708      0.9969611
     97000  -632.88567      114.05925     -746.94492      301.2954      -12.209886      1920.3708      0.9969611
     98000  -644.08925      120.46788     -764.55713      318.22423     -541.75477      1920.3708      0.9969611
     99000  -634.87649      112.01907     -746.89556      295.90613      1885.9876      1920.3708      0.9969611
    100000  -667.35832      106.30971     -773.66803      280.82444      2088.2464      1920.3708      0.9969611
    101000  -640.04806      111.88629     -751.93435      295.55536     -710.50281      1920.3708      0.9969611
    102000  -647.36758      112.42821     -759.79579      296.9869       733.24225      1920.3708      0.9969611
    103000  -669.73211      101.36973     -771.10184      267.77514     -786.73944      1920.3708      0.9969611
    104000  -651.88431      103.5138      -755.39811      273.43884      1143.3783      1920.3708      0.9969611
    105000  -642.02409      130.96545     -772.98953      345.95428      115.05072      1920.3708      0.9969611
    106000  -617.79732      124.0967      -741.89403      327.81002     -3388.7546      1920.3708      0.9969611
    107000  -650.67682      101.26735     -751.94417      267.5047      -560.68338      1920.3708      0.9969611
    108000  -613.01859      116.74582     -729.76441      308.39215     -546.12242      1920.3708      0.9969611
    109000  -638.3988       109.14369     -747.54249      288.31061     -1588.514       1920.3708      0.9969611
    110000  -650.719        113.46789     -764.18689      299.73327      246.90725      1920.3708      0.9969611
    111000  -646.9946       112.30606     -759.30066      296.66422      3174.1491      1920.3708      0.9969611
    112000  -652.55962      115.71112     -768.27073      305.65891      3493.6678      1920.3708      0.9969611
    113000  -634.83693      122.60236     -757.43929      323.8626       708.92954      1920.3708      0.9969611
    114000  -655.77043      112.7392      -768.50964      297.8084      -2137.4805      1920.3708      0.9969611
    115000  -648.78244      109.88134     -758.66379      290.25917     -659.38653      1920.3708      0.9969611
    116000  -665.15273      109.24781     -774.40055      288.58565     -455.84193      1920.3708      0.9969611
    117000  -676.03333      101.9248      -777.95813      269.24141     -2329.9622      1920.3708      0.9969611
    118000  -658.51442      108.97752     -767.49193      287.87164      115.12491      1920.3708      0.9969611
    119000  -662.96655      108.45103     -771.41758      286.48089      3334.0383      1920.3708      0.9969611
    120000  -641.21623      123.92909     -765.14532      327.36726      117.64046      1920.3708      0.9969611
    121000  -652.38074      109.84245     -762.22319      290.15641      3430.8117      1920.3708      0.9969611
    122000  -680.5354       105.66313     -786.19852      279.11645      930.81269      1920.3708      0.9969611
    123000  -633.18724      124.21994     -757.40719      328.13556     -1412.9818      1920.3708      0.9969611
    124000  -622.88031      110.95924     -733.83955      293.10651      355.34203      1920.3708      0.9969611
    125000  -648.34757      107.9718      -756.31936      285.21496     -289.86345      1920.3708      0.9969611
    126000  -614.00047      120.14578     -734.14626      317.37339     -4045.8575      1920.3708      0.9969611
    127000  -646.23576      112.31546     -758.55122      296.68904      1083.9023      1920.3708      0.9969611
    128000  -661.54959      110.18201     -771.7316       291.05339     -2015.5986      1920.3708      0.9969611
    129000  -656.45328      104.29844     -760.75171      275.51153     -542.48144      1920.3708      0.9969611
    130000  -655.76333      114.99959     -770.76293      303.77937      981.89433      1920.3708      0.9969611
    131000  -664.87564      106.30223     -771.17786      280.80468      2910.6167      1920.3708      0.9969611
    132000  -646.41789      108.31936     -754.73725      286.13308     -2156.2102      1920.3708      0.9969611
    133000  -622.42695      115.27586     -737.7028       304.50914     -2309.5525      1920.3708      0.9969611
    134000  -621.54903      129.69404     -751.24307      342.59577     -3119.0187      1920.3708      0.9969611
    135000  -642.95688      117.09929     -760.05617      309.32588      185.12138      1920.3708      0.9969611
    136000  -664.34911      96.930757     -761.27986      256.04929     -331.83648      1920.3708      0.9969611
    137000  -638.83981      123.30077     -762.14058      325.70752     -387.77629      1920.3708      0.9969611
    138000  -652.39477      106.94272     -759.33749      282.4966      -1117.2964      1920.3708      0.9969611
    139000  -641.77409      110.38723     -752.16132      291.59549     -641.4513       1920.3708      0.9969611
    140000  -663.39112      107.21757     -770.60869      283.22263      5348.6546      1920.3708      0.9969611
    141000  -665.60055      104.88991     -770.49046      277.07394      1266.3966      1920.3708      0.9969611
    142000  -638.60188      105.07887     -743.68075      277.5731      -1530.9589      1920.3708      0.9969611
    143000  -625.44167      122.16301     -747.60468      322.70204      220.46232      1920.3708      0.9969611
    144000  -617.59056      111.37026     -728.96082      294.19224     -1164.735       1920.3708      0.9969611
    145000  -643.18032      108.07158     -751.2519       285.47855     -1431.3554      1920.3708      0.9969611
    146000  -650.58672      104.75571     -755.34243      276.71944      764.76851      1920.3708      0.9969611
    147000  -620.76794      130.9091      -751.67704      345.80544      2267.7004      1920.3708      0.9969611
    148000  -647.86726      116.79984     -764.6671       308.53485      626.74622      1920.3708      0.9969611
    149000  -656.21353      107.10707     -763.3206       282.93072     -3164.6179      1920.3708      0.9969611
    150000  -667.7601       113.94703     -781.70714      300.99897     -1697.4712      1920.3708      0.9969611
    151000  -687.98336      105.11737     -793.10073      277.67479     -912.88151      1920.3708      0.9969611
    152000  -649.91312      122.40137     -772.31448      323.33167     -1454.6341      1920.3708      0.9969611
    153000  -642.481        110.44246     -752.92345      291.74138     -1783.0303      1920.3708      0.9969611
    154000  -640.44636      121.44015     -761.88651      320.79255      833.80003      1920.3708      0.9969611
    155000  -656.04317      116.49735     -772.54052      307.73579     -1819.576       1920.3708      0.9969611
    156000  -653.14224      114.60143     -767.74367      302.7276      -172.32808      1920.3708      0.9969611
    157000  -667.51871      114.89437     -782.41309      303.50143      831.06336      1920.3708      0.9969611
    158000  -663.20802      117.14886     -780.35688      309.4568      -1367.7315      1920.3708      0.9969611
    159000  -660.29371      115.02857     -775.32229      303.85592     -918.83163      1920.3708      0.9969611
    160000  -651.76678      110.51679     -762.28357      291.93774      549.20492      1920.3708      0.9969611
    161000  -647.01361      108.77958     -755.79319      287.34879      1147.3299      1920.3708      0.9969611
    162000  -635.17008      115.31304     -750.48312      304.60736     -1233.7902      1920.3708      0.9969611
    163000  -624.49036      124.23196     -748.72232      328.16731     -130.90823      1920.3708      0.9969611
    164000  -649.57797      101.39702     -750.97499      267.84725      1376.5712      1920.3708      0.9969611
    165000  -653.17963      114.33311     -767.51274      302.01881      1127.9585      1920.3708      0.9969611
    166000  -651.34803      106.07877     -757.42681      280.21441     -2595.7747      1920.3708      0.9969611
    167000  -627.11061      116.02167     -743.13228      306.47926     -749.27934      1920.3708      0.9969611
    168000  -666.94434      117.66295     -784.6073       310.81482     -727.82372      1920.3708      0.9969611
    169000  -671.57128      105.79361     -777.36489      279.46113      1594.8806      1920.3708      0.9969611
    170000  -636.9363       120.91737     -757.85367      319.4116      -1737.316       1920.3708      0.9969611
    171000  -659.01731      112.47586     -771.49317      297.11277     -523.59408      1920.3708      0.9969611
    172000  -635.77984      119.46929     -755.24914      315.58639     -598.01721      1920.3708      0.9969611
    173000  -651.7588       103.09818     -754.85698      272.34096     -81.545734      1920.3708      0.9969611
    174000  -634.17405      118.28824     -752.46229      312.46656     -1272.1201      1920.3708      0.9969611
    175000  -647.49464      110.31547     -757.81011      291.40594      270.77926      1920.3708      0.9969611
    176000  -614.80256      115.04391     -729.84647      303.89644      126.00737      1920.3708      0.9969611
    177000  -651.48532      108.43522     -759.92054      286.43913     -726.5195       1920.3708      0.9969611
    178000  -631.63241      104.34283     -735.97524      275.6288      -1461.4991      1920.3708      0.9969611
    179000  -641.73521      119.57229     -761.3075       315.85846     -389.6036       1920.3708      0.9969611
    180000  -641.95274      121.90806     -763.8608       322.02856     -205.53985      1920.3708      0.9969611
    181000  -657.63966      103.18577     -760.82543      272.57235      756.90303      1920.3708      0.9969611
    182000  -665.63449      103.81138     -769.44586      274.22493      2321.4219      1920.3708      0.9969611
    183000  -659.82725      106.12937     -765.95662      280.34808      146.17849      1920.3708      0.9969611
    184000  -650.40394      107.38307     -757.787        283.65979      1135.3814      1920.3708      0.9969611
    185000  -637.39152      110.3794      -747.77092      291.57481     -380.46035      1920.3708      0.9969611
    186000  -660.85786      102.76448     -763.62234      271.45948     -3190.7721      1920.3708      0.9969611
    187000  -638.00348      112.92771     -750.93119      298.30636      493.00526      1920.3708      0.9969611
    188000  -637.22602      127.76476     -764.99078      337.49945      322.99459      1920.3708      0.9969611
    189000  -652.65992      113.03335     -765.69327      298.58541      197.82405      1920.3708      0.9969611
    190000  -632.52028      117.1316      -749.65188      309.41121      1012.8468      1920.3708      0.9969611
    191000  -662.3591       108.11882     -770.47792      285.60334     -29.601965      1920.3708      0.9969611
    192000  -650.27596      115.66059     -765.93656      305.52545     -428.31722      1920.3708      0.9969611
    193000  -640.91074      128.73895     -769.64969      340.07283     -1032.3073      1920.3708      0.9969611
    194000  -669.57942      101.58391     -771.16333      268.34092      483.53872      1920.3708      0.9969611
    195000  -630.49036      110.65119     -741.14156      292.29277      1078.4874      1920.3708      0.9969611
    196000  -639.72688      110.11902     -749.84589      290.88699     -2534.843       1920.3708      0.9969611
    197000  -621.72132      116.4196      -738.14092      307.53042      527.91989      1920.3708      0.9969611
    198000  -663.68162      105.13989     -768.8215       277.73428     -2266.7672      1920.3708      0.9969611
    199000  -638.83344      108.35522     -747.18865      286.22779     -835.88183      1920.3708      0.9969611
    200000  -635.86743      117.83602     -753.70345      311.27198     -293.06846      1920.3708      0.9969611
    201000  -630.75583      116.86962     -747.62546      308.71919     -1316.5004      1920.3708      0.9969611
    202000  -644.00158      105.987       -749.98859      279.97199     -2280.6308      1920.3708      0.9969611
    203000  -640.21969      112.30656     -752.52625      296.66554     -1072.1008      1920.3708      0.9969611
    204000  -648.94552      122.55786     -771.50338      323.74505      1106.9488      1920.3708      0.9969611
    205000  -662.1949       108.42797     -770.62287      286.41998     -1100.0264      1920.3708      0.9969611
    206000  -630.5236       119.03357     -749.55717      314.4354       1285.4416      1920.3708      0.9969611
    207000  -642.51612      119.23051     -761.74663      314.95563      1806.5313      1920.3708      0.9969611
    208000  -660.59402      103.91881     -764.51282      274.50871      1279.4236      1920.3708      0.9969611
    209000  -666.72233      100.84661     -767.56894      266.39329     -2622.2212      1920.3708      0.9969611
    210000  -654.58951      109.73726     -764.32677      289.87856     -1691.7399      1920.3708      0.9969611
    211000  -656.12571      110.6148      -766.74051      292.19663     -882.44665      1920.3708      0.9969611
    212000  -636.90251      119.35755     -756.26006      315.29121     -767.0805       1920.3708      0.9969611
    213000  -653.29414      106.71994     -760.01407      281.90809     -1370.611       1920.3708      0.9969611
    214000  -670.39214      103.66081     -774.05296      273.8272       1428.6071      1920.3708      0.9969611
    215000  -650.27399      108.51202     -758.78601      286.64201     -457.76303      1920.3708      0.9969611
    216000  -674.23782      106.9753      -781.21313      282.58266     -84.149348      1920.3708      0.9969611
    217000  -656.87258      109.39929     -766.27187      288.98579     -1539.3801      1920.3708      0.9969611
    218000  -652.40368      115.08849     -767.49217      304.0142      -2815.9725      1920.3708      0.9969611
    219000  -660.23967      112.48299     -772.72266      297.13159     -2802.7444      1920.3708      0.9969611
    220000  -647.08473      112.51888     -759.60361      297.2264       2257.3449      1920.3708      0.9969611
    221000  -632.5207       127.68231     -760.20302      337.28166      185.10373      1920.3708      0.9969611
    222000  -623.15476      122.37023     -745.52499      323.24942      1112.1198      1920.3708      0.9969611
    223000  -642.70547      106.32128     -749.02675      280.85501     -1898.2559      1920.3708      0.9969611
    224000  -654.92592      108.01192     -762.93783      285.32095      908.15028      1920.3708      0.9969611
    225000  -632.61032      102.59194     -735.20226      271.0037      -1745.4046      1920.3708      0.9969611
    226000  -653.56009      110.41926     -763.97935      291.68011     -1033.7253      1920.3708      0.9969611
    227000  -661.01757      104.22708     -765.24465      275.32303     -925.39187      1920.3708      0.9969611
    228000  -650.15484      105.7976      -755.95245      279.47168      1106.6412      1920.3708      0.9969611
    229000  -648.177        119.09161     -767.26861      314.58871     -1158.8322      1920.3708      0.9969611
    230000  -641.1508       112.77214     -753.92294      297.89539      252.08447      1920.3708      0.9969611
    231000  -651.22781      124.31057     -775.53838      328.37496      1988.56        1920.3708      0.9969611
    232000  -633.62521      114.56895     -748.19416      302.64181     -1833.4952      1920.3708      0.9969611
    233000  -631.56816      121.42769     -752.99585      320.75964      1088.8904      1920.3708      0.9969611
    234000  -607.5208       123.37577     -730.89656      325.90562     -390.96229      1920.3708      0.9969611
    235000  -641.93469      111.35796     -753.29265      294.15975      1542.0522      1920.3708      0.9969611
    236000  -674.05259      110.55483     -784.60742      292.03823     -884.32686      1920.3708      0.9969611
    237000  -643.46259      109.66601     -753.1286       289.69034     -2439.1229      1920.3708      0.9969611
    238000  -644.59274      112.11837     -756.7111       296.16841      1508.2386      1920.3708      0.9969611
    239000  -649.71716      110.77535     -760.49251      292.62075      1724.1455      1920.3708      0.9969611
    240000  -619.39507      120.86738     -740.26244      319.27953      652.49471      1920.3708      0.9969611
    241000  -652.76973      117.7676      -770.53733      311.09124      731.30057      1920.3708      0.9969611
    242000  -622.95086      125.75156     -748.70241      332.18143      2107.8593      1920.3708      0.9969611
    243000  -644.04697      113.8304      -757.87737      300.69087      1096.7214      1920.3708      0.9969611
    244000  -631.49445      114.2787      -745.77316      301.8751       1279.1293      1920.3708      0.9969611
    245000  -646.51402      115.35869     -761.87271      304.72795      1254.1607      1920.3708      0.9969611
    246000  -660.33182      108.83687     -769.16869      287.50011      618.05392      1920.3708      0.9969611
    247000  -660.64658      101.28447     -761.93105      267.54994     -3363.7076      1920.3708      0.9969611
    248000  -651.41082      121.95004     -773.36085      322.13945     -2253.3279      1920.3708      0.9969611
    249000  -671.16914      106.87244     -778.04158      282.31094      669.15117      1920.3708      0.9969611
    250000  -631.80059      124.12147     -755.92206      327.87544     -410.33635      1920.3708      0.9969611
    251000  -632.25346      118.66392     -750.91738      313.45894      1104.8352      1920.3708      0.9969611
    252000  -621.67442      107.57764     -729.25206      284.17378     -1990.0576      1920.3708      0.9969611
    253000  -645.43866      102.45379     -747.89246      270.63878     -357.64757      1920.3708      0.9969611
    254000  -631.32947      108.02171     -739.35119      285.34682     -236.26622      1920.3708      0.9969611
    255000  -636.37381      116.53672     -752.91053      307.8398      -1514.3787      1920.3708      0.9969611
    256000  -621.17439      120.51513     -741.68952      318.34903      606.81593      1920.3708      0.9969611
    257000  -660.35928      112.43072     -772.79         296.99353     -1532.8758      1920.3708      0.9969611
    258000  -643.32476      100.31378     -743.63854      264.98579     -694.33719      1920.3708      0.9969611
    259000  -626.20861      116.61972     -742.82833      308.05905     -1491.1471      1920.3708      0.9969611
    260000  -657.47806      98.718346     -756.1964       260.77133     -1798.9397      1920.3708      0.9969611
    261000  -628.60277      114.20304     -742.80581      301.67522     -303.87802      1920.3708      0.9969611
    262000  -654.4652       112.59459     -767.05979      297.42638     -1101.4751      1920.3708      0.9969611
    263000  -666.83777      105.31107     -772.14884      278.18647     -790.73257      1920.3708      0.9969611
    264000  -655.14161      114.2166      -769.35822      301.71106     -1063.8701      1920.3708      0.9969611
    265000  -644.70193      109.08364     -753.78557      288.15198      1503.9126      1920.3708      0.9969611
    266000  -656.36974      116.45948     -772.82922      307.63576     -1669.097       1920.3708      0.9969611
    267000  -656.16734      104.78383     -760.95117      276.79372     -422.03376      1920.3708      0.9969611
    268000  -644.34951      120.75158     -765.10109      318.97364     -1989.3446      1920.3708      0.9969611
    269000  -641.72318      114.36573     -756.08891      302.10498     -134.16357      1920.3708      0.9969611
    270000  -646.82476      109.40996     -756.23472      289.01397     -1499.4041      1920.3708      0.9969611
    271000  -641.1181       112.36272     -753.48082      296.81389      27.78684       1920.3708      0.9969611
    272000  -647.98257      109.96132     -757.94389      290.47042      4755.1122      1920.3708      0.9969611
    273000  -655.7592       102.55832     -758.31752      270.9149      -2380.9693      1920.3708      0.9969611
    274000  -641.34855      116.40959     -757.75814      307.50396     -449.85398      1920.3708      0.9969611
    275000  -616.1177       112.42231     -728.54001      296.97129      728.19353      1920.3708      0.9969611
    276000  -653.33552      105.17495     -758.51047      277.82689      1590.5498      1920.3708      0.9969611
    277000  -673.80505      100.61517     -774.42022      265.78193     -1583.7045      1920.3708      0.9969611
    278000  -665.387        110.91598     -776.30298      292.99222      3239.4549      1920.3708      0.9969611
    279000  -658.72091      118.4951      -777.21602      313.013        727.52946      1920.3708      0.9969611
    280000  -660.2539       118.32244     -778.57634      312.5569      -121.6654       1920.3708      0.9969611
    281000  -625.11431      119.30784     -744.42214      315.1599      -441.52911      1920.3708      0.9969611
    282000  -645.29182      107.35526     -752.64709      283.58634      2233.871       1920.3708      0.9969611
    283000  -630.47639      107.98098     -738.45736      285.23921     -1246.292       1920.3708      0.9969611
    284000  -646.33762      108.70761     -755.04522      287.15865      2655.4905      1920.3708      0.9969611
    285000  -673.15176      103.07696     -776.22873      272.28492     -4314.2182      1920.3708      0.9969611
    286000  -638.68728      111.34366     -750.03094      294.12197     -1053.5489      1920.3708      0.9969611
    287000  -637.29606      107.4418      -744.73786      283.81495     -1753.9232      1920.3708      0.9969611
    288000  -668.94518      106.08514     -775.03032      280.23123      490.42658      1920.3708      0.9969611
    289000  -693.04893      97.605108     -790.65404      257.83064     -1770.7624      1920.3708      0.9969611
    290000  -680.64339      102.04464     -782.68803      269.55798     -717.31024      1920.3708      0.9969611
    291000  -669.06702      122.11983     -791.18686      322.58797      1781.3223      1920.3708      0.9969611
    292000  -696.77932      102.72887     -799.50819      271.3654       2293.5977      1920.3708      0.9969611
    293000  -658.04096      106.65712     -764.69807      281.74214      3260.1444      1920.3708      0.9969611
    294000  -655.93082      120.64721     -776.57803      318.69793     -1282.4743      1920.3708      0.9969611
    295000  -660.70902      116.58648     -777.29551      307.97126     -1428.1812      1920.3708      0.9969611
    296000  -662.46541      109.117       -771.58241      288.24011     -502.75557      1920.3708      0.9969611
    297000  -659.33102      116.68663     -776.01765      308.23581      2022.5549      1920.3708      0.9969611
    298000  -654.04898      118.08079     -772.12977      311.91858      921.33003      1920.3708      0.9969611
    299000  -671.42839      111.45375     -782.88214      294.41278     -1598.2384      1920.3708      0.9969611
    300000  -659.54647      102.09173     -761.63821      269.68237     -628.53281      1920.3708      0.9969611
    301000  -648.07548      117.90395     -765.97943      311.45143      741.87253      1920.3708      0.9969611
    302000  -620.22355      104.98704     -725.2106       277.33052     -1155.2591      1920.3708      0.9969611
    303000  -629.68231      115.44893     -745.13125      304.96634      43.764264      1920.3708      0.9969611
    304000  -641.81053      109.22966     -751.04019      288.53768      1348.8581      1920.3708      0.9969611
    305000  -639.5818       115.24747     -754.82927      304.43416     -825.91385      1920.3708      0.9969611
    306000  -647.4432       105.96408     -753.40728      279.91144     -1454.8757      1920.3708      0.9969611
    307000  -627.26739      112.59819     -739.86559      297.43591     -445.51718      1920.3708      0.9969611
    308000  -653.99619      112.13013     -766.12632      296.19948     -164.92562      1920.3708      0.9969611
    309000  -640.85618      129.24766     -770.10384      341.41662     -1582.985       1920.3708      0.9969611
    310000  -682.92667      98.949159     -781.87583      261.38104     -2712.9113      1920.3708      0.9969611
    311000  -652.86172      119.38311     -772.24483      315.35874      1199.4757      1920.3708      0.9969611
    312000  -661.82288      111.07921     -772.90208      293.4234      -1745.2588      1920.3708      0.9969611
    313000  -651.69664      110.10413     -761.80077      290.84768      2551.9112      1920.3708      0.9969611
    314000  -645.888        109.95779     -755.84579      290.46109      2052.0313      1920.3708      0.9969611
    315000  -656.26497      114.79243     -771.0574       303.23213     -1248.3962      1920.3708      0.9969611
    316000  -633.76205      109.78895     -743.55099      290.01509     -1326.3455      1920.3708      0.9969611
    317000  -649.30597      116.47498     -765.78095      307.67672     -683.36971      1920.3708      0.9969611
    318000  -647.31146      118.96281     -766.27427      314.24849     -938.59547      1920.3708      0.9969611
    319000  -682.17869      103.24528     -785.42397      272.72954      1948.7606      1920.3708      0.9969611
    320000  -648.26897      117.88405     -766.15302      311.39886     -316.90944      1920.3708      0.9969611
    321000  -645.99766      105.28805     -751.28572      278.12567     -3.7565322      1920.3708      0.9969611
    322000  -628.55493      116.95377     -745.5087       308.94146      2551.8612      1920.3708      0.9969611
    323000  -654.31512      107.00117     -761.31629      282.65099     -231.5488       1920.3708      0.9969611
    324000  -637.12946      111.3354      -748.46486      294.10014     -533.91623      1920.3708      0.9969611
    325000  -654.81053      113.54655     -768.35708      299.94106      536.30658      1920.3708      0.9969611
    326000  -645.72183      116.49564     -762.21747      307.73129      1676.6742      1920.3708      0.9969611
    327000  -654.37957      102.35119     -756.73076      270.36775     -1940.2873      1920.3708      0.9969611
    328000  -617.35067      115.13605     -732.48673      304.13984      2031.4023      1920.3708      0.9969611
    329000  -634.01504      124.58545     -758.60049      329.10108      96.347588      1920.3708      0.9969611
    330000  -609.60628      132.98834     -742.59462      351.29789     -3436.6921      1920.3708      0.9969611
    331000  -631.73592      124.74373     -756.47964      329.51917     -522.2958       1920.3708      0.9969611
    332000  -637.53623      115.43017     -752.9664       304.91677     -681.12956      1920.3708      0.9969611
    333000  -668.17527      102.18645     -770.36172      269.93256      1051.9926      1920.3708      0.9969611
    334000  -656.67028      109.41235     -766.08263      289.02027     -977.78785      1920.3708      0.9969611
    335000  -613.59416      124.45805     -738.05221      328.76453     -226.11104      1920.3708      0.9969611
    336000  -650.73669      110.27208     -761.00877      291.29133      692.19447      1920.3708      0.9969611
    337000  -615.41658      116.36244     -731.77902      307.37942     -269.0218       1920.3708      0.9969611
    338000  -619.07591      123.51378     -742.58969      326.27019      531.22765      1920.3708      0.9969611
    339000  -635.6354       111.98449     -747.61989      295.81476      34.08024       1920.3708      0.9969611
    340000  -636.82053      119.61163     -756.43217      315.96239     -9.5650244      1920.3708      0.9969611
    341000  -646.09223      111.19009     -757.28232      293.71631     -2078.1124      1920.3708      0.9969611
    342000  -623.62637      115.67239     -739.29876      305.55661      1696.4774      1920.3708      0.9969611
    343000  -648.90263      122.10982     -771.01245      322.56153     -1920.2444      1920.3708      0.9969611
    344000  -648.09443      104.5607      -752.65513      276.20431     -1495.352       1920.3708      0.9969611
    345000  -657.82532      105.77243     -763.59776      279.40519      1885.1254      1920.3708      0.9969611
    346000  -628.25979      134.8334      -763.09319      356.17175      119.66347      1920.3708      0.9969611
    347000  -636.67236      110.91027     -747.58263      292.97714     -847.45893      1920.3708      0.9969611
    348000  -644.19106      111.26432     -755.45538      293.91239     -1155.7093      1920.3708      0.9969611
    349000  -638.50541      110.92566     -749.43107      293.01779     -2633.5498      1920.3708      0.9969611
    350000  -644.38075      107.69905     -752.0798       284.49449      328.16289      1920.3708      0.9969611
    351000  -634.61453      115.28352     -749.89806      304.5294       472.39046      1920.3708      0.9969611
    352000  -648.69574      101.27755     -749.97329      267.53166     -1386.5512      1920.3708      0.9969611
    353000  -625.06003      114.39092     -739.45094      302.17152      768.16217      1920.3708      0.9969611
    354000  -639.92437      123.4647      -763.38906      326.14053     -1200.6139      1920.3708      0.9969611
    355000  -655.26412      108.29068     -763.5548       286.0573      -1228.3853      1920.3708      0.9969611
    356000  -648.20598      109.5756      -757.78158      289.45152      2915.8021      1920.3708      0.9969611
    357000  -657.81052      110.86694     -768.67746      292.86269     -650.65559      1920.3708      0.9969611
    358000  -644.22936      103.52108     -747.75044      273.45808     -1323.5942      1920.3708      0.9969611
    359000  -649.51177      112.01665     -761.52842      295.89971      433.69792      1920.3708      0.9969611
    360000  -642.1522       112.83703     -754.98923      298.06681      279.74612      1920.3708      0.9969611
    361000  -662.52076      110.62444     -773.1452       292.22211     -1863.3304      1920.3708      0.9969611
    362000  -637.70783      108.85413     -746.56196      287.54572      1589.5969      1920.3708      0.9969611
    363000  -637.22236      110.28041     -747.50277      291.31333      962.14958      1920.3708      0.9969611
    364000  -647.64857      108.97417     -756.62274      287.86281     -1852.9058      1920.3708      0.9969611
    365000  -657.4591       109.48828     -766.94737      289.22085      1557.7971      1920.3708      0.9969611
    366000  -679.63836      104.00447     -783.64283      274.73499      2353.2868      1920.3708      0.9969611
    367000  -640.69458      114.47045     -755.16503      302.38159     -52.827162      1920.3708      0.9969611
    368000  -642.00839      118.64244     -760.65082      313.40219      86.133716      1920.3708      0.9969611
    369000  -623.10859      114.1225      -737.23109      301.46247     -181.43409      1920.3708      0.9969611
    370000  -637.69315      111.55752     -749.25067      294.6869      -2016.5518      1920.3708      0.9969611
    371000  -637.0569       120.5092      -757.5661       318.33337      2566.822       1920.3708      0.9969611
    372000  -634.55247      111.19262     -745.74509      293.723        1014.2315      1920.3708      0.9969611
    373000  -650.60577      115.67215     -766.27792      305.55599      117.94277      1920.3708      0.9969611
    374000  -638.35109      119.08295     -757.43404      314.56584     -1578.8803      1920.3708      0.9969611
    375000  -657.48214      106.42093     -763.90308      281.11825      246.09924      1920.3708      0.9969611
    376000  -652.91549      115.77039     -768.68588      305.81549     -3565.8344      1920.3708      0.9969611
    377000  -651.78095      112.01129     -763.79224      295.88556      1514.0434      1920.3708      0.9969611
    378000  -644.95651      111.63372     -756.59023      294.8882       2759.289       1920.3708      0.9969611
    379000  -662.8293       117.34554     -780.17483      309.97635      2197.7084      1920.3708      0.9969611
    380000  -662.2243       113.68035     -775.90464      300.29449     -3817.4722      1920.3708      0.9969611
    381000  -647.81756      125.63469     -773.45226      331.87272     -232.17225      1920.3708      0.9969611
    382000  -666.24376      112.28194     -778.5257       296.6005       2979.9955      1920.3708      0.9969611
    383000  -659.63706      121.31809     -780.95515      320.47011     -677.44201      1920.3708      0.9969611
    384000  -653.6896       114.82791     -768.51751      303.32587     -725.96381      1920.3708      0.9969611
    385000  -659.47709      113.1161      -772.59319      298.804        1628.2542      1920.3708      0.9969611
    386000  -642.77974      109.71037     -752.49012      289.80754     -728.29537      1920.3708      0.9969611
    387000  -628.32784      122.0578      -750.38564      322.42411     -833.90739      1920.3708      0.9969611
    388000  -654.22455      113.71886     -767.94341      300.39622     -1595.4077      1920.3708      0.9969611
    389000  -648.17037      102.8036      -750.97397      271.56281      3170.0914      1920.3708      0.9969611
    390000  -630.8268       115.77385     -746.60066      305.82463     -2357.6303      1920.3708      0.9969611
    391000  -643.23342      110.72067     -753.9541       292.47631     -937.31064      1920.3708      0.9969611
    392000  -650.99784      109.21656     -760.21439      288.50309     -2823.0934      1920.3708      0.9969611
    393000  -649.67836      107.75826     -757.43662      284.65088     -2711.5936      1920.3708      0.9969611
    394000  -673.60405      113.60696     -787.21101      300.10062     -3612.26        1920.3708      0.9969611
    395000  -631.05963      118.10253     -749.16217      311.976       -2876.3534      1920.3708      0.9969611
    396000  -619.09866      130.92001     -750.01867      345.83427     -592.65056      1920.3708      0.9969611
    397000  -631.45451      123.70616     -755.16067      326.77838     -528.12714      1920.3708      0.9969611
    398000  -662.68182      113.62885     -776.31067      300.15846      668.53017      1920.3708      0.9969611
    399000  -657.78626      109.63427     -767.42053      289.60649      1396.2625      1920.3708      0.9969611
    400000  -641.33054      125.97935     -767.30989      332.78316     -335.92107      1920.3708      0.9969611
    401000  -655.91692      116.37064     -772.28756      307.40109      249.49817      1920.3708      0.9969611
    402000  -643.8611       111.95384     -755.81494      295.73381     -2717.1377      1920.3708      0.9969611
    403000  -663.05694      119.93613     -782.99307      316.81956     -1121.0095      1920.3708      0.9969611
    404000  -654.76174      111.30218     -766.06392      294.0124       2300.5635      1920.3708      0.9969611
    405000  -663.78685      99.621356     -763.40821      263.1567       593.82294      1920.3708      0.9969611
    406000  -642.38312      109.03498     -751.4181       288.02342      2196.1478      1920.3708      0.9969611
    407000  -651.6514       116.84547     -768.49687      308.65538     -86.887763      1920.3708      0.9969611
    408000  -666.96664      98.864126     -765.83077      261.15642     -321.62754      1920.3708      0.9969611
    409000  -648.89951      116.13133     -765.03084      306.76895     -425.81265      1920.3708      0.9969611
    410000  -646.61282      111.23127     -757.84409      293.82508     -2553.4775      1920.3708      0.9969611
    411000  -662.98211      117.10964     -780.09175      309.35321      2240.0626      1920.3708      0.9969611
    412000  -634.80101      124.55151     -759.35252      329.01143     -1209.8776      1920.3708      0.9969611
    413000  -647.47549      106.55161     -754.0271       281.46344      271.48536      1920.3708      0.9969611
    414000  -636.67013      119.00959     -755.67972      314.37206     -171.10595      1920.3708      0.9969611
    415000  -675.51794      107.67249     -783.19043      284.42433     -3063.6637      1920.3708      0.9969611
    416000  -650.39469      109.24643     -759.64112      288.582        288.22997      1920.3708      0.9969611
    417000  -652.72035      100.73809     -753.45844      266.10663      446.88919      1920.3708      0.9969611
    418000  -632.51134      125.95796     -758.4693       332.72665      3327.1966      1920.3708      0.9969611
    419000  -649.42513      115.29691     -764.72204      304.56477      273.13791      1920.3708      0.9969611
    420000  -661.87628      116.54458     -778.42086      307.86056     -1822.4083      1920.3708      0.9969611
    421000  -637.66125      116.2575      -753.91875      307.10222     -1694.1227      1920.3708      0.9969611
    422000  -650.354        124.31902     -774.67302      328.39728     -109.01532      1920.3708      0.9969611
    423000  -655.68583      108.08747     -763.77331      285.52053      819.72738      1920.3708      0.9969611
    424000  -671.22374      111.30756     -782.5313       294.0266       1140.8697      1920.3708      0.9969611
    425000  -674.1642       94.101237     -768.26544      248.57492      2099.5151      1920.3708      0.9969611
    426000  -652.07854      101.94757     -754.02611      269.30155      866.93503      1920.3708      0.9969611
    427000  -634.00498      119.42538     -753.43036      315.47039     -2040.56        1920.3708      0.9969611
    428000  -658.76242      114.87393     -773.63634      303.44741     -1252.5947      1920.3708      0.9969611
    429000  -636.92263      121.83883     -758.76146      321.84568     -1687.7689      1920.3708      0.9969611
    430000  -655.2809       118.9605      -774.24139      314.24238     -875.18438      1920.3708      0.9969611
    431000  -639.93488      118.46895     -758.40383      312.94392      1152.4784      1920.3708      0.9969611
    432000  -625.36666      112.27814     -737.6448       296.59047     -658.90609      1920.3708      0.9969611
    433000  -626.22447      115.03771     -741.26218      303.88006     -1470.6405      1920.3708      0.9969611
    434000  -663.67268      93.649034     -757.32171      247.38039     -17.271952      1920.3708      0.9969611
    435000  -638.92301      102.08268     -741.00569      269.65845     -116.82903      1920.3708      0.9969611
    436000  -614.98642      117.92621     -732.91264      311.51024      2703.1544      1920.3708      0.9969611
    437000  -636.09676      108.40567     -744.50243      286.36107     -2049.0404      1920.3708      0.9969611
    438000  -635.42276      111.24678     -746.66954      293.86605     -777.73074      1920.3708      0.9969611
    439000  -665.87808      104.81093     -770.68901      276.86531      60.452189      1920.3708      0.9969611
    440000  -648.23087      126.51659     -774.74746      334.20231      1097.1769      1920.3708      0.9969611
    441000  -685.75041      94.295695     -780.04611      249.08859      1042.8267      1920.3708      0.9969611
    442000  -632.45293      127.95024     -760.40317      337.9894       2556.9349      1920.3708      0.9969611
    443000  -660.5868       112.51478     -773.10157      297.21556      300.81245      1920.3708      0.9969611
    444000  -649.50205      110.03235     -759.5344       290.65805     -2136.4448      1920.3708      0.9969611
    445000  -669.57589      104.82488     -774.40077      276.90217     -206.93305      1920.3708      0.9969611
    446000  -648.22418      134.00122     -782.2254       353.97349      501.38316      1920.3708      0.9969611
    447000  -647.45781      110.92049     -758.3783       293.00413      280.52978      1920.3708      0.9969611
    448000  -654.77847      108.72692     -763.50539      287.20968      2411.7599      1920.3708      0.9969611
    449000  -666.86885      105.72532     -772.59417      279.28075     -2398.9402      1920.3708      0.9969611
    450000  -639.66763      130.25605     -769.92368      344.08036     -2283.3685      1920.3708      0.9969611
    451000  -678.66125      101.00996     -779.67121      266.8248       1371.8922      1920.3708      0.9969611
    452000  -646.81039      128.53851     -775.3489       339.54335     -2926.6802      1920.3708      0.9969611
    453000  -648.49928      111.28432     -759.7836       293.96522     -1686.3411      1920.3708      0.9969611
    454000  -647.03641      113.09073     -760.12714      298.73698     -178.5805       1920.3708      0.9969611
    455000  -640.07874      102.61526     -742.694        271.06531     -330.73864      1920.3708      0.9969611
    456000  -613.30503      120.47062     -733.77565      318.23148      706.99686      1920.3708      0.9969611
    457000  -651.47349      116.12826     -767.60175      306.76082      1804.9907      1920.3708      0.9969611
    458000  -668.80058      114.39679     -783.19737      302.18702     -2326.6784      1920.3708      0.9969611
    459000  -644.25939      112.23291     -756.4923       296.47098      793.91798      1920.3708      0.9969611
    460000  -678.0963       102.97683     -781.07313      272.0204      -718.20829      1920.3708      0.9969611
    461000  -637.95607      109.81817     -747.77424      290.09229      850.01554      1920.3708      0.9969611
    462000  -649.25807      115.45185     -764.70992      304.97405      896.63748      1920.3708      0.9969611
    463000  -643.99482      122.55678     -766.5516       323.7422       1695.3575      1920.3708      0.9969611
    464000  -654.44199      115.07109     -769.51307      303.96823      294.94671      1920.3708      0.9969611
    465000  -642.04725      111.26498     -753.31223      293.91414     -279.16641      1920.3708      0.9969611
    466000  -658.53242      96.511464     -755.04388      254.9417      -60.137586      1920.3708      0.9969611
    467000  -635.92813      102.70553     -738.63367      271.30377     -2769.2314      1920.3708      0.9969611
    468000  -655.88529      109.86918     -765.75448      290.22704     -2839.7778      1920.3708      0.9969611
    469000  -633.51611      122.80619     -756.32231      324.40105      293.19517      1920.3708      0.9969611
    470000  -651.17576      119.77016     -770.94592      316.38114      2509.5292      1920.3708      0.9969611
    471000  -658.30614      102.90715     -761.21328      271.83634      886.64714      1920.3708      0.9969611
    472000  -638.39535      107.64615     -746.0415       284.35475     -1810.647       1920.3708      0.9969611
    473000  -637.71089      122.84884     -760.55973      324.5137      -234.40545      1920.3708      0.9969611
    474000  -640.70955      107.04603     -747.75558      282.76948      2914.8951      1920.3708      0.9969611
    475000  -666.80127      106.17098     -772.97225      280.45798      738.08826      1920.3708      0.9969611
    476000  -668.97291      97.472248     -766.44516      257.47968     -1393.8162      1920.3708      0.9969611
    477000  -676.66516      105.92348     -782.58864      279.80419      736.62028      1920.3708      0.9969611
    478000  -659.6655       110.08648     -769.75199      290.80106     -1442.1936      1920.3708      0.9969611
    479000  -639.16256      111.01608     -750.17863      293.25664      933.53779      1920.3708      0.9969611
    480000  -680.59544      86.106152     -766.70159      227.45535     -772.92719      1920.3708      0.9969611
    481000  -655.09324      113.48289     -768.57612      299.77289      619.40831      1920.3708      0.9969611
    482000  -668.98698      110.99495     -779.98193      293.20083      2107.9577      1920.3708      0.9969611
    483000  -636.38501      117.86986     -754.25487      311.36138      1090.0499      1920.3708      0.9969611
    484000  -648.68181      107.7914      -756.47321      284.73843      1051.8381      1920.3708      0.9969611
    485000  -633.93879      126.75886     -760.69765      334.84229     -1278.5961      1920.3708      0.9969611
    486000  -661.34874      110.93492     -772.28366      293.04227      1211.3058      1920.3708      0.9969611
    487000  -633.09457      95.41343      -728.508        252.04117     -1578.4837      1920.3708      0.9969611
    488000  -650.44783      97.216892     -747.66473      256.80514     -618.95554      1920.3708      0.9969611
    489000  -660.2444       116.41151     -776.65591      307.50906      2351.4786      1920.3708      0.9969611
    490000  -668.10249      108.50465     -776.60714      286.62253      1749.0896      1920.3708      0.9969611
    491000  -655.27159      97.814305     -753.08589      258.38325      206.45753      1920.3708      0.9969611
    492000  -635.6786       112.67795     -748.35655      297.64659      2057.0302      1920.3708      0.9969611
    493000  -632.80346      129.27511     -762.07856      341.48913      2637.3435      1920.3708      0.9969611
    494000  -654.38451      110.90243     -765.28694      292.95644      1001.9873      1920.3708      0.9969611
    495000  -622.31164      122.14039     -744.45203      322.64228     -1946.5107      1920.3708      0.9969611
    496000  -660.20647      115.13188     -775.33835      304.12881     -1537.6444      1920.3708      0.9969611
    497000  -645.87774      117.35324     -763.23097      309.99669      790.54301      1920.3708      0.9969611
    498000  -631.86784      128.67867     -760.5465       339.91359     -1698.7746      1920.3708      0.9969611
    499000  -671.4815       102.03017     -773.51167      269.51975     -161.45173      1920.3708      0.9969611
    500000  -644.41667      124.67467     -769.09134      329.33675     -1055.2087      1920.3708      0.9969611
    501000  -621.01985      111.68323     -732.70309      295.01898      2998.3848      1920.3708      0.9969611
    502000  -626.92212      107.98885     -734.91098      285.26001     -755.69728      1920.3708      0.9969611
    503000  -647.96287      110.8428      -758.80567      292.79891     -173.73801      1920.3708      0.9969611
    504000  -650.60266      108.58586     -759.18853      286.83706      373.90576      1920.3708      0.9969611
    505000  -670.98466      104.31353     -775.29819      275.55139      1076.1222      1920.3708      0.9969611
    506000  -670.03044      123.9154      -793.94583      327.33108      1494.4665      1920.3708      0.9969611
    507000  -644.83687      112.46712     -757.30398      297.08966     -1164.0763      1920.3708      0.9969611
    508000  -641.05938      111.94427     -753.00366      295.70854     -2944.3931      1920.3708      0.9969611
    509000  -624.34209      117.05394     -741.39603      309.20607     -2536.9512      1920.3708      0.9969611
    510000  -666.92638      102.76732     -769.6937       271.46697     -2477.437       1920.3708      0.9969611
    511000  -637.68894      113.11316     -750.8021       298.79624      4134.2651      1920.3708      0.9969611
    512000  -661.76596      121.74026     -783.50622      321.5853      -1956.6417      1920.3708      0.9969611
    513000  -624.58755      112.89844     -737.48599      298.22904     -1690.3496      1920.3708      0.9969611
    514000  -614.12732      130.5556      -744.68291      344.87163     -351.01778      1920.3708      0.9969611
    515000  -640.97778      113.53161     -754.50939      299.9016       333.59979      1920.3708      0.9969611
    516000  -618.98583      112.33917     -731.325        296.75167      2028.7094      1920.3708      0.9969611
    517000  -630.66825      109.37444     -740.04269      288.92014      136.56946      1920.3708      0.9969611
    518000  -616.4381       123.60195     -740.04005      326.5031      -15.848945      1920.3708      0.9969611
    519000  -638.83937      119.13236     -757.97173      314.69637     -945.77787      1920.3708      0.9969611
    520000  -655.67113      117.40797     -773.0791       310.14126     -3386.818       1920.3708      0.9969611
    521000  -655.39981      118.04179     -773.44159      311.81554     -691.45963      1920.3708      0.9969611
    522000  -644.06764      114.2114      -758.27903      301.6973      -541.56709      1920.3708      0.9969611
    523000  -637.85774      116.80733     -754.66507      308.55463     -552.51176      1920.3708      0.9969611
    524000  -616.76045      120.97918     -737.73962      319.57486      358.29712      1920.3708      0.9969611
    525000  -654.94804      111.74714     -766.69518      295.18779     -1497.0698      1920.3708      0.9969611
    526000  -644.70892      107.69379     -752.4027       284.48058      9.29305        1920.3708      0.9969611
    527000  -624.15154      125.07879     -749.23033      330.40428     -1432.0384      1920.3708      0.9969611
    528000  -638.15756      113.87306     -752.03062      300.80356     -2877.1721      1920.3708      0.9969611
    529000  -639.99519      114.2767      -754.27189      301.8698      -481.92085      1920.3708      0.9969611
    530000  -660.36678      110.46351     -770.8303       291.79701      821.94948      1920.3708      0.9969611
    531000  -655.12714      117.16359     -772.29074      309.49573      683.68554      1920.3708      0.9969611
    532000  -629.90572      122.09753     -752.00325      322.52906      1846.9187      1920.3708      0.9969611
    533000  -628.08289      113.1526      -741.23549      298.90042     -1314.2845      1920.3708      0.9969611
    534000  -600.52352      119.55551     -720.07903      315.81415      1518.596       1920.3708      0.9969611
    535000  -672.92419      106.52249     -779.44668      281.38651     -32.435508      1920.3708      0.9969611
    536000  -657.23347      110.1058      -767.33927      290.85209      1744.8124      1920.3708      0.9969611
    537000  -642.32634      107.95521     -750.28155      285.17114      2071.4069      1920.3708      0.9969611
    538000  -654.77796      115.60221     -770.38017      305.37123      2089.1428      1920.3708      0.9969611
    539000  -641.67489      122.85883     -764.53372      324.54008     -278.70887      1920.3708      0.9969611
    540000  -636.92365      137.72164     -774.64529      363.80124     -291.27973      1920.3708      0.9969611
    541000  -625.55294      112.22426     -737.7772       296.44815     -3230.1212      1920.3708      0.9969611
    542000  -627.64793      122.24413     -749.89206      322.91633      1587.9035      1920.3708      0.9969611
    543000  -650.98091      94.764489     -745.7454       250.32695     -1361.896       1920.3708      0.9969611
    544000  -654.41205      118.45415     -772.86619      312.90482      1169.9921      1920.3708      0.9969611
    545000  -613.43576      113.5212      -726.95696      299.8741       1219.7069      1920.3708      0.9969611
    546000  -651.98073      99.018383     -750.99911      261.5639       641.80265      1920.3708      0.9969611
    547000  -640.36597      122.64529     -763.01126      323.976        296.21788      1920.3708      0.9969611
    548000  -647.42784      123.28451     -770.71235      325.66455     -1021.7912      1920.3708      0.9969611
    549000  -678.94941      97.63083      -776.58024      257.89859      1387.7427      1920.3708      0.9969611
    550000  -651.4209       119.80597     -771.22687      316.47576      392.85919      1920.3708      0.9969611
    551000  -641.60357      112.98906     -754.59263      298.46841      530.11568      1920.3708      0.9969611
    552000  -661.24158      110.18936     -771.43095      291.07282     -532.64793      1920.3708      0.9969611
    553000  -639.91326      116.59455     -756.50781      307.99256     -1822.8637      1920.3708      0.9969611
    554000  -668.94681      111.05111     -779.99792      293.34919     -1989.8292      1920.3708      0.9969611
    555000  -635.34495      122.92532     -758.27027      324.71574      926.82269      1920.3708      0.9969611
    556000  -667.84534      108.0859      -775.93124      285.51638      511.26567      1920.3708      0.9969611
    557000  -642.00035      127.45842     -769.45876      336.69022      1003.8263      1920.3708      0.9969611
    558000  -660.18793      104.42379     -764.61172      275.84265     -1998.195       1920.3708      0.9969611
    559000  -632.18557      103.92266     -736.10822      274.51888      898.29142      1920.3708      0.9969611
    560000  -636.97761      123.43286     -760.41046      326.05642     -407.44235      1920.3708      0.9969611
    561000  -628.16808      120.09223     -748.26032      317.23194     -383.68058      1920.3708      0.9969611
    562000  -662.10607      101.651       -763.75706      268.51813      417.05511      1920.3708      0.9969611
    563000  -656.14762      106.43556     -762.58318      281.15688     -2430.3852      1920.3708      0.9969611
    564000  -633.67571      122.36412     -756.03982      323.23327     -49.400583      1920.3708      0.9969611
    565000  -640.74214      114.25988     -755.00203      301.82538      1506.9952      1920.3708      0.9969611
    566000  -620.5809       128.19691     -748.77781      338.641       -1035.3247      1920.3708      0.9969611
    567000  -673.58769      98.001974     -771.58967      258.87899     -959.29021      1920.3708      0.9969611
    568000  -658.24679      111.13781     -769.38459      293.5782      -1722.0923      1920.3708      0.9969611
    569000  -654.82793      107.86596     -762.69389      284.93538     -1511.8888      1920.3708      0.9969611
    570000  -665.35903      112.67027     -778.0293       297.6263       2196.322       1920.3708      0.9969611
    571000  -658.06147      99.639762     -757.70123      263.20532     -359.53106      1920.3708      0.9969611
    572000  -658.03639      106.81408     -764.85047      282.15679      2204.532       1920.3708      0.9969611
    573000  -672.38114      109.94089     -782.32203      290.41645      586.58999      1920.3708      0.9969611
    574000  -642.82115      110.32308     -753.14423      291.42604      1284.8161      1920.3708      0.9969611
    575000  -663.54364      104.9443      -768.48794      277.21761     -1562.9691      1920.3708      0.9969611
    576000  -654.81742      111.20498     -766.0224       293.75564     -1603.6247      1920.3708      0.9969611
    577000  -643.39663      108.69557     -752.0922       287.12687     -261.18951      1920.3708      0.9969611
    578000  -635.87774      118.64184     -754.51958      313.40061     -215.88788      1920.3708      0.9969611
    579000  -645.07565      111.13987     -756.21552      293.58365      393.94518      1920.3708      0.9969611
    580000  -660.36278      111.67185     -772.03463      294.98891     -2090.0059      1920.3708      0.9969611
    581000  -674.66512      100.75313     -775.41825      266.14635     -1214.3965      1920.3708      0.9969611
    582000  -667.70321      103.36867     -771.07187      273.05547     -222.71056      1920.3708      0.9969611
    583000  -632.18984      117.46285     -749.65269      310.28625      1028.4814      1920.3708      0.9969611
    584000  -642.54566      113.58109     -756.12675      300.0323       648.89839      1920.3708      0.9969611
    585000  -651.45537      106.33781     -757.79319      280.89869     -560.68034      1920.3708      0.9969611
    586000  -662.15456      110.21229     -772.36685      291.13338     -844.77954      1920.3708      0.9969611
    587000  -634.25156      105.771       -740.02256      279.40141     -543.20806      1920.3708      0.9969611
    588000  -661.11683      107.07644     -768.19327      282.84981     -693.78501      1920.3708      0.9969611
    589000  -663.68605      109.48387     -773.16992      289.2092      -688.18116      1920.3708      0.9969611
    590000  -659.54437      115.61087     -775.15524      305.39411     -415.14273      1920.3708      0.9969611
    591000  -642.83852      118.58323     -761.42175      313.2458      -2267.3006      1920.3708      0.9969611
    592000  -648.42301      116.01495     -764.43796      306.46152     -415.26007      1920.3708      0.9969611
    593000  -646.55218      102.17923     -748.7314       269.91348     -4027.5439      1920.3708      0.9969611
    594000  -637.36489      115.33177     -752.69667      304.65685     -2849.1508      1920.3708      0.9969611
    595000  -622.78136      119.12598     -741.90734      314.67952     -920.15158      1920.3708      0.9969611
    596000  -637.62435      113.42837     -751.05272      299.62888      402.51398      1920.3708      0.9969611
    597000  -664.35488      103.70357     -768.05845      273.94014     -1857.8932      1920.3708      0.9969611
    598000  -625.36024      116.0585      -741.41873      306.57654     -125.74708      1920.3708      0.9969611
    599000  -649.44857      121.11956     -770.56813      319.94568     -1106.3056      1920.3708      0.9969611
    600000  -660.88346      101.97568     -762.85914      269.37581      217.26706      1920.3708      0.9969611
    601000  -639.7926       129.64498     -769.43759      342.46618     -263.12872      1920.3708      0.9969611
    602000  -661.32917      116.02037     -777.34954      306.47582     -1064.529       1920.3708      0.9969611
    603000  -665.61157      115.08643     -780.69801      304.00876     -2744.6862      1920.3708      0.9969611
    604000  -650.85713      116.16546     -767.0226       306.8591      -1901.4671      1920.3708      0.9969611
    605000  -648.81096      115.54858     -764.35955      305.22957      958.23775      1920.3708      0.9969611
    606000  -658.22512      119.73577     -777.96089      316.29032     -1785.5909      1920.3708      0.9969611
    607000  -665.05027      111.91143     -776.96171      295.62179     -284.35682      1920.3708      0.9969611
    608000  -665.65953      106.18322     -771.84275      280.49032     -1077.5566      1920.3708      0.9969611
    609000  -639.01595      121.6059      -760.62185      321.2304      -415.60027      1920.3708      0.9969611
    610000  -660.73005      113.13018     -773.86023      298.8412      -2937.1785      1920.3708      0.9969611
    611000  -638.60927      115.11023     -753.7195       304.07163      850.82315      1920.3708      0.9969611
    612000  -624.28139      115.57509     -739.85648      305.29959     -802.24653      1920.3708      0.9969611
    613000  -634.26454      107.27271     -741.53724      283.36827     -2986.9421      1920.3708      0.9969611
    614000  -645.26428      114.01881     -759.2831       301.18857     -17.960143      1920.3708      0.9969611
    615000  -669.89766      101.36039     -771.25804      267.75047      431.93462      1920.3708      0.9969611
    616000  -631.83366      120.71155     -752.54521      318.86791      670.70335      1920.3708      0.9969611
    617000  -629.28159      116.25847     -745.54006      307.10478     -219.00013      1920.3708      0.9969611
    618000  -646.57306      119.07104     -765.6441       314.53438      883.77322      1920.3708      0.9969611
    619000  -659.22276      116.60937     -775.83213      308.03172     -1389.1053      1920.3708      0.9969611
    620000  -674.69658      104.27603     -778.97261      275.45235     -1664.6885      1920.3708      0.9969611
    621000  -665.62343      106.75581     -772.37925      282.00286     -3210.6184      1920.3708      0.9969611
    622000  -646.23021      110.99871     -757.22892      293.21077     -719.27687      1920.3708      0.9969611
    623000  -665.48547      97.16602      -762.65149      256.67076     -108.46155      1920.3708      0.9969611
    624000  -671.49507      111.98154     -783.47661      295.80699     -1765.5588      1920.3708      0.9969611
    625000  -663.48518      118.62574     -782.11092      313.35808     -1114.5873      1920.3708      0.9969611
    626000  -632.22048      127.03825     -759.25873      335.58031     -555.29437      1920.3708      0.9969611
    627000  -633.84522      107.45978     -741.305        283.86243     -303.8562       1920.3708      0.9969611
    628000  -637.14719      110.17152     -747.31871      291.02568      141.54395      1920.3708      0.9969611
    629000  -638.69707      120.09836     -758.79543      317.24812     -470.53763      1920.3708      0.9969611
    630000  -627.10906      124.16831     -751.27737      327.99918     -171.74682      1920.3708      0.9969611
    631000  -627.37991      130.82806     -758.20797      345.59136     -264.7069       1920.3708      0.9969611
    632000  -654.0529       118.96588     -773.01878      314.2566      -2417.7488      1920.3708      0.9969611
    633000  -666.87716      119.98315     -786.8603       316.94378     -97.676417      1920.3708      0.9969611
    634000  -665.22363      109.32921     -774.55284      288.80067      2504.2098      1920.3708      0.9969611
    635000  -656.90452      106.46187     -763.36639      281.22639     -597.25898      1920.3708      0.9969611
    636000  -694.6575       99.330452     -793.98795      262.38825     -2747.9869      1920.3708      0.9969611
    637000  -661.34405      120.15378     -781.49784      317.39452     -1802.2391      1920.3708      0.9969611
    638000  -671.2237       111.49567     -782.71937      294.52351     -1981.6155      1920.3708      0.9969611
    639000  -638.80293      111.91997     -750.7229       295.64434      2288.5802      1920.3708      0.9969611
    640000  -638.29492      119.63158     -757.9265       316.01508      3172.8858      1920.3708      0.9969611
    641000  -645.62746      123.98461     -769.61207      327.51392      2976.6643      1920.3708      0.9969611
    642000  -680.19304      96.666193     -776.85924      255.35043     -998.49445      1920.3708      0.9969611
    643000  -633.78445      107.87357     -741.65802      284.95548      873.70649      1920.3708      0.9969611
    644000  -644.31091      97.843081     -742.15399      258.45926     -919.3756       1920.3708      0.9969611
    645000  -633.65601      121.99304     -755.64904      322.25304     -170.90152      1920.3708      0.9969611
    646000  -683.14959      101.20844     -784.35803      267.3491      -3174.5029      1920.3708      0.9969611
    647000  -647.00704      118.55275     -765.55979      313.16528     -461.5906       1920.3708      0.9969611
    648000  -659.74699      106.58914     -766.33613      281.56258      12.232265      1920.3708      0.9969611
    649000  -631.48022      110.75172     -742.23194      292.55831      2466.7385      1920.3708      0.9969611
    650000  -622.19381      114.45475     -736.64856      302.34013      1006.8031      1920.3708      0.9969611
    651000  -644.81076      114.02139     -758.83214      301.19537     -3134.1004      1920.3708      0.9969611
    652000  -645.07324      102.04797     -747.12121      269.56678      30.73956       1920.3708      0.9969611
    653000  -638.71588      117.50726     -756.22314      310.40355      449.03481      1920.3708      0.9969611
    654000  -664.68709      96.511241     -761.19833      254.94111     -1450.9747      1920.3708      0.9969611
    655000  -664.42876      110.81289     -775.24165      292.71991     -2516.3069      1920.3708      0.9969611
    656000  -661.05309      108.48619     -769.53929      286.57377     -283.64467      1920.3708      0.9969611
    657000  -652.70013      100.86087     -753.56101      266.43096     -1717.6754      1920.3708      0.9969611
    658000  -653.00454      102.192       -755.19653      269.94722     -355.80724      1920.3708      0.9969611
    659000  -612.73824      119.23381     -731.97206      314.96436      900.23091      1920.3708      0.9969611
    660000  -655.86708      120.38777     -776.25485      318.01262     -2548.5254      1920.3708      0.9969611
    661000  -654.05382      106.13446     -760.18828      280.36151      1003.3094      1920.3708      0.9969611
    662000  -626.62653      105.61509     -732.24163      278.98957      527.09778      1920.3708      0.9969611
    663000  -665.32014      107.46528     -772.78542      283.87697      1046.1517      1920.3708      0.9969611
    664000  -631.65794      115.38404     -747.04198      304.79491     -630.68735      1920.3708      0.9969611
    665000  -640.33709      109.67747     -750.01456      289.72062     -88.171438      1920.3708      0.9969611
    666000  -623.29072      111.92733     -735.21804      295.66377      2501.8706      1920.3708      0.9969611
    667000  -656.11355      119.65869     -775.77224      316.0867       82.765953      1920.3708      0.9969611
    668000  -630.96034      124.78084     -755.74118      329.61721     -2564.8144      1920.3708      0.9969611
    669000  -636.77697      123.34672     -760.12369      325.82889      148.4497       1920.3708      0.9969611
    670000  -657.82286      103.47618     -761.29903      273.33947      975.73785      1920.3708      0.9969611
    671000  -636.31151      109.80014     -746.11165      290.04466      3089.6628      1920.3708      0.9969611
    672000  -644.51302      109.23782     -753.75084      288.55925     -1616.5561      1920.3708      0.9969611
    673000  -648.99689      104.24414     -753.24103      275.36811     -1152.9045      1920.3708      0.9969611
    674000  -630.9488       114.39312     -745.34192      302.17734      567.47565      1920.3708      0.9969611
    675000  -685.6131       103.45229     -789.06539      273.27637      29.414986      1920.3708      0.9969611
    676000  -643.33977      117.29936     -760.63914      309.85437      1781.6974      1920.3708      0.9969611
    677000  -647.28474      106.17218     -753.45692      280.46115     -1033.2132      1920.3708      0.9969611
    678000  -663.4027       98.83071      -762.23341      261.06815     -1040.0589      1920.3708      0.9969611
    679000  -638.01651      107.17573     -745.19224      283.1121      -361.71817      1920.3708      0.9969611
    680000  -634.76429      130.93486     -765.69915      345.87348      682.31011      1920.3708      0.9969611
    681000  -640.36134      116.98234     -757.34367      309.01692      216.48579      1920.3708      0.9969611
    682000  -652.04354      111.8764      -763.91994      295.52925      75.156194      1920.3708      0.9969611
    683000  -653.06638      109.0569      -762.12329      288.08135     -877.09213      1920.3708      0.9969611
    684000  -622.61643      127.67542     -750.29185      337.26344     -326.89673      1920.3708      0.9969611
    685000  -654.75882      102.04864     -756.80746      269.56854      597.79475      1920.3708      0.9969611
    686000  -651.28914      118.26975     -769.55889      312.41772      1908.2062      1920.3708      0.9969611
    687000  -654.79014      119.61418     -774.40432      315.96911     -2420.2712      1920.3708      0.9969611
    688000  -640.7823       111.50755     -752.28985      294.5549      -1752.8641      1920.3708      0.9969611
    689000  -620.21145      123.0037      -743.21515      324.92277      1600.7975      1920.3708      0.9969611
    690000  -644.14568      124.21544     -768.36111      328.12366     -1344.4473      1920.3708      0.9969611
    691000  -657.97502      122.04976     -780.02477      322.40287      3993.7644      1920.3708      0.9969611
    692000  -632.72202      108.5982      -741.32021      286.86964      107.11374      1920.3708      0.9969611
    693000  -658.52243      98.06349      -756.58592      259.04149     -3047.1095      1920.3708      0.9969611
    694000  -656.78425      116.50262     -773.28687      307.74973     -1989.8875      1920.3708      0.9969611
    695000  -645.71518      124.9332      -770.64838      330.01967     -458.1368       1920.3708      0.9969611
    696000  -628.51233      112.87475     -741.38708      298.16646     -1162.0646      1920.3708      0.9969611
    697000  -655.2398       105.5139      -760.7537       278.72225     -1350.5391      1920.3708      0.9969611
    698000  -660.92158      106.03558     -766.95716      280.10031      308.70343      1920.3708      0.9969611
    699000  -623.73054      119.19271     -742.92326      314.85579     -594.38072      1920.3708      0.9969611
    700000  -625.93041      117.19614     -743.12655      309.58171      2883.6436      1920.3708      0.9969611
    701000  -656.72473      112.89457     -769.6193       298.2188      -260.69595      1920.3708      0.9969611
    702000  -669.28024      116.26026     -785.54051      307.10952      66.907041      1920.3708      0.9969611
    703000  -655.04388      103.81314     -758.85703      274.22959      1487.2217      1920.3708      0.9969611
    704000  -609.41458      121.38037     -730.79495      320.63463     -2905.197       1920.3708      0.9969611
    705000  -638.68578      110.85222     -749.538        292.8238      -171.20547      1920.3708      0.9969611
    706000  -650.19982      105.22046     -755.42028      277.9471       62.509872      1920.3708      0.9969611
    707000  -635.82266      105.66964     -741.4923       279.13365     -1395.5007      1920.3708      0.9969611
    708000  -643.79657      107.47033     -751.26689      283.89029      720.36766      1920.3708      0.9969611
    709000  -637.06849      116.93294     -754.00143      308.88644     -275.25099      1920.3708      0.9969611
    710000  -660.57291      100.78219     -761.3551       266.22312      1238.1114      1920.3708      0.9969611
    711000  -633.49164      124.0556      -757.54724      327.70144      1036.2279      1920.3708      0.9969611
    712000  -617.43245      124.60661     -742.03905      329.15697     -1601.1797      1920.3708      0.9969611
    713000  -644.99806      107.46163     -752.45969      283.86732      1552.254       1920.3708      0.9969611
    714000  -667.85336      102.32169     -770.17505      270.28981      2796.9604      1920.3708      0.9969611
    715000  -634.57596      122.89557     -757.47153      324.63713      1368.2186      1920.3708      0.9969611
    716000  -635.62712      120.5118      -756.13892      318.34024      5522.1137      1920.3708      0.9969611
    717000  -603.76545      122.28632     -726.05176      323.02776     -953.17081      1920.3708      0.9969611
    718000  -640.01018      116.35384     -756.36402      307.35671     -388.86435      1920.3708      0.9969611
    719000  -667.64611      106.20228     -773.8484       280.54067     -3145.4877      1920.3708      0.9969611
    720000  -641.31775      108.45737     -749.77512      286.49764     -2710.237       1920.3708      0.9969611
    721000  -677.49953      95.302903     -772.80244      251.74921      462.88247      1920.3708      0.9969611
    722000  -637.92612      128.10836     -766.03448      338.40709     -66.584925      1920.3708      0.9969611
    723000  -669.91302      108.21858     -778.1316       285.86685     -2222.575       1920.3708      0.9969611
    724000  -642.49532      107.65793     -750.15325      284.38586     -3539.569       1920.3708      0.9969611
    725000  -655.64385      114.8022      -770.44605      303.25794     -1070.82        1920.3708      0.9969611
    726000  -657.94417      106.84752     -764.79169      282.2451       1590.6461      1920.3708      0.9969611
    727000  -665.76015      118.19022     -783.95037      312.20764      271.26896      1920.3708      0.9969611
    728000  -667.09907      103.10064     -770.19971      272.34747     -342.7974       1920.3708      0.9969611
    729000  -606.58231      111.53556     -718.11787      294.62889     -476.61875      1920.3708      0.9969611
    730000  -641.16396      103.67998     -744.84395      273.87784     -256.01274      1920.3708      0.9969611
    731000  -659.53722      98.589468     -758.12669      260.43089      533.49278      1920.3708      0.9969611
    732000  -640.45765      111.47988     -751.93753      294.4818      -1213.685       1920.3708      0.9969611
    733000  -622.05046      111.007       -733.05746      293.23266     -639.20904      1920.3708      0.9969611
    734000  -627.72016      116.84969     -744.56985      308.66653     -555.0876       1920.3708      0.9969611
    735000  -642.39683      111.61015     -754.00698      294.82593     -433.34996      1920.3708      0.9969611
    736000  -635.40026      114.85396     -750.25422      303.39467      1185.9029      1920.3708      0.9969611
    737000  -646.42032      115.07499     -761.49531      303.97854      1677.067       1920.3708      0.9969611
    738000  -650.92239      116.52909     -767.45148      307.81965     -52.689181      1920.3708      0.9969611
    739000  -629.9701       125.85495     -755.82504      332.45454     -1394.8236      1920.3708      0.9969611
    740000  -643.18225      111.343       -754.52525      294.12023     -1007.881       1920.3708      0.9969611
    741000  -643.90587      110.72695     -754.63282      292.49289     -1600.1003      1920.3708      0.9969611
    742000  -634.90683      120.32448     -755.23131      317.84542     -796.34268      1920.3708      0.9969611
    743000  -656.8096       104.50985     -761.31945      276.07        -1549.7992      1920.3708      0.9969611
    744000  -641.99543      100.4447      -742.44014      265.33163      788.20975      1920.3708      0.9969611
    745000  -640.54605      111.63292     -752.17897      294.88608      1309.4765      1920.3708      0.9969611
    746000  -656.83511      101.35101     -758.18612      267.72569     -266.45691      1920.3708      0.9969611
    747000  -638.67852      111.04774     -749.72626      293.34027     -2101.6814      1920.3708      0.9969611
    748000  -600.33371      130.56152     -730.89524      344.88728     -189.44382      1920.3708      0.9969611
    749000  -669.24794      103.0493      -772.29724      272.21184     -958.3449       1920.3708      0.9969611
    750000  -627.74951      122.62399     -750.3735       323.91973      1658.5545      1920.3708      0.9969611
    751000  -684.03242      105.34777     -789.38018      278.28341     -1247.8608      1920.3708      0.9969611
    752000  -684.00755      97.116693     -781.12424      256.54046      808.03341      1920.3708      0.9969611
    753000  -649.515        116.41442     -765.92942      307.51673      295.75751      1920.3708      0.9969611
    754000  -646.77973      115.18304     -761.96277      304.26397     -1003.1162      1920.3708      0.9969611
    755000  -645.54132      107.16568     -752.707        283.08555     -1047.0132      1920.3708      0.9969611
    756000  -656.41653      105.22451     -761.64104      277.95781     -455.326        1920.3708      0.9969611
    757000  -643.65867      126.37176     -770.03043      333.81974     -2219.4402      1920.3708      0.9969611
    758000  -635.35971      108.07494     -743.43465      285.48742      1294.0752      1920.3708      0.9969611
    759000  -648.49004      113.25965     -761.74969      299.1832       468.65622      1920.3708      0.9969611
    760000  -638.84721      119.81542     -758.66264      316.50072      1990.3136      1920.3708      0.9969611
    761000  -679.8629       108.12821     -787.99111      285.62814     -231.92536      1920.3708      0.9969611
    762000  -654.45895      114.79436     -769.2533       303.23722      1071.5877      1920.3708      0.9969611
    763000  -658.76561      118.86705     -777.63266      313.99553      536.30908      1920.3708      0.9969611
    764000  -648.43708      114.14412     -762.5812       301.51958      721.57116      1920.3708      0.9969611
    765000  -659.24392      116.4292      -775.67312      307.55577     -145.8078       1920.3708      0.9969611
    766000  -668.24988      90.977525     -759.22741      240.32342     -323.38115      1920.3708      0.9969611
    767000  -648.15512      123.04173     -771.19685      325.02324      81.413376      1920.3708      0.9969611
    768000  -657.20566      115.43273     -772.63839      304.92353     -276.65168      1920.3708      0.9969611
    769000  -643.69916      110.71422     -754.41338      292.45926     -95.762152      1920.3708      0.9969611
    770000  -634.92612      117.11211     -752.03823      309.35974     -1701.2026      1920.3708      0.9969611
    771000  -655.02217      112.02726     -767.04943      295.92775      627.12236      1920.3708      0.9969611
    772000  -630.77513      104.92988     -735.70501      277.17954      2581.7866      1920.3708      0.9969611
    773000  -649.15828      98.185702     -747.34398      259.36432     -1959.9794      1920.3708      0.9969611
    774000  -673.58917      104.40862     -777.99778      275.80257     -1800.8663      1920.3708      0.9969611
    775000  -655.52208      99.574452     -755.09654      263.0328      -2575.5226      1920.3708      0.9969611
    776000  -662.2423       116.25107     -778.49338      307.08524      56.126846      1920.3708      0.9969611
    777000  -646.16476      119.09039     -765.25514      314.58549     -1071.8318      1920.3708      0.9969611
    778000  -637.00582      117.50339     -754.50921      310.39332     -395.13931      1920.3708      0.9969611
    779000  -682.36579      97.904853     -780.27065      258.62244     -1099.5099      1920.3708      0.9969611
    780000  -663.74895      104.52556     -768.27451      276.11148      3393.4097      1920.3708      0.9969611
    781000  -631.79041      119.20731     -750.99772      314.89434     -303.67109      1920.3708      0.9969611
    782000  -631.20034      115.92814     -747.12848      306.2322       400.84473      1920.3708      0.9969611
    783000  -661.53048      109.25961     -770.79009      288.6168       1540.4349      1920.3708      0.9969611
    784000  -651.02413      96.763715     -747.78784      255.60804     -299.66087      1920.3708      0.9969611
    785000  -646.81245      112.90979     -759.72224      298.259        1875.7379      1920.3708      0.9969611
    786000  -624.09047      120.44484     -744.53531      318.16338      158.77829      1920.3708      0.9969611
    787000  -646.08384      112.81481     -758.89866      298.00813     -3605.344       1920.3708      0.9969611
    788000  -633.34467      111.84134     -745.186        295.43662     -1909.6452      1920.3708      0.9969611
    789000  -641.54473      109.99684     -751.54157      290.56427     -3271.5595      1920.3708      0.9969611
    790000  -641.73441      119.28        -761.01441      315.08636     -790.44526      1920.3708      0.9969611
    791000  -639.91599      113.64386     -753.55984      300.1981       246.94822      1920.3708      0.9969611
    792000  -643.12179      118.0417      -761.16349      311.81531      2184.0991      1920.3708      0.9969611
    793000  -648.00053      95.532033     -743.53257      252.35447      1223.3456      1920.3708      0.9969611
    794000  -640.21942      103.71225     -743.93167      273.96308     -924.23208      1920.3708      0.9969611
    795000  -619.24627      122.56269     -741.80896      323.75782      133.29336      1920.3708      0.9969611
    796000  -652.1425       105.99628     -758.13878      279.99651     -4389.7993      1920.3708      0.9969611
    797000  -663.95769      104.89809     -768.85578      277.09556     -2848.3769      1920.3708      0.9969611
    798000  -644.87863      114.26799     -759.14662      301.8468      -520.88643      1920.3708      0.9969611
    799000  -640.50489      125.87121     -766.3761       332.49749      2121.8306      1920.3708      0.9969611
    800000  -643.34135      120.07358     -763.41493      317.18266      2511.293       1920.3708      0.9969611
    801000  -625.49899      106.39265     -731.89164      281.04353     -1569.6887      1920.3708      0.9969611
    802000  -649.87683      115.96188     -765.83871      306.32133     -2354.0991      1920.3708      0.9969611
    803000  -661.96297      108.73841     -770.70137      287.24002      1657.4484      1920.3708      0.9969611
    804000  -656.38837      110.45401     -766.84238      291.7719       762.04883      1920.3708      0.9969611
    805000  -657.0608       121.05865     -778.11945      319.7848      -2009.1067      1920.3708      0.9969611
    806000  -675.49405      115.29896     -790.793        304.57016      3619.4503      1920.3708      0.9969611
    807000  -688.89136      106.40541     -795.29677      281.07724     -636.07763      1920.3708      0.9969611
    808000  -663.06598      101.14991     -764.21589      267.19449     -663.69942      1920.3708      0.9969611
    809000  -638.3076       107.73513     -746.04273      284.58979     -49.807541      1920.3708      0.9969611
    810000  -647.38664      116.25031     -763.63694      307.08322      1056.0031      1920.3708      0.9969611
    811000  -664.93959      108.47511     -773.41471      286.5445       2092.1452      1920.3708      0.9969611
    812000  -629.84396      124.27546     -754.11942      328.28222     -453.71127      1920.3708      0.9969611
    813000  -662.09358      108.78264     -770.87621      287.35685     -2174.4953      1920.3708      0.9969611
    814000  -633.94521      114.43415     -748.37936      302.28571      2381.0465      1920.3708      0.9969611
    815000  -640.49714      108.04405     -748.54119      285.40583     -588.62033      1920.3708      0.9969611
    816000  -650.92555      117.82785     -768.7534       311.25041      2883.7215      1920.3708      0.9969611
    817000  -663.65761      99.936141     -763.59375      263.98822     -1724.8728      1920.3708      0.9969611
    818000  -654.24587      112.62742     -766.87329      297.51311     -583.00855      1920.3708      0.9969611
    819000  -655.06876      113.84965     -768.91841      300.74172      1962.1796      1920.3708      0.9969611
    820000  -648.86129      102.72043     -751.58172      271.34311     -1147.2302      1920.3708      0.9969611
    821000  -665.07003      110.80753     -775.87755      292.70574     -255.90461      1920.3708      0.9969611
    822000  -638.11256      119.78787     -757.90043      316.42794     -1968.5073      1920.3708      0.9969611
    823000  -625.43258      124.87305     -750.30563      329.8608      -387.55745      1920.3708      0.9969611
    824000  -627.41643      113.28668     -740.70311      299.2546       2256.6145      1920.3708      0.9969611
    825000  -660.54181      119.72136     -780.26317      316.25226      1478.3782      1920.3708      0.9969611
    826000  -655.60841      105.81928     -761.42769      279.52895      730.58449      1920.3708      0.9969611
    827000  -661.22074      110.94285     -772.16359      293.0632      -3269.6717      1920.3708      0.9969611
    828000  -655.43912      113.30946     -768.74858      299.31477      1168.0202      1920.3708      0.9969611
    829000  -620.32078      125.27422     -745.595        330.9205      -527.56076      1920.3708      0.9969611
    830000  -662.44547      113.76629     -776.21177      300.52152     -2237.3577      1920.3708      0.9969611
    831000  -638.45749      133.13969     -771.59718      351.69769     -730.70438      1920.3708      0.9969611
    832000  -656.57633      115.40665     -771.98298      304.85465     -603.17057      1920.3708      0.9969611
    833000  -648.761        113.98866     -762.74966      301.10892      331.05264      1920.3708      0.9969611
    834000  -638.98027      124.74493     -763.7252       329.52236     -120.67736      1920.3708      0.9969611
    835000  -645.08805      116.49917     -761.58722      307.7406      -1089.3934      1920.3708      0.9969611
    836000  -665.43405      110.32875     -775.7628       291.44102      1950.9391      1920.3708      0.9969611
    837000  -667.66271      117.88452     -785.54723      311.40012      660.66506      1920.3708      0.9969611
    838000  -667.93137      100.41258     -768.34396      265.24678      777.43547      1920.3708      0.9969611
    839000  -638.01033      112.49094     -750.50126      297.15258     -43.980676      1920.3708      0.9969611
    840000  -640.30305      100.95901     -741.26205      266.69019     -1523.0448      1920.3708      0.9969611
    841000  -652.28369      112.75916     -765.04285      297.86111      2720.7879      1920.3708      0.9969611
    842000  -643.45093      115.10143     -758.55236      304.04839      1186.2643      1920.3708      0.9969611
    843000  -654.43364      105.60287     -760.03651      278.95729     -812.88507      1920.3708      0.9969611
    844000  -640.72241      105.43709     -746.1595       278.51936     -1781.0199      1920.3708      0.9969611
    845000  -624.12961      115.67533     -739.80495      305.56439     -1507.2826      1920.3708      0.9969611
    846000  -640.30309      115.04311     -755.3462       303.89433     -2110.1997      1920.3708      0.9969611
    847000  -649.70182      111.57405     -761.27587      294.73057     -2280.0675      1920.3708      0.9969611
    848000  -659.28346      116.29008     -775.57354      307.18827     -1919.7582      1920.3708      0.9969611
    849000  -630.40891      120.43737     -750.84628      318.14363     -174.91763      1920.3708      0.9969611
    850000  -633.26791      133.98294     -767.25085      353.9252      -528.85777      1920.3708      0.9969611
    851000  -633.72568      113.28518     -747.01087      299.25064     -1155.5291      1920.3708      0.9969611
    852000  -624.74023      116.79585     -741.53608      308.52432      899.06957      1920.3708      0.9969611
    853000  -641.9514       116.18881     -758.14021      306.92077     -1303.1608      1920.3708      0.9969611
    854000  -632.61346      127.22543     -759.83889      336.07478      434.10063      1920.3708      0.9969611
    855000  -641.49649      121.94494     -763.44143      322.12599     -1557.928       1920.3708      0.9969611
    856000  -654.04365      99.774187     -753.81784      263.56041     -195.09796      1920.3708      0.9969611
    857000  -675.79118      102.40897     -778.20014      270.52036      705.80268      1920.3708      0.9969611
    858000  -655.78338      108.75043     -764.53381      287.27177      1000.8101      1920.3708      0.9969611
    859000  -639.58628      118.78585     -758.37212      313.78103     -2668.53        1920.3708      0.9969611
    860000  -653.79608      107.75985     -761.55593      284.65508      376.88311      1920.3708      0.9969611
    861000  -626.00642      118.57194     -744.57837      313.21599     -667.17476      1920.3708      0.9969611
    862000  -592.56672      123.44599     -716.01271      326.09112      2491.4454      1920.3708      0.9969611
    863000  -634.16901      119.64625     -753.81525      316.05383     -3893.6636      1920.3708      0.9969611
    864000  -639.30681      121.54304     -760.84985      321.06435      1779.3881      1920.3708      0.9969611
    865000  -632.37007      110.118       -742.48806      290.88429      685.77363      1920.3708      0.9969611
    866000  -659.39726      105.63702     -765.03428      279.0475      -1289.7902      1920.3708      0.9969611
    867000  -641.96978      129.00147     -770.97125      340.7663       882.42259      1920.3708      0.9969611
    868000  -638.39375      116.87562     -755.26937      308.73502      270.47688      1920.3708      0.9969611
    869000  -660.42598      121.82015     -782.24613      321.79636      164.19255      1920.3708      0.9969611
    870000  -639.21523      117.11473     -756.32996      309.36664      3719.7098      1920.3708      0.9969611
    871000  -639.19214      117.10554     -756.29768      309.34237     -3270.3726      1920.3708      0.9969611
    872000  -629.5495       119.54174     -749.09124      315.77776     -1501.0121      1920.3708      0.9969611
    873000  -648.30681      105.46049     -753.7673       278.58116      1416.2835      1920.3708      0.9969611
    874000  -628.15724      115.08257     -743.23981      303.99856      2022.4484      1920.3708      0.9969611
    875000  -667.96501      108.89525     -776.86026      287.65433     -1247.7408      1920.3708      0.9969611
    876000  -652.38008      110.67991     -763.05999      292.36862      402.28498      1920.3708      0.9969611
    877000  -626.87299      121.51293     -748.38592      320.98479      1962.7899      1920.3708      0.9969611
    878000  -637.30574      115.46419     -752.76992      305.00663      2341.9677      1920.3708      0.9969611
    879000  -661.39391      107.62258     -769.01649      284.29247     -4378.0097      1920.3708      0.9969611
    880000  -626.06071      116.64727     -742.70797      308.13182     -1805.74        1920.3708      0.9969611
    881000  -649.4377       110.25433     -759.69204      291.24444      2562.8666      1920.3708      0.9969611
    882000  -642.426        124.12703     -766.55303      327.89013      704.11485      1920.3708      0.9969611
    883000  -654.01112      114.85719     -768.86831      303.40319      120.44304      1920.3708      0.9969611
    884000  -641.92313      117.68126     -759.60439      310.86318      349.2321       1920.3708      0.9969611
    885000  -611.42172      126.53758     -737.9593       334.25776      1039.9123      1920.3708      0.9969611
    886000  -659.17389      102.85286     -762.02676      271.69294     -956.28433      1920.3708      0.9969611
    887000  -654.01615      107.66102     -761.67717      284.39402     -2259.1359      1920.3708      0.9969611
    888000  -623.65023      122.38579     -746.03602      323.29052      746.99782      1920.3708      0.9969611
    889000  -648.72214      101.39268     -750.11482      267.83578     -3448.8501      1920.3708      0.9969611
    890000  -671.00779      108.08365     -779.09144      285.51044      94.120312      1920.3708      0.9969611
    891000  -655.89376      125.87482     -781.76858      332.50704      317.3627       1920.3708      0.9969611
    892000  -620.9854       117.41668     -738.40208      310.16428     -2418.5576      1920.3708      0.9969611
    893000  -642.54601      134.16025     -776.70626      354.39357      53.086059      1920.3708      0.9969611
    894000  -657.584        103.62066     -761.20466      273.72113      334.73698      1920.3708      0.9969611
    895000  -671.46661      103.92865     -775.39525      274.5347       837.2742       1920.3708      0.9969611
    896000  -637.58058      112.00252     -749.58309      295.86239     -1832.7556      1920.3708      0.9969611
    897000  -633.36737      117.5034      -750.87077      310.39335      23.322085      1920.3708      0.9969611
    898000  -632.91497      100.7817      -733.69667      266.22182     -785.65308      1920.3708      0.9969611
    899000  -670.71198      106.41113     -777.12311      281.09235     -700.30157      1920.3708      0.9969611
    900000  -647.26236      106.97857     -754.24094      282.5913      -368.82656      1920.3708      0.9969611
    901000  -635.58045      117.44502     -753.02548      310.23914      2449.0337      1920.3708      0.9969611
    902000  -648.85407      102.30361     -751.15768      270.24205      490.13828      1920.3708      0.9969611
    903000  -643.00862      125.6086      -768.61722      331.8038       928.97648      1920.3708      0.9969611
    904000  -653.25446      108.55701     -761.81147      286.76085     -2109.2878      1920.3708      0.9969611
    905000  -624.70887      129.33136     -754.04023      341.63773     -719.05036      1920.3708      0.9969611
    906000  -659.56382      122.61224     -782.17606      323.88872     -982.05556      1920.3708      0.9969611
    907000  -646.58228      113.18087     -759.76316      298.97509     -473.10999      1920.3708      0.9969611
    908000  -648.31304      115.04923     -763.36227      303.91048     -866.48598      1920.3708      0.9969611
    909000  -664.2186       101.43074     -765.64934      267.93632      464.90751      1920.3708      0.9969611
    910000  -643.34436      116.75945     -760.10381      308.42817     -329.60441      1920.3708      0.9969611
    911000  -637.6498       121.8371      -759.48691      321.84113      1275.6985      1920.3708      0.9969611
    912000  -663.36415      98.662204     -762.02636      260.62303      1176.4333      1920.3708      0.9969611
    913000  -626.63346      123.88889     -750.52236      327.26108      598.05395      1920.3708      0.9969611
    914000  -657.66444      91.300367     -748.96481      241.17623     -2388.7078      1920.3708      0.9969611
    915000  -630.88702      111.5411      -742.42812      294.64352      958.12617      1920.3708      0.9969611
    916000  -624.2914       111.72241     -736.01381      295.12248     -103.62158      1920.3708      0.9969611
    917000  -625.50825      115.4457      -740.95395      304.95779     -2259.303       1920.3708      0.9969611
    918000  -667.7368       98.400337     -766.13714      259.93129     -53.36501       1920.3708      0.9969611
    919000  -669.23609      107.69506     -776.93115      284.48393     -2550.5589      1920.3708      0.9969611
    920000  -620.90041      127.24106     -748.14147      336.11604      2903.2405      1920.3708      0.9969611
    921000  -662.5235       97.613042     -760.13655      257.8516      -464.29765      1920.3708      0.9969611
    922000  -631.94876      117.76452     -749.71328      311.08312     -888.65506      1920.3708      0.9969611
    923000  -667.08715      114.04143     -781.12859      301.24832     -1815.6207      1920.3708      0.9969611
    924000  -638.48568      119.94371     -758.42939      316.83959      2277.2686      1920.3708      0.9969611
    925000  -663.28751      99.729926     -763.01743      263.44349      35.161148      1920.3708      0.9969611
    926000  -640.47826      118.30716     -758.78542      312.51653      95.663604      1920.3708      0.9969611
    927000  -653.5537       121.90532     -775.45901      322.02132     -1177.3169      1920.3708      0.9969611
    928000  -654.90351      107.34275     -762.24627      283.5533       947.77074      1920.3708      0.9969611
    929000  -630.6027       107.19141     -737.79411      283.15352      3578.6487      1920.3708      0.9969611
    930000  -656.52899      111.59146     -768.12045      294.77657     -2822.2335      1920.3708      0.9969611
    931000  -642.45049      130.36695     -772.81745      344.37332     -1743.9266      1920.3708      0.9969611
    932000  -672.66416      115.80203     -788.46619      305.89905      2008.9847      1920.3708      0.9969611
    933000  -650.59047      115.48204     -766.07251      305.05379     -703.49884      1920.3708      0.9969611
    934000  -644.65297      98.597109     -743.25008      260.45108     -1569.0873      1920.3708      0.9969611
    935000  -661.87998      105.16577     -767.04575      277.80265     -2996.4344      1920.3708      0.9969611
    936000  -613.94328      126.47217     -740.41544      334.08497     -303.36935      1920.3708      0.9969611
    937000  -650.20109      115.52875     -765.72984      305.17717     -980.72362      1920.3708      0.9969611
    938000  -639.64962      121.89436     -761.54398      321.99237      1373.4498      1920.3708      0.9969611
    939000  -636.0202       120.72537     -756.74556      318.9044      -2189.989       1920.3708      0.9969611
    940000  -657.85002      112.16648     -770.0165       296.29551      856.40181      1920.3708      0.9969611
    941000  -632.50118      127.61388     -760.11506      337.1009       1463.038       1920.3708      0.9969611
    942000  -651.47769      114.77578     -766.25347      303.18817     -885.75457      1920.3708      0.9969611
    943000  -611.20257      121.80227     -733.00484      321.74912      131.67401      1920.3708      0.9969611
    944000  -643.18996      105.74091     -748.93087      279.32192     -774.57484      1920.3708      0.9969611
    945000  -673.97006      111.82101     -785.79108      295.38294     -1180.5739      1920.3708      0.9969611
    946000  -665.77116      111.79067     -777.56182      295.30277      1043.2797      1920.3708      0.9969611
    947000  -670.31613      105.47331     -775.78944      278.61504     -322.30718      1920.3708      0.9969611
    948000  -654.04093      106.94424     -760.98517      282.50061      402.9339       1920.3708      0.9969611
    949000  -634.77093      127.19385     -761.96478      335.99134     -2906.6498      1920.3708      0.9969611
    950000  -662.29028      110.2172      -772.50749      291.14636     -432.5327       1920.3708      0.9969611
    951000  -642.10392      116.81413     -758.91806      308.57261     -955.53405      1920.3708      0.9969611
    952000  -654.4013       122.64182     -777.04312      323.96683      735.86074      1920.3708      0.9969611
    953000  -659.92503      111.71117     -771.6362       295.09277     -728.74638      1920.3708      0.9969611
    954000  -630.02662      127.85502     -757.88164      337.73787      112.23306      1920.3708      0.9969611
    955000  -669.40107      116.57014     -785.97121      307.92808     -3113.4326      1920.3708      0.9969611
    956000  -660.14748      107.63934     -767.78681      284.33674      1044.0983      1920.3708      0.9969611
    957000  -639.80377      104.90306     -744.70683      277.10868      883.20921      1920.3708      0.9969611
    958000  -651.14048      104.61382     -755.7543       276.34463     -96.117326      1920.3708      0.9969611
    959000  -656.64896      112.5742      -769.22316      297.37253      469.15986      1920.3708      0.9969611
    960000  -652.46759      110.54859     -763.01618      292.02174      590.80774      1920.3708      0.9969611
    961000  -636.46635      120.33977     -756.80612      317.88582     -1365.7769      1920.3708      0.9969611
    962000  -649.5453       107.59937     -757.14467      284.23117      668.5293       1920.3708      0.9969611
    963000  -666.39057      100.85022     -767.24079      266.40282      583.4899       1920.3708      0.9969611
    964000  -641.0082       105.3055      -746.3137       278.17176     -481.94045      1920.3708      0.9969611
    965000  -638.00296      120.85657     -758.85953      319.25098      797.91272      1920.3708      0.9969611
    966000  -660.91316      103.89817     -764.81133      274.4542       1834.699       1920.3708      0.9969611
    967000  -663.32692      112.35127     -775.6782       296.78365      665.52928      1920.3708      0.9969611
    968000  -633.66828      101.5046      -735.17288      268.13142      1817.8272      1920.3708      0.9969611
    969000  -624.49473      128.98205     -753.47678      340.71501      1655.165       1920.3708      0.9969611
    970000  -657.53307      104.9078      -762.44087      277.12119     -732.00489      1920.3708      0.9969611
    971000  -629.45549      120.08332     -749.53881      317.2084       2245.7914      1920.3708      0.9969611
    972000  -661.66887      116.90431     -778.57318      308.81082      1501.5918      1920.3708      0.9969611
    973000  -666.06992      105.14014     -771.21005      277.73493     -1684.9123      1920.3708      0.9969611
    974000  -638.55025      117.3426      -755.89285      309.96859      1587.0459      1920.3708      0.9969611
    975000  -665.79652      108.62762     -774.42414      286.94737      1037.8926      1920.3708      0.9969611
    976000  -664.41368      112.04877     -776.46244      295.98456     -849.92242      1920.3708      0.9969611
    977000  -666.29063      110.64429     -776.93492      292.27454      1551.3095      1920.3708      0.9969611
    978000  -653.14545      120.57193     -773.71738      318.49909     -1275.2152      1920.3708      0.9969611
    979000  -664.20063      121.75816     -785.9588       321.6326      -2229.2117      1920.3708      0.9969611
    980000  -673.68839      116.33099     -790.01938      307.29634     -3115.4993      1920.3708      0.9969611
    981000  -648.41826      107.93675     -756.35501      285.12238      885.17888      1920.3708      0.9969611
    982000  -646.82344      116.84406     -763.6675       308.65166     -974.26527      1920.3708      0.9969611
    983000  -672.82485      110.38548     -783.21033      291.59086      49.67134       1920.3708      0.9969611
    984000  -636.73928      123.44741     -760.18669      326.09486     -1817.3325      1920.3708      0.9969611
    985000  -624.43123      123.87644     -748.30767      327.22818     -148.03386      1920.3708      0.9969611
    986000  -656.32298      103.67725     -760.00023      273.87061     -623.28122      1920.3708      0.9969611
    987000  -624.59365      123.7455      -748.33915      326.88229     -691.04836      1920.3708      0.9969611
    988000  -631.19114      114.96968     -746.16083      303.70036      1565.3054      1920.3708      0.9969611
    989000  -654.80616      110.68503     -765.49119      292.38216     -2434.761       1920.3708      0.9969611
    990000  -657.616        106.11795     -763.73395      280.31791      953.11929      1920.3708      0.9969611
    991000  -629.39899      127.52067     -756.91966      336.85466     -2498.755       1920.3708      0.9969611
    992000  -630.2369       123.32579     -753.56269      325.77361     -2760.0406      1920.3708      0.9969611
    993000  -617.15002      132.32947     -749.47949      349.55743     -89.989184      1920.3708      0.9969611
    994000  -642.32199      113.19976     -755.52175      299.02499      3571.8853      1920.3708      0.9969611
    995000  -664.33464      100.69103     -765.02567      265.98232      745.95904      1920.3708      0.9969611
    996000  -637.60112      111.09942     -748.70054      293.47679     -1543.1172      1920.3708      0.9969611
    997000  -637.32465      107.38961     -744.71426      283.67709     -3199.0526      1920.3708      0.9969611
    998000  -655.19067      100.92357     -756.11425      266.59659      842.43984      1920.3708      0.9969611
    999000  -629.71734      121.72326     -751.4406       321.54041     -1260.5098      1920.3708      0.9969611
   1000000  -639.25439      96.764229     -736.01862      255.6094       617.6267       1920.3708      0.9969611
Loop time of 898.49 on 1 procs for 1000000 steps with 192 atoms

Performance: 96.161 ns/day, 0.250 hours/ns, 1112.978 timesteps/s
99.7% CPU use with 1 MPI tasks x 1 OpenMP threads

MPI task timing breakdown:
Section |  min time  |  avg time  |  max time  |%varavg| %total
---------------------------------------------------------------
Pair    | 719.76     | 719.76     | 719.76     |   0.0 | 80.11
Bond    | 0.055542   | 0.055542   | 0.055542   |   0.0 |  0.01
Kspace  | 115.83     | 115.83     | 115.83     |   0.0 | 12.89
Neigh   | 35.898     | 35.898     | 35.898     |   0.0 |  4.00
Comm    | 13.708     | 13.708     | 13.708     |   0.0 |  1.53
Output  | 0.22458    | 0.22458    | 0.22458    |   0.0 |  0.02
Modify  | 10.698     | 10.698     | 10.698     |   0.0 |  1.19
Other   |            | 2.316      |            |       |  0.26

Nlocal:            192 ave         192 max         192 min
Histogram: 1 0 0 0 0 0 0 0 0 0
Nghost:           4556 ave        4556 max        4556 min
Histogram: 1 0 0 0 0 0 0 0 0 0
Neighs:          69009 ave       69009 max       69009 min
Histogram: 1 0 0 0 0 0 0 0 0 0

Total # of neighbors = 69009
Ave neighs/atom = 359.42188
Ave special neighs/atom = 2
Neighbor list builds = 28003
Dangerous builds = 0
# write data file
write_data data.after_eq.lmp
System init for write_data ...
PPPM initialization ...
  using 12-bit tables for long-range coulomb (src/kspace.cpp:342)
  G vector (1/distance) = 0.31260513
  grid = 12 12 12
  stencil order = 5
  estimated absolute RMS force accuracy = 0.0021455329
  estimated relative force accuracy = 6.4612085e-06
  using double precision FFTW3
  3d grid and FFT values/proc = 6859 1728
Generated 1 of 1 mixed pair_coeff terms from geometric mixing rule

# clean up
undump dEQUI

# production
# 2 ns
dump dPROD all custom 1000 prod.lammpstrj id element xu yu zu
dump_modify dPROD element H O sort id
run 2000000
PPPM initialization ...
  using 12-bit tables for long-range coulomb (src/kspace.cpp:342)
  G vector (1/distance) = 0.31260513
  grid = 12 12 12
  stencil order = 5
  estimated absolute RMS force accuracy = 0.0021455329
  estimated relative force accuracy = 6.4612085e-06
  using double precision FFTW3
  3d grid and FFT values/proc = 6859 1728
Generated 1 of 1 mixed pair_coeff terms from geometric mixing rule
Per MPI rank memory allocation (min/avg/max) = 9.76 | 9.76 | 9.76 Mbytes
   Step         TotEng         KinEng         PotEng          Temp          Press          Volume        Density
   1000000  -639.25439      96.764229     -736.01862      255.6094       618.04538      1920.3708      0.9969611
   1001000  -656.56622      107.26302     -763.82924      283.34267      1024.4418      1920.3708      0.9969611
   1002000  -633.42288      109.86622     -743.2891       290.2192      -3441.6093      1920.3708      0.9969611
   1003000  -634.51673      118.59751     -753.11424      313.28352     -2106.1365      1920.3708      0.9969611
   1004000  -654.40977      104.44362     -758.85339      275.89505     -932.15719      1920.3708      0.9969611
   1005000  -643.02137      113.8463      -756.86767      300.73287      164.16206      1920.3708      0.9969611
   1006000  -647.26884      116.03647     -763.30531      306.51835      1324.3672      1920.3708      0.9969611
   1007000  -639.69415      109.7223      -749.41645      289.83903      627.06565      1920.3708      0.9969611
   1008000  -617.54138      116.51811     -734.05949      307.79064      3022.8661      1920.3708      0.9969611
   1009000  -636.10587      113.31626     -749.42213      299.33274     -286.30942      1920.3708      0.9969611
   1010000  -637.55572      115.51226     -753.06798      305.13362     -1974.0291      1920.3708      0.9969611
   1011000  -658.29481      106.5396      -764.8344       281.43171     -1264.0756      1920.3708      0.9969611
   1012000  -629.15074      114.79361     -743.94435      303.23527     -16.667422      1920.3708      0.9969611
   1013000  -661.74047      100.0603      -761.80077      264.3162      -1896.7698      1920.3708      0.9969611
   1014000  -683.71567      97.805416     -781.52109      258.35976     -1758.0822      1920.3708      0.9969611
   1015000  -617.47286      127.5598      -745.03266      336.95803      244.45657      1920.3708      0.9969611
   1016000  -640.61477      110.09817     -750.71294      290.83192     -989.27175      1920.3708      0.9969611
   1017000  -645.68023      117.47043     -763.15066      310.30626     -2818.0134      1920.3708      0.9969611
   1018000  -614.33172      133.45788     -747.78959      352.5382       722.2676       1920.3708      0.9969611
   1019000  -658.49091      109.64703     -768.13794      289.64019     -2865.6846      1920.3708      0.9969611
   1020000  -654.58279      111.05524     -765.63804      293.3601      -300.0331       1920.3708      0.9969611
   1021000  -635.88792      123.09134     -758.97926      325.15429      237.2125       1920.3708      0.9969611
   1022000  -660.29697      112.80476     -773.10173      297.98157     -2849.8607      1920.3708      0.9969611
   1023000  -661.9814       104.39889     -766.3803       275.77689     -1296.5784      1920.3708      0.9969611
   1024000  -623.40775      120.27735     -743.6851       317.72094     -290.82239      1920.3708      0.9969611
   1025000  -647.87508      110.29365     -758.16874      291.34831      3301.9763      1920.3708      0.9969611
   1026000  -640.13042      109.94011     -750.07054      290.41441      1086.2392      1920.3708      0.9969611
   1027000  -646.86759      106.69821     -753.5658       281.85068      426.45994      1920.3708      0.9969611
   1028000  -644.06243      119.94256     -764.00498      316.83655      1712.9838      1920.3708      0.9969611
   1029000  -632.66664      124.01308     -756.67972      327.58912      578.46715      1920.3708      0.9969611
   1030000  -640.57014      124.97167     -765.54182      330.12131      81.485728      1920.3708      0.9969611
   1031000  -659.26835      100.8112      -760.07955      266.29976     -3674.2193      1920.3708      0.9969611
   1032000  -639.23097      132.3256      -771.55658      349.54723     -1054.6996      1920.3708      0.9969611
   1033000  -642.70276      117.10265     -759.8054       309.33473     -2352.0505      1920.3708      0.9969611
   1034000  -681.00886      101.81019     -782.81905      268.93866     -4066.5075      1920.3708      0.9969611
   1035000  -628.71302      112.28554     -740.99856      296.61        -1269.9783      1920.3708      0.9969611
   1036000  -626.27582      128.25627     -754.53209      338.7978      -871.17842      1920.3708      0.9969611
   1037000  -647.03425      116.14716     -763.18141      306.81076     -1166.591       1920.3708      0.9969611
   1038000  -636.13114      112.6604      -748.79153      297.60022     -2390.0777      1920.3708      0.9969611
   1039000  -640.44365      122.94592     -763.38956      324.77013     -2766.789       1920.3708      0.9969611
   1040000  -670.50585      103.33015     -773.83599      272.95372     -959.09722      1920.3708      0.9969611
   1041000  -639.17514      122.91418     -762.08932      324.6863       1029.9047      1920.3708      0.9969611
   1042000  -629.8894       117.70837     -747.59777      310.93478     -3133.0409      1920.3708      0.9969611
   1043000  -644.17704      122.37153     -766.54858      323.25286     -2131.4761      1920.3708      0.9969611
   1044000  -628.18496      121.4906      -749.67556      320.92582     -45.029336      1920.3708      0.9969611
   1045000  -644.90411      116.22938     -761.13349      307.02795     -1008.9081      1920.3708      0.9969611
   1046000  -652.33523      99.850921     -752.18615      263.76311     -2783.7652      1920.3708      0.9969611
   1047000  -639.04405      129.03933     -768.08338      340.86632      531.83427      1920.3708      0.9969611
   1048000  -643.2468       113.36776     -756.61456      299.46879     -1713.754       1920.3708      0.9969611
   1049000  -670.67857      110.02822     -780.70679      290.64714      279.4637       1920.3708      0.9969611
   1050000  -672.77764      103.84874     -776.62638      274.32363     -1243.4599      1920.3708      0.9969611
   1051000  -651.7658       106.16557     -757.93137      280.44369     -1880.9872      1920.3708      0.9969611
   1052000  -629.60314      106.77285     -736.37599      282.04787      1804.4573      1920.3708      0.9969611
   1053000  -606.69798      121.5154      -728.21338      320.99133     -784.50311      1920.3708      0.9969611
   1054000  -645.90263      110.32805     -756.23068      291.43916     -4638.3806      1920.3708      0.9969611
   1055000  -641.56201      116.11564     -757.67765      306.72748     -1761.2481      1920.3708      0.9969611
   1056000  -599.41994      151.51012     -750.93006      400.22445     -2780.0988      1920.3708      0.9969611
   1057000  -660.35602      101.66473     -762.02075      268.55441     -1079.7977      1920.3708      0.9969611
   1058000  -638.87483      122.49306     -761.36789      323.57389     -3790.7422      1920.3708      0.9969611
   1059000  -661.42302      104.96382     -766.38683      277.26917     -1013.1989      1920.3708      0.9969611
   1060000  -653.11007      100.66474     -753.77481      265.91288     -1354.4082      1920.3708      0.9969611
   1061000  -628.46747      124.39984     -752.86731      328.61078      42.882834      1920.3708      0.9969611
   1062000  -638.02615      115.408       -753.43415      304.8582       519.2991       1920.3708      0.9969611
   1063000  -660.50311      105.96809     -766.4712       279.92203      206.55343      1920.3708      0.9969611
   1064000  -634.56576      119.46024     -754.02601      315.56249      1682.2502      1920.3708      0.9969611
   1065000  -677.90646      97.732351     -775.63881      258.16676      269.91481      1920.3708      0.9969611
   1066000  -668.20782      109.6499      -777.85772      289.64778     -880.47528      1920.3708      0.9969611
   1067000  -694.20402      104.44958     -798.6536       275.91079     -687.40748      1920.3708      0.9969611
   1068000  -671.67846      104.54328     -776.22174      276.1583       1139.1287      1920.3708      0.9969611
   1069000  -643.43752      109.40349     -752.84101      288.99689      423.71163      1920.3708      0.9969611
   1070000  -607.26966      129.99123     -737.26089      343.38081     -1437.1066      1920.3708      0.9969611
   1071000  -645.12532      112.4114      -757.53672      296.94248      1932.583       1920.3708      0.9969611
   1072000  -673.49594      106.79311     -780.28905      282.10137      1828.035       1920.3708      0.9969611
   1073000  -660.01204      108.79428     -768.80632      287.38761      3330.9828      1920.3708      0.9969611
   1074000  -668.1544       110.43927     -778.59366      291.73295      680.66524      1920.3708      0.9969611
   1075000  -653.1748       126.93302     -780.10781      335.30233     -1048.0718      1920.3708      0.9969611
   1076000  -649.0501       108.26294     -757.31304      285.98405      66.140228      1920.3708      0.9969611
   1077000  -661.28306      107.31852     -768.60158      283.48928     -664.75512      1920.3708      0.9969611
   1078000  -636.87163      112.80215     -749.67377      297.97466      246.97221      1920.3708      0.9969611
   1079000  -642.94142      116.65713     -759.59855      308.15787     -745.59975      1920.3708      0.9969611
   1080000  -656.38836      109.33082     -765.71918      288.80491      1750.527       1920.3708      0.9969611
   1081000  -645.95617      96.668779     -742.62495      255.35726      314.40826      1920.3708      0.9969611
   1082000  -631.94387      121.86028     -753.80415      321.90234     -580.15556      1920.3708      0.9969611
   1083000  -642.12236      117.02355     -759.14591      309.1258      -1593.7386      1920.3708      0.9969611
   1084000  -649.38751      100.49113     -749.87865      265.45427     -653.36177      1920.3708      0.9969611
   1085000  -652.34932      103.29918     -755.6485       272.87192     -694.20295      1920.3708      0.9969611
   1086000  -627.43149      118.70316     -746.13465      313.56259      3629.731       1920.3708      0.9969611
   1087000  -653.71416      113.36383     -767.07799      299.4584       524.6048       1920.3708      0.9969611
   1088000  -632.45105      116.19782     -748.64888      306.94458     -2690.4586      1920.3708      0.9969611
   1089000  -662.50839      126.43622     -788.94462      333.99002      585.64211      1920.3708      0.9969611
   1090000  -642.07892      114.66712     -756.74603      302.90111     -1043.8026      1920.3708      0.9969611
   1091000  -648.4684       123.06445     -771.53285      325.08325     -41.839285      1920.3708      0.9969611
   1092000  -656.13159      111.14865     -767.28024      293.60683     -1248.5633      1920.3708      0.9969611
   1093000  -641.56882      114.37654     -755.94537      302.13355      524.68071      1920.3708      0.9969611
   1094000  -681.89434      104.20697     -786.10131      275.26992      272.53783      1920.3708      0.9969611
   1095000  -668.76828      115.6081      -784.37638      305.38678      24.548571      1920.3708      0.9969611
   1096000  -654.41034      119.39986     -773.8102       315.40298      3015.7754      1920.3708      0.9969611
   1097000  -652.70448      99.320918     -752.0254       262.36307     -3041.4881      1920.3708      0.9969611
   1098000  -647.12797      114.44155     -761.56952      302.30526     -3366.3076      1920.3708      0.9969611
   1099000  -645.69546      108.36717     -754.06263      286.25937     -465.10855      1920.3708      0.9969611
   1100000  -627.49419      124.2825      -751.77669      328.30081     -871.04583      1920.3708      0.9969611
   1101000  -643.5709       124.21215     -767.78305      328.11497     -1382.1382      1920.3708      0.9969611
   1102000  -643.82443      107.31476     -751.1392       283.47937      145.09755      1920.3708      0.9969611
   1103000  -659.01541      109.30046     -768.31587      288.72472      475.69143      1920.3708      0.9969611
   1104000  -665.83577      112.14019     -777.97596      296.22606     -3182.1474      1920.3708      0.9969611
   1105000  -655.37109      118.17016     -773.54126      312.15465      482.88902      1920.3708      0.9969611
   1106000  -638.96818      106.07666     -745.04484      280.20884     -529.59191      1920.3708      0.9969611
   1107000  -657.63814      110.73189     -768.37003      292.50594     -2084.9306      1920.3708      0.9969611
   1108000  -672.19587      109.92066     -782.11653      290.36303      1796.0847      1920.3708      0.9969611
   1109000  -645.80561      104.79604     -750.60166      276.82598     -1861.1186      1920.3708      0.9969611
   1110000  -642.97407      110.21792     -753.19199      291.14826     -1691.0062      1920.3708      0.9969611
   1111000  -646.7456       122.96319     -769.70879      324.81577     -1722.7673      1920.3708      0.9969611
   1112000  -638.61479      115.73119     -754.34598      305.71195     -4673.1454      1920.3708      0.9969611
   1113000  -624.73193      120.20964     -744.94157      317.54207     -3170.7151      1920.3708      0.9969611
   1114000  -650.35486      114.4928      -764.84766      302.44064     -1727.0294      1920.3708      0.9969611
   1115000  -656.23228      109.7208      -765.95308      289.83508      589.02034      1920.3708      0.9969611
   1116000  -643.5776       112.26581     -755.84341      296.5579       1070.4817      1920.3708      0.9969611
   1117000  -669.14903      105.11546     -774.26449      277.66975      609.91997      1920.3708      0.9969611
   1118000  -653.93868      114.3746      -768.31329      302.12842      1044.5479      1920.3708      0.9969611
   1119000  -637.13701      116.73963     -753.87663      308.37579     -2157.5414      1920.3708      0.9969611
   1120000  -655.40218      110.36113     -765.76331      291.52655     -1435.687       1920.3708      0.9969611
   1121000  -664.7828       102.90228     -767.68507      271.82347     -805.6908       1920.3708      0.9969611
   1122000  -653.82343      110.37498     -764.19841      291.56315      2503.246       1920.3708      0.9969611
   1123000  -626.17946      121.26015     -747.43961      320.31706     -728.9082       1920.3708      0.9969611
   1124000  -676.16959      102.3106      -778.48019      270.26052     -1012.019       1920.3708      0.9969611
   1125000  -650.35487      104.79806     -755.15293      276.83132     -283.87262      1920.3708      0.9969611
   1126000  -670.99503      112.13011     -783.12514      296.19944      424.82154      1920.3708      0.9969611
   1127000  -633.9479       118.06842     -752.01632      311.8859      -1887.9412      1920.3708      0.9969611
   1128000  -655.15442      114.17227     -769.32669      301.59395      1098.9914      1920.3708      0.9969611
   1129000  -648.85612      124.42404     -773.28016      328.6747       1566.3267      1920.3708      0.9969611
   1130000  -661.56965      102.39561     -763.96526      270.48508     -1220.4997      1920.3708      0.9969611
   1131000  -638.51114      103.50435     -742.01549      273.41389     -1238.7922      1920.3708      0.9969611
   1132000  -654.18566      106.60336     -760.78903      281.60015      1066.0798      1920.3708      0.9969611
   1133000  -653.13778      111.30835     -764.44612      294.02869     -584.08755      1920.3708      0.9969611
   1134000  -626.13681      119.05031     -745.18712      314.47962     -1020.4756      1920.3708      0.9969611
   1135000  -643.68731      111.02478     -754.71209      293.27963     -406.4379       1920.3708      0.9969611
   1136000  -680.72871      103.53118     -784.2599       273.48478     -2483.6721      1920.3708      0.9969611
   1137000  -654.05814      106.02552     -760.08366      280.07373     -853.63733      1920.3708      0.9969611
   1138000  -659.6031       112.9974      -772.6005       298.49044     -332.12118      1920.3708      0.9969611
   1139000  -666.99015      118.90799     -785.89814      314.10366      680.37401      1920.3708      0.9969611
   1140000  -658.61098      114.47799     -773.08897      302.40151     -713.80533      1920.3708      0.9969611
   1141000  -619.51872      115.60407     -735.12279      305.37614     -1977.6177      1920.3708      0.9969611
   1142000  -651.86133      121.17093     -773.03226      320.08139      862.71282      1920.3708      0.9969611
   1143000  -664.33991      103.32166     -767.66157      272.93131      618.14967      1920.3708      0.9969611
   1144000  -655.97015      109.60863     -765.57878      289.53876     -488.27727      1920.3708      0.9969611
   1145000  -666.23676      116.14658     -782.38334      306.80922     -822.96433      1920.3708      0.9969611
   1146000  -649.85905      111.21372     -761.07277      293.77874     -1226.0134      1920.3708      0.9969611
   1147000  -649.42032      115.97573     -765.39605      306.35791      308.72346      1920.3708      0.9969611
   1148000  -656.82355      103.16783     -759.99138      272.52496     -2558.9739      1920.3708      0.9969611
   1149000  -661.60996      115.5986      -777.20856      305.36169      4700.9842      1920.3708      0.9969611
   1150000  -627.75078      122.08946     -749.84024      322.50775     -628.44111      1920.3708      0.9969611
   1151000  -659.08504      124.76431     -783.84935      329.57355      1686.7685      1920.3708      0.9969611
   1152000  -661.84534      105.877       -767.72234      279.68142     -783.0004       1920.3708      0.9969611
   1153000  -672.78611      102.74252     -775.52863      271.40147      1047.9318      1920.3708      0.9969611
   1154000  -655.12045      106.09415     -761.2146       280.25503      715.13135      1920.3708      0.9969611
   1155000  -651.90168      109.81047     -761.71215      290.07194     -1088.3097      1920.3708      0.9969611
   1156000  -633.97117      112.70431     -746.67548      297.71624     -2231.1643      1920.3708      0.9969611
   1157000  -649.15467      108.29441     -757.44908      286.06717     -3132.6144      1920.3708      0.9969611
   1158000  -625.16228      112.74644     -737.90872      297.82752     -303.03184      1920.3708      0.9969611
   1159000  -666.47238      106.12876     -772.60114      280.34645     -3120.3532      1920.3708      0.9969611
   1160000  -664.47312      107.57073     -772.04384      284.15551      1354.0427      1920.3708      0.9969611
   1161000  -659.56104      123.28922     -782.85026      325.67699     -1044.734       1920.3708      0.9969611
   1162000  -637.35048      118.21486     -755.56534      312.27272     -813.38947      1920.3708      0.9969611
   1163000  -673.32227      103.70891     -777.03118      273.95426      492.09283      1920.3708      0.9969611
   1164000  -673.10055      100.8567      -773.95724      266.41993      1196.9977      1920.3708      0.9969611
   1165000  -640.19304      123.4049      -763.59793      325.98256      2491.2526      1920.3708      0.9969611
   1166000  -656.2227       111.6106      -767.8333       294.82713      1243.3057      1920.3708      0.9969611
   1167000  -665.99465      106.1377      -772.13236      280.37008      2804.744       1920.3708      0.9969611
   1168000  -650.32217      107.45716     -757.77933      283.85551      688.35628      1920.3708      0.9969611
   1169000  -653.12683      104.03821     -757.16505      274.82413     -539.72638      1920.3708      0.9969611
   1170000  -651.1302       108.3011      -759.4313       286.08483      1505.0092      1920.3708      0.9969611
   1171000  -647.19562      117.43986     -764.63548      310.22552      1454.2596      1920.3708      0.9969611
   1172000  -646.36362      119.04609     -765.40971      314.46847     -12.752468      1920.3708      0.9969611
   1173000  -635.19082      115.15099     -750.34181      304.1793       1771.3905      1920.3708      0.9969611
   1174000  -634.57397      130.10296     -764.67693      343.67596      581.60379      1920.3708      0.9969611
   1175000  -620.43107      116.94189     -737.37296      308.91009      2953.6239      1920.3708      0.9969611
   1176000  -642.06479      103.38876     -745.45355      273.10855     -850.51539      1920.3708      0.9969611
   1177000  -644.95326      101.95969     -746.91295      269.33356      1499.9339      1920.3708      0.9969611
   1178000  -662.51937      119.15136     -781.67073      314.74655     -195.13353      1920.3708      0.9969611
   1179000  -644.41789      120.98499     -765.40288      319.59021     -70.596209      1920.3708      0.9969611
   1180000  -625.79548      114.66663     -740.46212      302.89984     -2124.0598      1920.3708      0.9969611
   1181000  -646.17936      102.81978     -748.99914      271.60555     -283.22925      1920.3708      0.9969611
   1182000  -643.20096      126.88785     -770.08881      335.18303     -700.7057       1920.3708      0.9969611
   1183000  -627.34306      118.42765     -745.7707       312.83481      3236.7751      1920.3708      0.9969611
   1184000  -644.86488      115.55825     -760.42313      305.2551       521.83696      1920.3708      0.9969611
   1185000  -625.4059       109.5152      -734.9211       289.29197     -1251.6939      1920.3708      0.9969611
   1186000  -628.45143      111.54781     -739.99924      294.66126      12.304718      1920.3708      0.9969611
   1187000  -661.10702      100.8765      -761.98352      266.47226     -2960.8035      1920.3708      0.9969611
   1188000  -659.13551      107.00754     -766.14305      282.66781      3657.5176      1920.3708      0.9969611
   1189000  -656.30498      109.59786     -765.90283      289.51032     -944.385        1920.3708      0.9969611
   1190000  -644.35066      103.40498     -747.75564      273.15139     -172.90677      1920.3708      0.9969611
   1191000  -661.54659      99.945488     -761.49207      264.01291     -1643.4984      1920.3708      0.9969611
   1192000  -648.51256      109.31851     -757.83107      288.7724      -2625.8515      1920.3708      0.9969611
   1193000  -624.70872      116.01213     -740.72086      306.45407      772.13665      1920.3708      0.9969611
   1194000  -653.04713      104.18989     -757.23702      275.22479     -1214.4391      1920.3708      0.9969611
   1195000  -649.84584      115.98543     -765.83127      306.38354      3859.2712      1920.3708      0.9969611
   1196000  -660.91209      106.09529     -767.00738      280.25805      889.81175      1920.3708      0.9969611
   1197000  -629.2544       129.79267     -759.04707      342.8563      -2136.3229      1920.3708      0.9969611
   1198000  -680.18559      102.74163     -782.92722      271.39911     -1515.5387      1920.3708      0.9969611
   1199000  -645.94018      119.77876     -765.71894      316.40387      1659.0102      1920.3708      0.9969611
   1200000  -681.41272      97.969975     -779.3827       258.79446      2690.8193      1920.3708      0.9969611
   1201000  -654.621        116.75311     -771.37412      308.41142      976.55633      1920.3708      0.9969611
   1202000  -661.28304      110.75487     -772.0379       292.56663     -736.61835      1920.3708      0.9969611
   1203000  -678.37088      106.09051     -784.46139      280.24541     -214.24629      1920.3708      0.9969611
   1204000  -663.36044      114.52659     -777.88703      302.5299       1293.0432      1920.3708      0.9969611
   1205000  -664.55153      107.11502     -771.66656      282.95174      2684.0108      1920.3708      0.9969611
   1206000  -661.63358      115.24922     -776.88279      304.43877      2827.9709      1920.3708      0.9969611
   1207000  -665.68493      112.15284     -777.83777      296.25948     -562.15471      1920.3708      0.9969611
   1208000  -681.10469      97.272168     -778.37686      256.95116     -252.87604      1920.3708      0.9969611
   1209000  -644.29373      107.78177     -752.0755       284.713       -1916.5879      1920.3708      0.9969611
   1210000  -653.84397      109.86172     -763.70569      290.20734     -1360.5415      1920.3708      0.9969611
   1211000  -642.45368      135.59846     -778.05214      358.19269     -1497.9324      1920.3708      0.9969611
   1212000  -645.33116      107.64914     -752.9803       284.36264      429.26391      1920.3708      0.9969611
   1213000  -619.69965      134.99161     -754.69126      356.58967      1768.4917      1920.3708      0.9969611
   1214000  -655.57785      111.41809     -766.99594      294.31858     -3270.1395      1920.3708      0.9969611
   1215000  -635.87091      116.14189     -752.0128       306.79682      713.33806      1920.3708      0.9969611
   1216000  -619.18555      113.41323     -732.59877      299.58887      127.21825      1920.3708      0.9969611
   1217000  -662.70142      103.60381     -766.30523      273.67663     -195.16406      1920.3708      0.9969611
   1218000  -634.34037      127.1024      -761.44278      335.74978     -628.89421      1920.3708      0.9969611
   1219000  -661.17373      103.23648     -764.41021      272.70629      1300.2253      1920.3708      0.9969611
   1220000  -637.18802      121.37102     -758.55904      320.60994     -690.32503      1920.3708      0.9969611
   1221000  -648.09819      110.79107     -758.88926      292.66226      2174.9753      1920.3708      0.9969611
   1222000  -643.09669      122.30027     -765.39696      323.06462     -846.70811      1920.3708      0.9969611
   1223000  -652.24366      121.49918     -773.74284      320.94848      1654.2074      1920.3708      0.9969611
   1224000  -636.55141      108.61594     -745.16735      286.91652     -456.13661      1920.3708      0.9969611
   1225000  -661.72075      113.12151     -774.84226      298.81829     -183.13385      1920.3708      0.9969611
   1226000  -646.55245      110.94973     -757.50218      293.08137     -2165.159       1920.3708      0.9969611
   1227000  -619.51992      108.6689      -728.18883      287.05642      2388.7606      1920.3708      0.9969611
   1228000  -645.66364      103.77161     -749.43524      274.11987      2088.8962      1920.3708      0.9969611
   1229000  -632.57531      116.27141     -748.84673      307.13897      236.11475      1920.3708      0.9969611
   1230000  -640.53836      126.49794     -767.03629      334.15305      2190.4192      1920.3708      0.9969611
   1231000  -643.98129      111.02399     -755.00528      293.27753     -3066.6848      1920.3708      0.9969611
   1232000  -636.33804      116.88737     -753.22542      308.76607     -40.784059      1920.3708      0.9969611
   1233000  -663.10741      109.66039     -772.76779      289.67549      87.655383      1920.3708      0.9969611
   1234000  -666.72674      103.52968     -770.25643      273.48082     -19.397921      1920.3708      0.9969611
   1235000  -640.23403      119.13546     -759.36949      314.70455      502.72727      1920.3708      0.9969611
   1236000  -623.54253      112.49724     -736.03977      297.16922     -2556.2147      1920.3708      0.9969611
   1237000  -619.45389      125.46494     -744.91883      331.42431      1923.5822      1920.3708      0.9969611
   1238000  -651.70019      98.171283     -749.87147      259.32623     -3093.2559      1920.3708      0.9969611
   1239000  -640.05325      121.60993     -761.66319      321.24105     -569.94061      1920.3708      0.9969611
   1240000  -622.40217      125.17538     -747.57755      330.65942      2714.779       1920.3708      0.9969611
   1241000  -642.1474       107.53784     -749.68524      284.06864     -758.88795      1920.3708      0.9969611
   1242000  -644.43229      108.26942     -752.70171      286.00115     -1120.9487      1920.3708      0.9969611
   1243000  -651.10975      111.97359     -763.08334      295.78596     -419.84991      1920.3708      0.9969611
   1244000  -623.96973      115.25227     -739.222        304.44684      1001.8092      1920.3708      0.9969611
   1245000  -648.50459      103.84007     -752.34466      274.30072      869.02825      1920.3708      0.9969611
   1246000  -647.88183      104.74272     -752.62456      276.68514      543.2239       1920.3708      0.9969611
   1247000  -643.61736      116.07944     -759.6968       306.63186      1169.5828      1920.3708      0.9969611
   1248000  -643.27156      106.57123     -749.84279      281.51526     -980.79687      1920.3708      0.9969611
   1249000  -670.14181      102.51492     -772.65674      270.80025     -2363.424       1920.3708      0.9969611
   1250000  -655.78506      97.004514     -752.78957      256.24413     -976.40491      1920.3708      0.9969611
   1251000  -630.28127      117.0444      -747.32567      309.18088      417.90651      1920.3708      0.9969611
   1252000  -647.91076      108.90737     -756.81813      287.68635     -2119.2161      1920.3708      0.9969611
   1253000  -658.30484      111.27468     -769.57952      293.93975      1353.2439      1920.3708      0.9969611
   1254000  -652.5251       124.10334     -776.62845      327.82756     -1092.4613      1920.3708      0.9969611
   1255000  -649.27669      111.01717     -760.29386      293.25953     -3537.086       1920.3708      0.9969611
   1256000  -646.13634      111.13275     -757.26909      293.56485     -695.94803      1920.3708      0.9969611
   1257000  -647.61511      112.49617     -760.11129      297.16642     -57.78201       1920.3708      0.9969611
   1258000  -650.37884      122.14293     -772.52176      322.64898     -869.76269      1920.3708      0.9969611
   1259000  -669.46305      103.13867     -772.60172      272.44792     -149.06863      1920.3708      0.9969611
   1260000  -652.87028      102.59135     -755.46163      271.00215     -2034.2331      1920.3708      0.9969611
   1261000  -666.53099      110.75435     -777.28535      292.56528     -1092.8213      1920.3708      0.9969611
   1262000  -628.77645      125.1956      -753.97205      330.71284      943.47079      1920.3708      0.9969611
   1263000  -640.4923       116.22904     -756.72134      307.02704     -692.2802       1920.3708      0.9969611
   1264000  -664.13109      106.33131     -770.4624       280.8815      -1178.6044      1920.3708      0.9969611
   1265000  -664.60397      111.21578     -775.81974      293.78416     -2284.7586      1920.3708      0.9969611
   1266000  -633.90992      128.37802     -762.28794      339.11942     -109.66949      1920.3708      0.9969611
   1267000  -643.33249      112.29717     -755.62966      296.64074      3078.7939      1920.3708      0.9969611
   1268000  -635.3016       114.77757     -750.07917      303.19288      1875.6963      1920.3708      0.9969611
   1269000  -636.55242      123.97949     -760.53191      327.50039     -607.41485      1920.3708      0.9969611
   1270000  -645.36774      111.47915     -756.84689      294.47987      1639.6785      1920.3708      0.9969611
   1271000  -644.04922      103.64276     -747.69198      273.7795      -4630.0136      1920.3708      0.9969611
   1272000  -643.33468      123.51788     -766.85255      326.28101      2350.2841      1920.3708      0.9969611
   1273000  -651.35093      99.746699     -751.09763      263.4878      -2203.4289      1920.3708      0.9969611
   1274000  -651.37755      106.13547     -757.51302      280.36418      2103.6266      1920.3708      0.9969611
   1275000  -634.85813      130.24493     -765.10307      344.05099      1338.5188      1920.3708      0.9969611
   1276000  -645.87203      101.61763     -747.48967      268.43        -480.06703      1920.3708      0.9969611
   1277000  -660.34785      98.67625      -759.0241       260.66013      2361.1838      1920.3708      0.9969611
   1278000  -645.93062      128.26498     -774.1956       338.82081      127.23065      1920.3708      0.9969611
   1279000  -674.94496      92.261846     -767.20681      243.71604     -971.12931      1920.3708      0.9969611
   1280000  -632.86813      123.2531      -756.12123      325.58157      440.64854      1920.3708      0.9969611
   1281000  -654.86406      119.00904     -773.87309      314.3706       628.1014       1920.3708      0.9969611
   1282000  -625.89525      114.35607     -740.25132      302.07945     -36.62203       1920.3708      0.9969611
   1283000  -652.81691      123.51306     -776.32996      326.26827     -1267.8233      1920.3708      0.9969611
   1284000  -649.48166      108.36631     -757.84797      286.25709     -834.52373      1920.3708      0.9969611
   1285000  -669.1655       106.92959     -776.0951       282.46191     -3156.7406      1920.3708      0.9969611
   1286000  -615.68939      124.4198      -740.10919      328.6635      -937.3727       1920.3708      0.9969611
   1287000  -658.16683      107.31415     -765.48099      283.47775     -638.8856       1920.3708      0.9969611
   1288000  -677.5907       108.71703     -786.30773      287.18354      1086.5359      1920.3708      0.9969611
   1289000  -662.76451      114.38847     -777.15298      302.16504     -2561.3565      1920.3708      0.9969611
   1290000  -647.99415      114.81419     -762.80835      303.28962      505.46797      1920.3708      0.9969611
   1291000  -630.13823      110.15963     -740.29787      290.99428      3269.0623      1920.3708      0.9969611
   1292000  -634.71398      108.3507      -743.06467      286.21585     -1833.8797      1920.3708      0.9969611
   1293000  -636.32731      108.33937     -744.66668      286.18595     -2695.13        1920.3708      0.9969611
   1294000  -666.89267      108.76026     -775.65293      287.29774      1005.5265      1920.3708      0.9969611
   1295000  -606.80622      125.31204     -732.11826      331.02041     -1881.7641      1920.3708      0.9969611
   1296000  -680.04272      94.323582     -774.3663       249.16226     -4057.4755      1920.3708      0.9969611
   1297000  -627.32608      115.07944     -742.40552      303.99029     -2366.9262      1920.3708      0.9969611
   1298000  -658.48401      100.66744     -759.15145      265.92001     -1121.638       1920.3708      0.9969611
   1299000  -638.81818      114.18852     -753.00669      301.63686     -982.77713      1920.3708      0.9969611
   1300000  -663.75457      112.9694      -776.72398      298.41649      2269.9365      1920.3708      0.9969611
   1301000  -668.23596      110.45921     -778.69517      291.78563      2533.6211      1920.3708      0.9969611
   1302000  -653.83153      121.27362     -775.10515      320.35265     -886.28979      1920.3708      0.9969611
   1303000  -646.2353       110.18801     -756.42331      291.06925     -2694.6199      1920.3708      0.9969611
   1304000  -664.13595      96.383545     -760.51949      254.60379     -415.96539      1920.3708      0.9969611
   1305000  -636.84007      120.37011     -757.21018      317.96595      2772.0164      1920.3708      0.9969611
   1306000  -667.68102      105.55139     -773.23241      278.82129      848.72945      1920.3708      0.9969611
   1307000  -659.01476      103.48657     -762.50133      273.36693     -232.6458       1920.3708      0.9969611
   1308000  -642.38578      121.29151     -763.67729      320.3999       13.8589        1920.3708      0.9969611
   1309000  -671.43568      104.18715     -775.62283      275.21756     -2654.7214      1920.3708      0.9969611
   1310000  -644.84523      119.21629     -764.06152      314.91806      1341.3094      1920.3708      0.9969611
   1311000  -629.07388      122.3097      -751.38358      323.08953      2152.7461      1920.3708      0.9969611
   1312000  -626.89884      117.00232     -743.90116      309.06971     -970.31802      1920.3708      0.9969611
   1313000  -641.77663      107.76322     -749.53985      284.66398     -1157.3874      1920.3708      0.9969611
   1314000  -642.56039      120.6204      -763.18079      318.62713     -2189.3787      1920.3708      0.9969611
   1315000  -647.50345      129.51774     -777.02119      342.13006     -2905.809       1920.3708      0.9969611
   1316000  -650.73819      112.1208      -762.85899      296.17484      1991.1841      1920.3708      0.9969611
   1317000  -656.5415       115.6244      -772.16589      305.42984     -976.1362       1920.3708      0.9969611
   1318000  -667.7542       115.31816     -783.07237      304.6209       1107.8789      1920.3708      0.9969611
   1319000  -653.56855      107.08461     -760.65317      282.8714      -2091.8584      1920.3708      0.9969611
   1320000  -649.0128       106.91608     -755.92888      282.42621      2285.5236      1920.3708      0.9969611
   1321000  -634.72907      118.99327     -753.72235      314.32896      196.43299      1920.3708      0.9969611
   1322000  -634.43427      119.6334      -754.06768      316.0199       1625.4703      1920.3708      0.9969611
   1323000  -641.78699      104.78494     -746.57192      276.79665     -286.18234      1920.3708      0.9969611
   1324000  -620.77065      119.96712     -740.73777      316.90143      2252.9702      1920.3708      0.9969611
   1325000  -626.35875      116.08448     -742.44323      306.64518     -1992.7764      1920.3708      0.9969611
   1326000  -632.21812      112.87726     -745.09538      298.17308     -1574.9449      1920.3708      0.9969611
   1327000  -649.17651      98.551988     -747.7285       260.33189     -1075.5144      1920.3708      0.9969611
   1328000  -641.06809      105.73506     -746.80314      279.30646     -1540.051       1920.3708      0.9969611
   1329000  -646.24163      109.80034     -756.04197      290.04519      2320.4595      1920.3708      0.9969611
   1330000  -637.77365      107.74656     -745.52021      284.61998      2105.6698      1920.3708      0.9969611
   1331000  -627.66567      119.63547     -747.30115      316.02537     -638.06233      1920.3708      0.9969611
   1332000  -647.16788      109.10806     -756.27594      288.21649     -3187.1076      1920.3708      0.9969611
   1333000  -626.92324      107.67239     -734.59564      284.42407     -755.09016      1920.3708      0.9969611
   1334000  -631.70744      122.97177     -754.67921      324.83843     -154.24397      1920.3708      0.9969611
   1335000  -647.88223      111.43614     -759.31838      294.36628      344.50666      1920.3708      0.9969611
   1336000  -637.01463      109.46952     -746.48414      289.17129      1020.5392      1920.3708      0.9969611
   1337000  -664.12175      102.98935     -767.1111       272.05348     -1851.0815      1920.3708      0.9969611
   1338000  -637.16522      130.34644     -767.51165      344.31912      368.04721      1920.3708      0.9969611
   1339000  -640.6216       117.4197      -758.04131      310.17226     -1808.9278      1920.3708      0.9969611
   1340000  -644.38616      113.64693     -758.03309      300.20622      1327.9807      1920.3708      0.9969611
   1341000  -637.30068      124.7475      -762.04818      329.52913     -2382.7721      1920.3708      0.9969611
   1342000  -643.00757      115.80451     -758.81208      305.90561     -371.9993       1920.3708      0.9969611
   1343000  -671.34693      98.916684     -770.26361      261.29526     -1352.5449      1920.3708      0.9969611
   1344000  -647.19279      108.81521     -756.008        287.4429      -154.39735      1920.3708      0.9969611
   1345000  -624.2176       105.39976     -729.61736      278.42076      848.25066      1920.3708      0.9969611
   1346000  -665.55299      108.38194     -773.93494      286.2984      -1202.3786      1920.3708      0.9969611
   1347000  -647.26674      123.97906     -771.2458       327.49925      1648.8603      1920.3708      0.9969611
   1348000  -632.03021      121.55273     -753.58293      321.08993      2061.5434      1920.3708      0.9969611
   1349000  -654.56707      114.93766     -769.50473      303.61577      2300.6326      1920.3708      0.9969611
   1350000  -662.50637      101.63165     -764.13801      268.46701      144.90374      1920.3708      0.9969611
   1351000  -650.5811       110.05448     -760.63558      290.71652     -504.20148      1920.3708      0.9969611
   1352000  -646.18256      117.58352     -763.76608      310.605        4632.0056      1920.3708      0.9969611
   1353000  -648.36598      115.08101     -763.44699      303.99444      404.1963       1920.3708      0.9969611
   1354000  -645.73296      116.71585     -762.44881      308.31298      404.66405      1920.3708      0.9969611
   1355000  -624.53099      118.99528     -743.52626      314.33425     -1258.5557      1920.3708      0.9969611
   1356000  -648.76325      109.44152     -758.20477      289.09734     -2537.559       1920.3708      0.9969611
   1357000  -631.20892      126.65271     -757.86163      334.5619       1967.7895      1920.3708      0.9969611
   1358000  -676.5836       106.38321     -782.96681      281.01861     -1486.1074      1920.3708      0.9969611
   1359000  -657.41428      113.23434     -770.64862      299.11634      1675.8166      1920.3708      0.9969611
   1360000  -653.41581      106.71844     -760.13425      281.90414     -1873.3721      1920.3708      0.9969611
   1361000  -666.86699      120.04965     -786.91663      317.11944      369.5229       1920.3708      0.9969611
   1362000  -635.2486       118.43053     -753.67913      312.84243      1609.9984      1920.3708      0.9969611
   1363000  -656.51012      111.2587      -767.76882      293.89754      2299.603       1920.3708      0.9969611
   1364000  -657.70064      126.66313     -784.36377      334.58942     -764.88031      1920.3708      0.9969611
   1365000  -641.72932      110.95463     -752.68394      293.09431      1111.9415      1920.3708      0.9969611
   1366000  -670.13339      95.462739     -765.59613      252.17142     -1718.6046      1920.3708      0.9969611
   1367000  -635.07968      118.38365     -753.46333      312.71859     -253.43804      1920.3708      0.9969611
   1368000  -643.62718      94.574759     -738.20194      249.82576     -599.99257      1920.3708      0.9969611
   1369000  -658.24929      116.25436     -774.50365      307.09393     -1490.0618      1920.3708      0.9969611
   1370000  -630.85363      111.47664     -742.33027      294.47325      1973.5854      1920.3708      0.9969611
   1371000  -639.12406      103.50414     -742.6282       273.41334      980.15084      1920.3708      0.9969611
   1372000  -635.78903      113.64859     -749.43762      300.2106       617.69296      1920.3708      0.9969611
   1373000  -643.55668      115.23388     -758.79055      304.39825      641.74273      1920.3708      0.9969611
   1374000  -654.53647      103.38901     -757.92549      273.10923     -378.02317      1920.3708      0.9969611
   1375000  -644.31933      115.51879     -759.83813      305.15088      1785.1286      1920.3708      0.9969611
   1376000  -663.74361      111.82915     -775.57276      295.40442     -554.75231      1920.3708      0.9969611
   1377000  -627.2602       109.96677     -737.22697      290.48483     -1347.412       1920.3708      0.9969611
   1378000  -619.19977      123.72736     -742.92713      326.83436     -348.98835      1920.3708      0.9969611
   1379000  -650.28022      96.976877     -747.2571       256.17112      812.21984      1920.3708      0.9969611
   1380000  -653.37724      117.66107     -771.03831      310.80984     -1507.9368      1920.3708      0.9969611
   1381000  -657.274        111.90698     -769.18097      295.61001     -663.51751      1920.3708      0.9969611
   1382000  -691.65552      96.163946     -787.81946      254.02371     -1988.6134      1920.3708      0.9969611
   1383000  -647.15154      105.09496     -752.2465       277.61561      120.92558      1920.3708      0.9969611
   1384000  -645.05566      105.39007     -750.44573      278.39517      1647.0001      1920.3708      0.9969611
   1385000  -670.30119      109.08452     -779.38571      288.1543      -2145.6268      1920.3708      0.9969611
   1386000  -663.57122      105.02572     -768.59694      277.43269      526.4992       1920.3708      0.9969611
   1387000  -634.71342      112.12837     -746.84178      296.19483      291.88733      1920.3708      0.9969611
   1388000  -649.43204      104.80603     -754.23807      276.85238     -604.33293      1920.3708      0.9969611
   1389000  -637.86793      113.6314      -751.49933      300.16519     -767.37602      1920.3708      0.9969611
   1390000  -668.47653      94.932835     -763.40936      250.77164     -1641.3572      1920.3708      0.9969611
   1391000  -658.03017      105.16147     -763.19163      277.79128     -1044.5585      1920.3708      0.9969611
   1392000  -648.93044      111.72241     -760.65285      295.12247     -1303.3853      1920.3708      0.9969611
   1393000  -654.48846      105.54458     -760.03304      278.8033      -785.95163      1920.3708      0.9969611
   1394000  -652.40125      109.0894      -761.49065      288.1672       223.75196      1920.3708      0.9969611
   1395000  -631.37058      117.05118     -748.42176      309.19877     -4049.7454      1920.3708      0.9969611
   1396000  -642.93168      114.47984     -757.41152      302.40641     -905.21489      1920.3708      0.9969611
   1397000  -624.15378      114.10078     -738.25456      301.40509     -14.360689      1920.3708      0.9969611
   1398000  -644.39934      108.41197     -752.81131      286.37772      1961.4117      1920.3708      0.9969611
   1399000  -641.5306       105.37179     -746.90238      278.34685     -687.98089      1920.3708      0.9969611
   1400000  -628.19687      118.56878     -746.76565      313.20763      69.712612      1920.3708      0.9969611
   1401000  -656.78999      119.2402      -776.03019      314.98122     -647.19758      1920.3708      0.9969611
   1402000  -660.28432      117.44172     -777.72603      310.23041     -3387.0935      1920.3708      0.9969611
   1403000  -645.88366      119.58249     -765.46615      315.88542     -1978.8364      1920.3708      0.9969611
   1404000  -636.21747      125.53792     -761.75539      331.6171      -1506.7158      1920.3708      0.9969611
   1405000  -657.03901      107.66918     -764.70818      284.41557      216.27863      1920.3708      0.9969611
   1406000  -626.59337      125.07274     -751.66611      330.38828      883.89147      1920.3708      0.9969611
   1407000  -640.39405      111.2657      -751.65975      293.91604     -2790.2821      1920.3708      0.9969611
   1408000  -641.78272      113.46326     -755.24598      299.72104     -2092.8066      1920.3708      0.9969611
   1409000  -632.33247      104.51567     -736.84813      276.08536      1159.2525      1920.3708      0.9969611
   1410000  -659.30231      113.21806     -772.52038      299.07334     -3301.5779      1920.3708      0.9969611
   1411000  -640.19718      116.03554     -756.23273      306.5159      -1141.9119      1920.3708      0.9969611
   1412000  -650.43941      111.77631     -762.21571      295.26484     -1202.1194      1920.3708      0.9969611
   1413000  -662.89938      106.2629      -769.16229      280.7008       2446.1786      1920.3708      0.9969611
   1414000  -636.47442      121.2392      -757.71362      320.26173     -823.64688      1920.3708      0.9969611
   1415000  -655.2485       126.34666     -781.59516      333.75345     -960.44909      1920.3708      0.9969611
   1416000  -641.39512      120.87411     -762.26924      319.29732     -675.61675      1920.3708      0.9969611
   1417000  -671.86345      106.007       -777.87045      280.02482      319.4294       1920.3708      0.9969611
   1418000  -645.17493      105.99003     -751.16495      279.97998     -823.26061      1920.3708      0.9969611
   1419000  -674.07166      108.32938     -782.40104      286.15955     -203.62644      1920.3708      0.9969611
   1420000  -655.64835      115.78323     -771.43159      305.84942      309.38071      1920.3708      0.9969611
   1421000  -633.22641      120.31284     -753.53925      317.81468     -1269.6341      1920.3708      0.9969611
   1422000  -652.41297      112.74151     -765.15448      297.81448      386.21039      1920.3708      0.9969611
   1423000  -660.97656      109.01076     -769.98733      287.95947      2688.0255      1920.3708      0.9969611
   1424000  -665.90654      113.27105     -779.17759      299.2133      -1669.4299      1920.3708      0.9969611
   1425000  -647.99049      116.2756      -764.26609      307.15003      706.4955       1920.3708      0.9969611
   1426000  -651.74417      111.72732     -763.47149      295.13544     -246.97991      1920.3708      0.9969611
   1427000  -650.42464      102.9876      -753.41225      272.04888     -474.40059      1920.3708      0.9969611
   1428000  -628.01437      116.298       -744.31238      307.20922     -1534.3051      1920.3708      0.9969611
   1429000  -631.77804      112.44416     -744.2222       297.02901     -1307.0379      1920.3708      0.9969611
   1430000  -644.88762      115.86058     -760.74819      306.05372     -3497.8375      1920.3708      0.9969611
   1431000  -658.1317       109.30209     -767.43379      288.72902     -2375.0049      1920.3708      0.9969611
   1432000  -639.07365      119.99189     -759.06554      316.96688     -2207.8184      1920.3708      0.9969611
   1433000  -651.88082      112.78107     -764.66189      297.919       -530.40435      1920.3708      0.9969611
   1434000  -663.85105      114.4874      -778.33845      302.42637      2317.2968      1920.3708      0.9969611
   1435000  -656.69884      110.6376      -767.33644      292.25687     -524.72143      1920.3708      0.9969611
   1436000  -661.73753      103.99678     -765.73431      274.71469     -1528.9907      1920.3708      0.9969611
   1437000  -639.87793      124.39132     -764.26925      328.58827     -1249.4675      1920.3708      0.9969611
   1438000  -633.58772      113.1914      -746.77912      299.00291      2108.422       1920.3708      0.9969611
   1439000  -625.17046      117.22573     -742.39619      309.65987      2297.2489      1920.3708      0.9969611
   1440000  -643.75277      128.55061     -772.30338      339.57532     -364.56182      1920.3708      0.9969611
   1441000  -645.30133      111.12649     -756.42782      293.54831     -1131.4538      1920.3708      0.9969611
   1442000  -649.38001      112.94822     -762.32823      298.36053     -1273.2085      1920.3708      0.9969611
   1443000  -610.39407      106.66533     -717.0594       281.76385     -1995.0968      1920.3708      0.9969611
   1444000  -622.84716      111.12032     -733.96747      293.53199     -394.62578      1920.3708      0.9969611
   1445000  -632.52632      100.5072      -733.03352      265.49672     -2108.9152      1920.3708      0.9969611
   1446000  -655.12762      99.870409     -754.99803      263.81459     -378.33622      1920.3708      0.9969611
   1447000  -637.04941      117.25159     -754.301        309.72818     -1008.5909      1920.3708      0.9969611
   1448000  -666.37891      107.0516      -773.43051      282.78421     -3192.0853      1920.3708      0.9969611
   1449000  -633.59914      117.33816     -750.9373       309.95687      1419.6845      1920.3708      0.9969611
   1450000  -656.0614       101.32493     -757.38633      267.6568       1000.3801      1920.3708      0.9969611
   1451000  -666.68258      108.87838     -775.56096      287.60977     -1501.2856      1920.3708      0.9969611
   1452000  -677.3811       114.57369     -791.95479      302.65431      2853.2551      1920.3708      0.9969611
   1453000  -639.07898      115.85534     -754.93432      306.0399      -1460.3959      1920.3708      0.9969611
   1454000  -628.24057      115.29528     -743.53584      304.56045     -2997.255       1920.3708      0.9969611
   1455000  -639.42489      95.75992      -735.18481      252.95645     -1110.4925      1920.3708      0.9969611
   1456000  -636.65653      117.23248     -753.88901      309.6777       1479.1024      1920.3708      0.9969611
   1457000  -668.89151      102.04348     -770.93499      269.55491     -2406.8597      1920.3708      0.9969611
   1458000  -650.81121      118.55424     -769.36545      313.16922     -2075.7165      1920.3708      0.9969611
   1459000  -640.56528      104.41054     -744.97582      275.80766      997.60518      1920.3708      0.9969611
   1460000  -629.72582      113.18376     -742.90958      298.98274     -3211.2391      1920.3708      0.9969611
   1461000  -672.6734       89.983478     -762.65688      237.69758     -1116.2667      1920.3708      0.9969611
   1462000  -636.3597       117.20496     -753.56466      309.60499     -940.31784      1920.3708      0.9969611
   1463000  -637.53597      110.6084      -748.14436      292.17972     -63.309464      1920.3708      0.9969611
   1464000  -650.21418      112.88246     -763.09664      298.18682     -336.94444      1920.3708      0.9969611
   1465000  -639.13394      107.66627     -746.80021      284.40789      292.41691      1920.3708      0.9969611
   1466000  -627.84863      122.91994     -750.76857      324.70152     -421.4878       1920.3708      0.9969611
   1467000  -650.45297      114.64503     -765.098        302.84276     -283.16126      1920.3708      0.9969611
   1468000  -657.63706      127.94627     -785.58333      337.97892      512.64575      1920.3708      0.9969611
   1469000  -630.10129      112.28385     -742.38514      296.60554      3721.1092      1920.3708      0.9969611
   1470000  -653.6243       117.30514     -770.92944      309.86964     -1968.2206      1920.3708      0.9969611
   1471000  -630.34183      129.603       -759.94484      342.35529      1316.4024      1920.3708      0.9969611
   1472000  -667.70058      99.689189     -767.38977      263.33588     -608.97005      1920.3708      0.9969611
   1473000  -635.04847      113.14193     -748.1904       298.87222     -676.37872      1920.3708      0.9969611
   1474000  -688.0523       87.550849     -775.60315      231.27162     -306.37893      1920.3708      0.9969611
   1475000  -632.17326      122.15156     -754.32482      322.67178     -499.90814      1920.3708      0.9969611
   1476000  -656.72343      117.11018     -773.83362      309.35464     -547.39249      1920.3708      0.9969611
   1477000  -635.05726      105.56737     -740.62463      278.86351      6239.6855      1920.3708      0.9969611
   1478000  -600.44548      128.32137     -728.76685      338.96976     -193.40271      1920.3708      0.9969611
   1479000  -664.14315      116.25603     -780.39918      307.09834      780.14059      1920.3708      0.9969611
   1480000  -647.34231      104.35821     -751.70052      275.66941      1019.6949      1920.3708      0.9969611
   1481000  -654.95223      112.05599     -767.00822      296.00364      1531.3323      1920.3708      0.9969611
   1482000  -686.48164      110.05623     -796.53787      290.72114     -1205.3436      1920.3708      0.9969611
   1483000  -622.03276      123.41365     -745.44641      326.00567      870.2107       1920.3708      0.9969611
   1484000  -652.00258      107.705       -759.70759      284.51021     -1090.5121      1920.3708      0.9969611
   1485000  -635.45005      123.75929     -759.20934      326.91871     -686.58204      1920.3708      0.9969611
   1486000  -654.85282      105.76609     -760.61891      279.38844     -2268.8366      1920.3708      0.9969611
   1487000  -663.9334       100.49631     -764.42971      265.46794      163.12731      1920.3708      0.9969611
   1488000  -644.35039      118.98275     -763.33315      314.30116     -1325.6028      1920.3708      0.9969611
   1489000  -632.90337      120.30207     -753.20545      317.78624      297.60006      1920.3708      0.9969611
   1490000  -636.4768       112.63981     -749.11661      297.54585     -3885.6055      1920.3708      0.9969611
   1491000  -649.43011      117.44751     -766.87762      310.24571      2052.8257      1920.3708      0.9969611
   1492000  -635.96525      127.41195     -763.37721      336.56748     -507.80895      1920.3708      0.9969611
   1493000  -628.05687      136.227       -764.28386      359.85303      2685.0294      1920.3708      0.9969611
   1494000  -631.93604      117.28786     -749.2239       309.82398      175.15207      1920.3708      0.9969611
   1495000  -646.17306      111.19616     -757.36922      293.73234      166.95084      1920.3708      0.9969611
   1496000  -645.8198       96.566167     -742.38597      255.0862       44.664919      1920.3708      0.9969611
   1497000  -641.82667      126.86357     -768.69025      335.11889     -1865.2818      1920.3708      0.9969611
   1498000  -655.57816      102.97079     -758.54895      272.00445      293.3645       1920.3708      0.9969611
   1499000  -658.99114      111.37911     -770.37025      294.21561     -794.1353       1920.3708      0.9969611
   1500000  -661.60892      115.18095     -776.78987      304.25844      1089.1229      1920.3708      0.9969611
   1501000  -669.48414      96.918993     -766.40314      256.01822      65.754882      1920.3708      0.9969611
   1502000  -660.64155      114.59595     -775.2375       302.71312     -2579.6282      1920.3708      0.9969611
   1503000  -638.96744      111.34093     -750.30837      294.11477      3933.8251      1920.3708      0.9969611
   1504000  -647.37946      108.88006     -756.25951      287.6142      -46.596437      1920.3708      0.9969611
   1505000  -654.35324      114.43936     -768.79259      302.29947      388.93864      1920.3708      0.9969611
   1506000  -655.44699      120.84095     -776.28794      319.20973     -1643.5123      1920.3708      0.9969611
   1507000  -656.36622      108.17648     -764.5427       285.75564     -2655.1972      1920.3708      0.9969611
   1508000  -653.30426      98.150099     -751.45436      259.27027     -1393.7769      1920.3708      0.9969611
   1509000  -651.9635       93.493767     -745.45727      246.97025     -1641.9158      1920.3708      0.9969611
   1510000  -622.51037      106.19859     -728.70897      280.53092     -1678.1278      1920.3708      0.9969611
   1511000  -617.07799      126.71339     -743.79138      334.72218     -1537.3297      1920.3708      0.9969611
   1512000  -635.65641      121.59062     -757.24704      321.19004     -1373.07        1920.3708      0.9969611
   1513000  -638.02609      120.61988     -758.64596      318.62574      4795.2624      1920.3708      0.9969611
   1514000  -637.62131      114.50137     -752.12269      302.46329      4263.2677      1920.3708      0.9969611
   1515000  -645.86617      113.28055     -759.14672      299.23841      565.97393      1920.3708      0.9969611
   1516000  -633.59971      138.27973     -771.87945      365.27547     -1452.8392      1920.3708      0.9969611
   1517000  -674.95034      97.407991     -772.35833      257.30994     -2279.7341      1920.3708      0.9969611
   1518000  -650.69227      122.0076      -772.69987      322.29152     -652.19653      1920.3708      0.9969611
   1519000  -661.61274      119.32454     -780.93728      315.20402     -41.849722      1920.3708      0.9969611
   1520000  -657.12667      97.904334     -755.031        258.62106     -341.58445      1920.3708      0.9969611
   1521000  -631.0957       117.10031     -748.196        309.32855     -1502.6499      1920.3708      0.9969611
   1522000  -652.08798      115.21732     -767.30531      304.35452     -1565.3273      1920.3708      0.9969611
   1523000  -632.29111      118.43643     -750.72755      312.85802     -2621.8782      1920.3708      0.9969611
   1524000  -650.7406       121.52591     -772.26652      321.01909     -671.38258      1920.3708      0.9969611
   1525000  -652.45962      114.40452     -766.86415      302.20746     -3426.5117      1920.3708      0.9969611
   1526000  -643.00367      115.35669     -758.36036      304.72267     -1609.589       1920.3708      0.9969611
   1527000  -650.36139      110.41611     -760.7775       291.67178     -3362.5963      1920.3708      0.9969611
   1528000  -640.95412      122.40136     -763.35548      323.33164      2744.6016      1920.3708      0.9969611
   1529000  -640.20284      113.94498     -754.14782      300.99354      1327.286       1920.3708      0.9969611
   1530000  -656.34293      124.20552     -780.54845      328.09748     -1210.8034      1920.3708      0.9969611
   1531000  -657.42309      109.77245     -767.19553      289.9715      -130.78518      1920.3708      0.9969611
   1532000  -670.06675      109.59956     -779.66632      289.51482     -1933.3714      1920.3708      0.9969611
   1533000  -643.12741      119.68738     -762.81478      316.16248      48.43448       1920.3708      0.9969611
   1534000  -647.5046       117.03771     -764.54231      309.1632      -1368.2357      1920.3708      0.9969611
   1535000  -668.68349      111.23646     -779.91995      293.8388      -1833.2033      1920.3708      0.9969611
   1536000  -655.74404      105.05399     -760.79803      277.50738      282.14341      1920.3708      0.9969611
   1537000  -648.26895      113.7013      -761.97026      300.34985      1834.6846      1920.3708      0.9969611
   1538000  -618.56294      106.54971     -725.11265      281.45842     -347.7918       1920.3708      0.9969611
   1539000  -653.747        109.89373     -763.64073      290.29187      319.20695      1920.3708      0.9969611
   1540000  -651.06632      111.49894     -762.56525      294.53215      1382.3831      1920.3708      0.9969611
   1541000  -641.82902      115.04715     -756.87616      303.90499     -2539.9278      1920.3708      0.9969611
   1542000  -647.86375      113.59362     -761.45737      300.06539     -4423.5044      1920.3708      0.9969611
   1543000  -644.08713      120.80804     -764.89517      319.12278      353.18132      1920.3708      0.9969611
   1544000  -649.24433      122.18556     -771.42989      322.7616      -998.65977      1920.3708      0.9969611
   1545000  -634.7988       114.98001     -749.77881      303.72764     -1039.771       1920.3708      0.9969611
   1546000  -642.71847      123.86897     -766.58744      327.20845      2799.9741      1920.3708      0.9969611
   1547000  -616.28206      122.40429     -738.68635      323.3394       2849.4623      1920.3708      0.9969611
   1548000  -631.519        112.98338     -744.50238      298.4534       586.25874      1920.3708      0.9969611
   1549000  -655.53951      107.78022     -763.31973      284.70889     -430.87993      1920.3708      0.9969611
   1550000  -658.55049      108.02326     -766.57375      285.3509       177.16539      1920.3708      0.9969611
   1551000  -616.65953      117.78631     -734.44584      311.14069     -1004.2519      1920.3708      0.9969611
   1552000  -648.25789      108.05355     -756.31144      285.43091     -636.32379      1920.3708      0.9969611
   1553000  -657.93285      108.69026     -766.62311      287.11283      1730.6611      1920.3708      0.9969611
   1554000  -647.66423      116.79483     -764.45906      308.52161     -341.42221      1920.3708      0.9969611
   1555000  -637.65794      116.9521      -754.61004      308.93706      2657.0437      1920.3708      0.9969611
   1556000  -672.48089      95.674899     -768.15579      252.73186     -718.82242      1920.3708      0.9969611
   1557000  -625.05499      122.17941     -747.2344       322.74535      764.87018      1920.3708      0.9969611
   1558000  -628.13548      118.53336     -746.66884      313.11407     -1128.9493      1920.3708      0.9969611
   1559000  -659.73962      116.15019     -775.88981      306.81876     -518.44595      1920.3708      0.9969611
   1560000  -641.6078       113.87851     -755.48631      300.81796      2651.2285      1920.3708      0.9969611
   1561000  -657.30994      118.68082     -775.99076      313.5036       624.83673      1920.3708      0.9969611
   1562000  -667.32758      112.55754     -779.88513      297.32853     -705.81818      1920.3708      0.9969611
   1563000  -632.17489      129.36808     -761.54297      341.73473      437.32851      1920.3708      0.9969611
   1564000  -648.64571      116.7202      -765.36591      308.32447      601.25913      1920.3708      0.9969611
   1565000  -635.07513      115.44713     -750.52227      304.96158     -865.84983      1920.3708      0.9969611
   1566000  -652.22889      104.96827     -757.19716      277.28094     -3435.1093      1920.3708      0.9969611
   1567000  -643.36933      120.34332     -763.71265      317.89521      121.43887      1920.3708      0.9969611
   1568000  -656.39596      108.79054     -765.1865       287.37774      676.33977      1920.3708      0.9969611
   1569000  -631.90826      120.40073     -752.30899      318.04685     -1258.8908      1920.3708      0.9969611
   1570000  -631.21298      115.17683     -746.38981      304.24756     -588.4962       1920.3708      0.9969611
   1571000  -634.83586      109.85501     -744.69087      290.1896       4719.3924      1920.3708      0.9969611
   1572000  -665.28606      106.1756      -771.46166      280.47018     -2218.6922      1920.3708      0.9969611
   1573000  -651.01915      112.54491     -763.56406      297.29515     -797.68293      1920.3708      0.9969611
   1574000  -631.9589       131.3216      -763.2805       346.89508      2072.8059      1920.3708      0.9969611
   1575000  -647.90955      110.20813     -758.11768      291.1224       1266.5162      1920.3708      0.9969611
   1576000  -632.57415      119.97782     -752.55197      316.92971      24.500633      1920.3708      0.9969611
   1577000  -643.36453      97.971351     -741.33588      258.79809      1910.6315      1920.3708      0.9969611
   1578000  -653.36354      118.79579     -772.15933      313.80729     -500.92605      1920.3708      0.9969611
   1579000  -660.06522      112.33225     -772.39747      296.7334      -970.36555      1920.3708      0.9969611
   1580000  -635.81958      116.44696     -752.26654      307.6027      -100.52008      1920.3708      0.9969611
   1581000  -647.4959       113.54262     -761.03852      299.93068     -212.03248      1920.3708      0.9969611
   1582000  -615.4057       130.27956     -745.68526      344.14245     -1657.5011      1920.3708      0.9969611
   1583000  -641.17262      111.5725      -752.74512      294.72646      276.38726      1920.3708      0.9969611
   1584000  -624.13696      113.1522      -737.28916      298.89936      3979.4713      1920.3708      0.9969611
   1585000  -688.98956      105.26069     -794.25026      278.0534       1957.7126      1920.3708      0.9969611
   1586000  -653.89522      109.55337     -763.4486       289.39281     -1831.5804      1920.3708      0.9969611
   1587000  -643.59438      112.15347     -755.74785      296.26114      332.32426      1920.3708      0.9969611
   1588000  -620.98234      119.1883      -740.17064      314.84412      1923.626       1920.3708      0.9969611
   1589000  -652.78898      109.22077     -762.00975      288.51421     -3460.2612      1920.3708      0.9969611
   1590000  -666.49262      102.79011     -769.28273      271.52719      170.06143      1920.3708      0.9969611
   1591000  -617.03886      126.49315     -743.53201      334.14039      3971.902       1920.3708      0.9969611
   1592000  -639.62968      118.04592     -757.6756       311.82647     -2797.9796      1920.3708      0.9969611
   1593000  -615.8936       112.4555      -728.3491       297.05896     -1652.2558      1920.3708      0.9969611
   1594000  -649.48551      110.42701     -759.91252      291.70057     -413.70794      1920.3708      0.9969611
   1595000  -632.51259      124.62874     -757.14133      329.21544     -625.37703      1920.3708      0.9969611
   1596000  -676.83696      104.38671     -781.22367      275.7447       336.34968      1920.3708      0.9969611
   1597000  -644.57923      117.16541     -761.74464      309.50053      116.6797       1920.3708      0.9969611
   1598000  -634.0561       111.07473     -745.13084      293.41159     -1345.0588      1920.3708      0.9969611
   1599000  -624.42863      116.27701     -740.70563      307.15375      352.45751      1920.3708      0.9969611
   1600000  -648.73108      114.30483     -763.03592      301.94412     -1395.8374      1920.3708      0.9969611
   1601000  -636.42693      116.03856     -752.46549      306.52387     -1536.9785      1920.3708      0.9969611
   1602000  -631.30254      116.94703     -748.24958      308.92367      0.69561425     1920.3708      0.9969611
   1603000  -636.94084      117.14475     -754.08559      309.44595      752.68163      1920.3708      0.9969611
   1604000  -622.10099      123.77623     -745.87722      326.96347     -255.99428      1920.3708      0.9969611
   1605000  -658.10114      121.66094     -779.76208      321.37579     -4154.3043      1920.3708      0.9969611
   1606000  -656.95564      115.25741     -772.21305      304.46042     -1195.3116      1920.3708      0.9969611
   1607000  -655.04316      115.69        -770.73316      305.60313     -2380.3074      1920.3708      0.9969611
   1608000  -635.00548      110.88145     -745.88693      292.90102     -2298.228       1920.3708      0.9969611
   1609000  -645.04897      104.25516     -749.30413      275.39722     -68.950362      1920.3708      0.9969611
   1610000  -632.88101      112.79437     -745.67538      297.95413     -167.26239      1920.3708      0.9969611
   1611000  -661.78215      103.45201     -765.23416      273.27564     -1630.4591      1920.3708      0.9969611
   1612000  -633.73845      115.32539     -749.06384      304.63998     -223.27412      1920.3708      0.9969611
   1613000  -633.08027      117.22923     -750.30951      309.66912     -1571.0168      1920.3708      0.9969611
   1614000  -661.71348      116.33351     -778.04699      307.303        608.8324       1920.3708      0.9969611
   1615000  -632.79629      132.35367     -765.14996      349.62136      746.02393      1920.3708      0.9969611
   1616000  -650.53096      110.57123     -761.10219      292.08154      882.43821      1920.3708      0.9969611
   1617000  -645.46184      109.89034     -755.35217      290.28292     -1476.3082      1920.3708      0.9969611
   1618000  -656.20649      101.71641     -757.92289      268.69092      800.76518      1920.3708      0.9969611
   1619000  -656.7666       106.01826     -762.78485      280.05456      152.75815      1920.3708      0.9969611
   1620000  -643.90117      116.01962     -759.92078      306.47384     -315.8847       1920.3708      0.9969611
   1621000  -637.40955      128.83219     -766.24174      340.31914      626.22095      1920.3708      0.9969611
   1622000  -637.88353      112.70125     -750.58478      297.70814     -2346.3082      1920.3708      0.9969611
   1623000  -643.33589      112.53811     -755.874        297.2772      -752.4799       1920.3708      0.9969611
   1624000  -654.65859      113.58706     -768.24565      300.04806      247.8163       1920.3708      0.9969611
   1625000  -637.10935      111.00884     -748.11819      293.23752     -1043.6647      1920.3708      0.9969611
   1626000  -639.41551      104.92379     -744.3393       277.16345      362.75365      1920.3708      0.9969611
   1627000  -651.39061      121.81141     -773.20202      321.77326     -1706.1671      1920.3708      0.9969611
   1628000  -648.78473      105.75338     -754.53811      279.35486      962.37454      1920.3708      0.9969611
   1629000  -642.21212      105.95336     -748.16547      279.88311      1039.0477      1920.3708      0.9969611
   1630000  -680.98438      107.16342     -788.14781      283.07959     -2067.6584      1920.3708      0.9969611
   1631000  -638.96639      118.43655     -757.40294      312.85833      20.203037      1920.3708      0.9969611
   1632000  -645.98146      108.93728     -754.91874      287.76535     -1800.4597      1920.3708      0.9969611
   1633000  -652.76685      115.98794     -768.7548       306.39017     -2524.8863      1920.3708      0.9969611
   1634000  -668.99539      105.01323     -774.00862      277.3997      -973.77548      1920.3708      0.9969611
   1635000  -619.2392       121.59572     -740.83493      321.20351     -581.24772      1920.3708      0.9969611
   1636000  -646.9346       111.69681     -758.63141      295.05484     -1298.1506      1920.3708      0.9969611
   1637000  -643.77927      100.77056     -744.54983      266.1924      -1806.1113      1920.3708      0.9969611
   1638000  -643.6777       112.60003     -756.27772      297.44075     -572.87661      1920.3708      0.9969611
   1639000  -631.49151      122.65625     -754.14776      324.00496     -1263.5174      1920.3708      0.9969611
   1640000  -650.51847      105.8591      -756.37757      279.63412      40.43309       1920.3708      0.9969611
   1641000  -617.24669      112.52367     -729.77036      297.23906     -46.843208      1920.3708      0.9969611
   1642000  -650.71621      111.54953     -762.26573      294.66578     -637.53195      1920.3708      0.9969611
   1643000  -674.96508      99.360432     -774.32551      262.46745      1292.8718      1920.3708      0.9969611
   1644000  -652.66864      110.46137     -763.13001      291.79135     -1411.3789      1920.3708      0.9969611
   1645000  -642.37183      113.86993     -756.24176      300.79528     -2982.2798      1920.3708      0.9969611
   1646000  -634.85242      114.2588      -749.11123      301.82253     -634.87547      1920.3708      0.9969611
   1647000  -674.57762      102.55603     -777.13365      270.90884      393.95949      1920.3708      0.9969611
   1648000  -674.6931       99.157492     -773.85059      261.93137     -510.00727      1920.3708      0.9969611
   1649000  -647.73205      103.23512     -750.96718      272.70271     -2027.6974      1920.3708      0.9969611
   1650000  -675.93597      100.12253     -776.0585       264.48058     -108.10855      1920.3708      0.9969611
   1651000  -646.12421      108.44167     -754.56588      286.45617      18.281178      1920.3708      0.9969611
   1652000  -635.51265      114.22136     -749.73401      301.72363     -1068.1703      1920.3708      0.9969611
   1653000  -651.01677      104.12378     -755.14054      275.05015     -1005.4135      1920.3708      0.9969611
   1654000  -633.51208      114.79242     -748.3045       303.23212     -601.35701      1920.3708      0.9969611
   1655000  -637.01505      111.39143     -748.40648      294.24816     -776.28242      1920.3708      0.9969611
   1656000  -661.21696      110.54213     -771.75909      292.00468      233.14215      1920.3708      0.9969611
   1657000  -655.68709      118.17358     -773.86067      312.16369      267.55539      1920.3708      0.9969611
   1658000  -625.39189      122.73431     -748.12619      324.21115     -70.678848      1920.3708      0.9969611
   1659000  -654.82164      116.28688     -771.10852      307.17983     -1921.0446      1920.3708      0.9969611
   1660000  -648.39919      108.57543     -756.97462      286.80951     -1279.5764      1920.3708      0.9969611
   1661000  -646.96421      112.17747     -759.14168      296.32453      1443.0378      1920.3708      0.9969611
   1662000  -618.15553      124.6436      -742.79912      329.25467     -91.106518      1920.3708      0.9969611
   1663000  -641.24465      114.39166     -755.63631      302.17347     -162.2531       1920.3708      0.9969611
   1664000  -636.62971      114.84764     -751.47735      303.37798      218.22835      1920.3708      0.9969611
   1665000  -657.07933      113.1519      -770.23122      298.89855     -1435.901       1920.3708      0.9969611
   1666000  -647.21781      105.25498     -752.47279      278.03831     -417.26611      1920.3708      0.9969611
   1667000  -661.19961      111.38248     -772.58209      294.22452      2770.2984      1920.3708      0.9969611
   1668000  -645.41059      109.66284     -755.07343      289.68197     -487.35899      1920.3708      0.9969611
   1669000  -617.11996      125.5917      -742.71166      331.75915     -1403.6885      1920.3708      0.9969611
   1670000  -674.04143      105.86397     -779.90541      279.647       -1465.3379      1920.3708      0.9969611
   1671000  -657.97277      124.20529     -782.17806      328.09685     -484.94545      1920.3708      0.9969611
   1672000  -656.32694      104.53065     -760.85758      276.12493     -437.93784      1920.3708      0.9969611
   1673000  -662.40217      107.80539     -770.20756      284.77538     -1119.8967      1920.3708      0.9969611
   1674000  -635.031        125.13619     -760.16719      330.55589     -875.05468      1920.3708      0.9969611
   1675000  -625.29658      120.3564      -745.65298      317.92975     -185.96754      1920.3708      0.9969611
   1676000  -652.56226      108.51924     -761.0815       286.66107     -1424.3847      1920.3708      0.9969611
   1677000  -614.9343       115.38266     -730.31696      304.79127      763.24651      1920.3708      0.9969611
   1678000  -637.56328      108.92035     -746.48363      287.72062      14.798384      1920.3708      0.9969611
   1679000  -612.80664      119.63106     -732.4377       316.01372     -153.76654      1920.3708      0.9969611
   1680000  -640.15713      111.37478     -751.53192      294.20419      798.88894      1920.3708      0.9969611
   1681000  -620.89677      114.90605     -735.80282      303.53226     -2250.287       1920.3708      0.9969611
   1682000  -654.62862      113.84041     -768.46903      300.71731     -520.35991      1920.3708      0.9969611
   1683000  -676.74031      109.43462     -786.17493      289.07912      789.39186      1920.3708      0.9969611
   1684000  -691.13844      104.25778     -795.39622      275.40414     -678.6796       1920.3708      0.9969611
   1685000  -662.3157       119.26198     -781.57768      315.03876      582.46917      1920.3708      0.9969611
   1686000  -645.28494      113.87663     -759.16157      300.81299      2469.5154      1920.3708      0.9969611
   1687000  -643.17296      114.94449     -758.11744      303.63381     -997.26245      1920.3708      0.9969611
   1688000  -632.59223      130.2469      -762.83913      344.05619      232.11198      1920.3708      0.9969611
   1689000  -669.14948      105.10291     -774.25239      277.63661     -2565.6736      1920.3708      0.9969611
   1690000  -639.00391      104.47561     -743.47952      275.97954     -2460.2685      1920.3708      0.9969611
   1691000  -660.32205      106.81886     -767.1409       282.16939     -988.44634      1920.3708      0.9969611
   1692000  -620.72674      123.37502     -744.10176      325.90363     -17.349311      1920.3708      0.9969611
   1693000  -677.57359      101.09884     -778.67243      267.05958      2287.3671      1920.3708      0.9969611
   1694000  -660.54948      115.1952      -775.74467      304.29607      234.94858      1920.3708      0.9969611
   1695000  -658.79012      122.10112     -780.89124      322.53855      1591.2808      1920.3708      0.9969611
   1696000  -650.70732      114.39207     -765.09939      302.17456     -784.80947      1920.3708      0.9969611
   1697000  -658.217        118.52614     -776.74314      313.09499      133.90804      1920.3708      0.9969611
   1698000  -643.67896      114.16324     -757.8422       301.57009      273.11056      1920.3708      0.9969611
   1699000  -668.37274      99.024588     -767.39733      261.58029      77.453172      1920.3708      0.9969611
   1700000  -639.87193      102.52479     -742.39673      270.82633      795.98076      1920.3708      0.9969611
   1701000  -617.59802      132.98905     -750.58708      351.29978     -395.87316      1920.3708      0.9969611
   1702000  -623.93949      123.23727     -747.17676      325.53977      2135.3432      1920.3708      0.9969611
   1703000  -635.44117      118.15836     -753.59954      312.12348     -489.61411      1920.3708      0.9969611
   1704000  -647.65377      118.607       -766.26077      313.30859      149.06949      1920.3708      0.9969611
   1705000  -650.10238      109.40023     -759.50261      288.98828      1560.0019      1920.3708      0.9969611
   1706000  -632.63218      118.0562      -750.68838      311.85362     -1749.7603      1920.3708      0.9969611
   1707000  -663.10237      110.11929     -773.22165      290.88771     -956.85761      1920.3708      0.9969611
   1708000  -648.75196      114.01955     -762.77152      301.19053     -1177.9317      1920.3708      0.9969611
   1709000  -664.43832      119.18754     -783.62586      314.84212      753.22356      1920.3708      0.9969611
   1710000  -681.75303      113.57815     -795.33117      300.02452      555.02435      1920.3708      0.9969611
   1711000  -647.17385      115.33897     -762.51282      304.67585      1357.4538      1920.3708      0.9969611
   1712000  -647.35122      114.10902     -761.46024      301.42686     -2124.949       1920.3708      0.9969611
   1713000  -646.30737      91.376831     -737.68421      241.37821      303.58121      1920.3708      0.9969611
   1714000  -655.20766      105.43335     -760.641        278.50947      226.73309      1920.3708      0.9969611
   1715000  -647.60311      109.8208      -757.42391      290.09922      2615.3917      1920.3708      0.9969611
   1716000  -665.71401      110.50651     -776.22052      291.91058     -413.12064      1920.3708      0.9969611
   1717000  -631.4502       126.61518     -758.06538      334.46276     -1279.7119      1920.3708      0.9969611
   1718000  -629.08712      127.66218     -756.7493       337.22847     -638.58226      1920.3708      0.9969611
   1719000  -649.48503      114.28094     -763.76596      301.88099     -1656.1932      1920.3708      0.9969611
   1720000  -641.90881      108.01319     -749.92199      285.3243      -1077.3631      1920.3708      0.9969611
   1721000  -618.74611      121.77883     -740.52494      321.6872      -1516.4029      1920.3708      0.9969611
   1722000  -658.41693      106.19108     -764.60801      280.51108      1870.6286      1920.3708      0.9969611
   1723000  -649.46591      109.55306     -759.01897      289.39197      3828.2176      1920.3708      0.9969611
   1724000  -623.45791      126.64013     -750.09804      334.52865      299.31192      1920.3708      0.9969611
   1725000  -644.12302      101.63532     -745.75833      268.47671     -854.65119      1920.3708      0.9969611
   1726000  -618.41622      120.51534     -738.93156      318.3496      -145.61575      1920.3708      0.9969611
   1727000  -633.58527      111.02961     -744.61488      293.29239      2562.5716      1920.3708      0.9969611
   1728000  -660.38254      120.14251     -780.52505      317.36474     -2090.5676      1920.3708      0.9969611
   1729000  -641.99477      126.28386     -768.27862      333.58754     -494.80463      1920.3708      0.9969611
   1730000  -620.2864       109.56852     -729.85492      289.43282     -1358.7305      1920.3708      0.9969611
   1731000  -612.65498      126.3152      -738.97017      333.67032     -350.53735      1920.3708      0.9969611
   1732000  -666.94174      99.178961     -766.1207       261.98808      209.89717      1920.3708      0.9969611
   1733000  -634.01564      113.21833     -747.23398      299.07405     -2905.9172      1920.3708      0.9969611
   1734000  -632.10268      108.67253     -740.77521      287.066       -2422.8893      1920.3708      0.9969611
   1735000  -656.55091      123.58453     -780.13544      326.45707     -1496.0081      1920.3708      0.9969611
   1736000  -644.85805      112.9323      -757.79036      298.31849     -2954.0904      1920.3708      0.9969611
   1737000  -674.5321       107.31255     -781.84464      283.47351      1201.9965      1920.3708      0.9969611
   1738000  -644.3107       113.85876     -758.16946      300.76577     -2502.389       1920.3708      0.9969611
   1739000  -663.35291      100.05835     -763.41127      264.31105      392.69358      1920.3708      0.9969611
   1740000  -645.61858      112.98593     -758.60451      298.46015     -703.74815      1920.3708      0.9969611
   1741000  -651.6266       109.35088     -760.97748      288.8579      -1679.9855      1920.3708      0.9969611
   1742000  -627.39956      125.21235     -752.61191      330.75707      180.39654      1920.3708      0.9969611
   1743000  -645.77052      116.84198     -762.61249      308.64616      446.57906      1920.3708      0.9969611
   1744000  -644.94751      112.09889     -757.04639      296.11696     -2112.9591      1920.3708      0.9969611
   1745000  -634.37202      112.36393     -746.73596      296.8171      -722.71257      1920.3708      0.9969611
   1746000  -653.97118      106.2044      -760.17558      280.54626     -439.20596      1920.3708      0.9969611
   1747000  -630.93168      114.24856     -745.18025      301.79548      3104.7433      1920.3708      0.9969611
   1748000  -644.59316      98.593822     -743.18698      260.44239     -1552.2684      1920.3708      0.9969611
   1749000  -657.30022      112.91367     -770.2139       298.26927     -1264.6696      1920.3708      0.9969611
   1750000  -653.62251      113.46194     -767.08446      299.71757      790.42584      1920.3708      0.9969611
   1751000  -652.3416       115.21254     -767.55414      304.34188      467.33801      1920.3708      0.9969611
   1752000  -637.33446      114.2766      -751.61106      301.86954     -748.17776      1920.3708      0.9969611
   1753000  -639.6141       104.91558     -744.52967      277.14175     -1183.1409      1920.3708      0.9969611
   1754000  -632.83307      115.69509     -748.52816      305.61657     -49.997139      1920.3708      0.9969611
   1755000  -648.86462      108.97211     -757.83674      287.85736      1905.1307      1920.3708      0.9969611
   1756000  -675.90407      107.95622     -783.86029      285.17382      738.62229      1920.3708      0.9969611
   1757000  -641.61707      116.26835     -757.88543      307.13089     -2893.9145      1920.3708      0.9969611
   1758000  -668.38301      107.85281     -776.23581      284.90064      835.76216      1920.3708      0.9969611
   1759000  -637.79337      122.30071     -760.09408      323.06578     -1690.5821      1920.3708      0.9969611
   1760000  -649.05099      106.29825     -755.34924      280.79418     -1105.083       1920.3708      0.9969611
   1761000  -617.69504      118.93126     -736.6263       314.16515     -954.21207      1920.3708      0.9969611
   1762000  -631.2943       118.83286     -750.12716      313.90522     -1430.6721      1920.3708      0.9969611
   1763000  -619.70264      115.97581     -735.67845      306.35812      1787.4813      1920.3708      0.9969611
   1764000  -626.60546      125.17857     -751.78403      330.66785      2653.4256      1920.3708      0.9969611
   1765000  -643.7942       114.68041     -758.47461      302.93622     -1912.6661      1920.3708      0.9969611
   1766000  -630.35977      120.98958     -751.34935      319.60234     -1364.2598      1920.3708      0.9969611
   1767000  -638.27366      119.60734     -757.881        315.95106     -697.46376      1920.3708      0.9969611
   1768000  -652.31417      113.16035     -765.47452      298.92088     -493.11497      1920.3708      0.9969611
   1769000  -632.16425      109.27922     -741.44347      288.66861      1491.2131      1920.3708      0.9969611
   1770000  -625.67744      115.86221     -741.53965      306.05803     -129.23249      1920.3708      0.9969611
   1771000  -646.92889      115.71607     -762.64496      305.672       -2249.6037      1920.3708      0.9969611
   1772000  -662.36033      100.50802     -762.86835      265.49889     -1577.0874      1920.3708      0.9969611
   1773000  -652.66465      116.28437     -768.94902      307.1732      -563.18283      1920.3708      0.9969611
   1774000  -636.50331      119.87744     -756.38075      316.66453     -1603.3196      1920.3708      0.9969611
   1775000  -626.70684      110.05173     -736.75858      290.70925      1226.3615      1920.3708      0.9969611
   1776000  -644.62298      117.81352     -762.4365       311.21257     -482.67983      1920.3708      0.9969611
   1777000  -632.6618       110.8288      -743.4906       292.76194     -213.09007      1920.3708      0.9969611
   1778000  -652.20549      104.84112     -757.04661      276.94506      660.36027      1920.3708      0.9969611
   1779000  -644.8953       113.42205     -758.31734      299.61217     -1564.8887      1920.3708      0.9969611
   1780000  -622.73577      120.71527     -743.45104      318.87774      487.42532      1920.3708      0.9969611
   1781000  -643.17755      119.51238     -762.68993      315.70021     -3661.0201      1920.3708      0.9969611
   1782000  -636.87981      119.6821      -756.5619       316.14853      622.81314      1920.3708      0.9969611
   1783000  -644.34225      113.35219     -757.69444      299.42764      102.6078       1920.3708      0.9969611
   1784000  -670.31447      106.01309     -776.32756      280.0409      -827.90367      1920.3708      0.9969611
   1785000  -626.0877       110.67511     -736.76281      292.35594     -2100.4563      1920.3708      0.9969611
   1786000  -639.71699      108.57505     -748.29204      286.80849      1270.1527      1920.3708      0.9969611
   1787000  -618.94073      115.31487     -734.2556       304.61221      555.69453      1920.3708      0.9969611
   1788000  -645.21696      110.27826     -755.49523      291.30766      1714.6569      1920.3708      0.9969611
   1789000  -639.21845      116.97595     -756.1944       309.00005     -191.63724      1920.3708      0.9969611
   1790000  -657.70674      111.35775     -769.06449      294.15919     -719.39134      1920.3708      0.9969611
   1791000  -628.32845      117.12418     -745.45263      309.39162      907.31228      1920.3708      0.9969611
   1792000  -667.00155      111.22291     -778.22446      293.803       -844.00887      1920.3708      0.9969611
   1793000  -655.20833      106.25558     -761.46391      280.68146     -2262.2315      1920.3708      0.9969611
   1794000  -672.18736      103.80663     -775.99399      274.21239      20.633624      1920.3708      0.9969611
   1795000  -647.79369      123.17124     -770.96493      325.36534      742.91184      1920.3708      0.9969611
   1796000  -670.79716      106.69241     -777.48956      281.83537     -1562.3117      1920.3708      0.9969611
   1797000  -656.33163      108.58574     -764.91737      286.83672     -1523.5746      1920.3708      0.9969611
   1798000  -643.90224      115.67298     -759.57522      305.55817      630.47179      1920.3708      0.9969611
   1799000  -661.92985      104.37236     -766.30221      275.70679     -673.30372      1920.3708      0.9969611
   1800000  -658.11437      110.80542     -768.91979      292.70017     -706.89045      1920.3708      0.9969611
   1801000  -636.26272      113.69494     -749.95766      300.33304      2877.9422      1920.3708      0.9969611
   1802000  -651.01852      113.75166     -764.77018      300.48287      1307.7525      1920.3708      0.9969611
   1803000  -637.74852      104.55923     -742.30775      276.20044     -576.12242      1920.3708      0.9969611
   1804000  -655.10121      107.84606     -762.94727      284.88283      1151.8683      1920.3708      0.9969611
   1805000  -664.03423      103.0118      -767.04603      272.1128       2352.1135      1920.3708      0.9969611
   1806000  -658.42631      107.54125     -765.96756      284.07765     -1564.705       1920.3708      0.9969611
   1807000  -628.90018      108.54955     -737.44973      286.74114     -8.1672194      1920.3708      0.9969611
   1808000  -630.0596       113.52674     -743.58634      299.88873      2719.239       1920.3708      0.9969611
   1809000  -678.8596       98.50454      -777.36414      260.20655     -557.15401      1920.3708      0.9969611
   1810000  -644.89016      105.21673     -750.10689      277.93726     -1042.0194      1920.3708      0.9969611
   1811000  -627.66091      121.38732     -749.04823      320.65299      413.37365      1920.3708      0.9969611
   1812000  -662.12597      102.04041     -764.16639      269.54681      1594.0649      1920.3708      0.9969611
   1813000  -681.21794      95.024392     -776.24234      251.0135       435.05971      1920.3708      0.9969611
   1814000  -663.73937      113.82535     -777.56472      300.67753     -1833.2927      1920.3708      0.9969611
   1815000  -633.54997      113.62702     -747.17699      300.15364      442.54045      1920.3708      0.9969611
   1816000  -639.80076      112.31315     -752.11391      296.68294     -928.80659      1920.3708      0.9969611
   1817000  -632.68003      130.30866     -762.98869      344.21933      601.13527      1920.3708      0.9969611
   1818000  -638.80212      114.54247     -753.34459      302.57184      2226.0667      1920.3708      0.9969611
   1819000  -630.90513      119.24381     -750.14894      314.99078      88.044755      1920.3708      0.9969611
   1820000  -654.78073      113.4512      -768.23193      299.68919     -894.02784      1920.3708      0.9969611
   1821000  -628.38301      113.66752     -742.05053      300.26062      221.65707      1920.3708      0.9969611
   1822000  -651.92817      106.65107     -758.57924      281.72618      430.87947      1920.3708      0.9969611
   1823000  -649.9615       119.4014      -769.36289      315.40704     -96.159244      1920.3708      0.9969611
   1824000  -622.61755      100.64624     -723.26379      265.864        1094.2525      1920.3708      0.9969611
   1825000  -624.83064      127.44842     -752.27905      336.6638       483.06273      1920.3708      0.9969611
   1826000  -631.57426      123.07231     -754.64657      325.10401      1274.515       1920.3708      0.9969611
   1827000  -615.83303      112.00181     -727.83485      295.86053     -111.89337      1920.3708      0.9969611
   1828000  -646.7161       111.36324     -758.07934      294.17371     -1265.2541      1920.3708      0.9969611
   1829000  -638.44031      119.41899     -757.85931      315.45352      1963.6065      1920.3708      0.9969611
   1830000  -657.44641      116.22123     -773.66764      307.00642     -1184.0304      1920.3708      0.9969611
   1831000  -633.71549      124.29067     -758.00615      328.32238      1731.1084      1920.3708      0.9969611
   1832000  -664.4122       95.405708     -759.8179       252.02077      78.332678      1920.3708      0.9969611
   1833000  -683.67782      105.05567     -788.73349      277.51181     -184.29637      1920.3708      0.9969611
   1834000  -647.81353      109.12077     -756.9343       288.25007      2254.7775      1920.3708      0.9969611
   1835000  -658.92561      106.99044     -765.91606      282.62265     -1455.2087      1920.3708      0.9969611
   1836000  -646.68055      114.31475     -760.9953       301.97032      1272.1112      1920.3708      0.9969611
   1837000  -637.46544      112.21741     -749.68286      296.43005      1205.8926      1920.3708      0.9969611
   1838000  -631.06105      109.93356     -740.99461      290.39709     -3045.8991      1920.3708      0.9969611
   1839000  -657.11014      118.80429     -775.91443      313.82975      357.82163      1920.3708      0.9969611
   1840000  -657.98644      108.92695     -766.91339      287.73805      1865.592       1920.3708      0.9969611
   1841000  -667.28957      115.01063     -782.3002       303.80852     -3276.1258      1920.3708      0.9969611
   1842000  -640.47293      120.04873     -760.52166      317.11702     -340.64008      1920.3708      0.9969611
   1843000  -634.29598      117.31255     -751.60853      309.88921      421.80582      1920.3708      0.9969611
   1844000  -654.34262      112.14795     -766.49057      296.24656      1521.4687      1920.3708      0.9969611
   1845000  -671.18974      104.86832     -776.05806      277.01691      471.36935      1920.3708      0.9969611
   1846000  -667.93693      106.0974      -774.03433      280.26362     -1526.7079      1920.3708      0.9969611
   1847000  -630.72992      119.85014     -750.58006      316.59242     -2552.1682      1920.3708      0.9969611
   1848000  -625.82378      110.19293     -736.01672      291.08225      1209.5072      1920.3708      0.9969611
   1849000  -649.67895      124.39032     -774.06927      328.58562      81.461961      1920.3708      0.9969611
   1850000  -642.52759      117.75523     -760.28282      311.05857      267.39965      1920.3708      0.9969611
   1851000  -655.48663      110.01482     -765.50145      290.61175     -4066.2922      1920.3708      0.9969611
   1852000  -613.95515      118.22025     -732.17539      312.28695      2959.8682      1920.3708      0.9969611
   1853000  -667.07986      100.04796     -767.12782      264.2836      -1215.6331      1920.3708      0.9969611
   1854000  -639.54781      105.09387     -744.64168      277.61272      1664.9295      1920.3708      0.9969611
   1855000  -621.558        103.27495     -724.83295      272.80792      1728.5584      1920.3708      0.9969611
   1856000  -636.69943      114.30709     -751.00652      301.95008      2605.6745      1920.3708      0.9969611
   1857000  -679.45089      102.72217     -782.17306      271.34771     -637.8775       1920.3708      0.9969611
   1858000  -643.75087      112.82711     -756.57798      298.04062      2842.8047      1920.3708      0.9969611
   1859000  -677.22519      113.0594      -790.28459      298.65422     -14.815611      1920.3708      0.9969611
   1860000  -654.13417      109.80298     -763.93715      290.05216     -2703.2082      1920.3708      0.9969611
   1861000  -631.62678      104.78038     -736.40716      276.78462     -2119.0409      1920.3708      0.9969611
   1862000  -641.77162      120.2702      -762.04183      317.70205      493.10174      1920.3708      0.9969611
   1863000  -639.70732      109.79285     -749.50017      290.02539     -849.89975      1920.3708      0.9969611
   1864000  -657.94001      118.4737      -776.41371      312.95645     -694.19765      1920.3708      0.9969611
   1865000  -680.47537      108.64685     -789.12223      286.99817     -3143.7113      1920.3708      0.9969611
   1866000  -675.87623      100.23898     -776.11521      264.78819      2188.3695      1920.3708      0.9969611
   1867000  -660.93544      106.09958     -767.03502      280.26937     -1729.6726      1920.3708      0.9969611
   1868000  -638.38454      117.7415      -756.12604      311.02231      1930.1437      1920.3708      0.9969611
   1869000  -646.50463      119.31248     -765.81712      315.17217     -1169.9759      1920.3708      0.9969611
   1870000  -653.6281       112.27928     -765.90738      296.59349     -3349.6704      1920.3708      0.9969611
   1871000  -648.33998      107.88563     -756.22561      284.98736     -2582.8751      1920.3708      0.9969611
   1872000  -663.41659      104.49087     -767.90746      276.01986     -1338.6503      1920.3708      0.9969611
   1873000  -641.23116      115.47619     -756.70735      305.03834      2497.6187      1920.3708      0.9969611
   1874000  -664.32315      114.18823     -778.51138      301.6361       1121.662       1920.3708      0.9969611
   1875000  -668.72194      104.23212     -772.95406      275.33635     -1120.4451      1920.3708      0.9969611
   1876000  -663.3024       105.65656     -768.95895      279.0991       1165.3942      1920.3708      0.9969611
   1877000  -644.83379      119.9639      -764.79769      316.89292     -1948.6245      1920.3708      0.9969611
   1878000  -644.96635      103.67901     -748.64535      273.87526     -351.89536      1920.3708      0.9969611
   1879000  -666.84287      108.98375     -775.82662      287.88812      803.13911      1920.3708      0.9969611
   1880000  -651.39408      114.28767     -765.68175      301.89879      2090.612       1920.3708      0.9969611
   1881000  -629.99596      131.24139     -761.23735      346.6832       107.52645      1920.3708      0.9969611
   1882000  -677.35654      102.18058     -779.53712      269.91708      2210.7121      1920.3708      0.9969611
   1883000  -676.88826      103.93501     -780.82327      274.55151     -1306.0826      1920.3708      0.9969611
   1884000  -667.43516      106.15906     -773.59422      280.42648      2267.6307      1920.3708      0.9969611
   1885000  -677.88091      107.21138     -785.09229      283.20626      206.85508      1920.3708      0.9969611
   1886000  -673.0471       113.86347     -786.91057      300.77822      380.50593      1920.3708      0.9969611
   1887000  -675.62253      110.17746     -785.79999      291.04138      202.93214      1920.3708      0.9969611
   1888000  -639.90134      127.01865     -766.91999      335.52855      709.23654      1920.3708      0.9969611
   1889000  -662.32344      114.92601     -777.24945      303.58499     -2044.288       1920.3708      0.9969611
   1890000  -655.8371       110.71887     -766.55597      292.47154     -229.28448      1920.3708      0.9969611
   1891000  -656.04141      110.59455     -766.63596      292.14314      1471.7713      1920.3708      0.9969611
   1892000  -637.91178      116.91512     -754.8269       308.83936      1993.0385      1920.3708      0.9969611
   1893000  -665.08163      107.60194     -772.68357      284.23795     -2860.9915      1920.3708      0.9969611
   1894000  -659.44401      106.84472     -766.28874      282.23772     -2031.3695      1920.3708      0.9969611
   1895000  -636.99733      117.00253     -753.99986      309.07026      1708.1533      1920.3708      0.9969611
   1896000  -657.07232      104.72559     -761.79791      276.63987     -1261.391       1920.3708      0.9969611
   1897000  -664.60135      105.95979     -770.56113      279.9001      -649.4636       1920.3708      0.9969611
   1898000  -649.51347      107.73022     -757.24369      284.57681      1016.1545      1920.3708      0.9969611
   1899000  -644.33109      113.76356     -758.09465      300.51431      1652.4694      1920.3708      0.9969611
   1900000  -666.98217      121.0039      -787.98608      319.64018      310.43671      1920.3708      0.9969611
   1901000  -634.03926      109.66857     -743.70783      289.6971       1147.9203      1920.3708      0.9969611
   1902000  -653.24056      117.05014     -770.29069      309.19603      3259.7895      1920.3708      0.9969611
   1903000  -636.76471      123.24221     -760.00691      325.5528      -2280.1483      1920.3708      0.9969611
   1904000  -628.24058      114.28952     -742.5301       301.90368      43.950228      1920.3708      0.9969611
   1905000  -642.54367      118.30844     -760.85211      312.51993      279.44401      1920.3708      0.9969611
   1906000  -633.59997      129.42128     -763.02125      341.87526      193.51665      1920.3708      0.9969611
   1907000  -657.02267      107.2581      -764.28077      283.32969     -1629.0498      1920.3708      0.9969611
   1908000  -653.05667      119.01417     -772.07083      314.38414      2389.294       1920.3708      0.9969611
   1909000  -675.67872      100.18002     -775.85873      264.63244      1436.8212      1920.3708      0.9969611
   1910000  -610.32399      123.54447     -733.86845      326.35125     -2122.9445      1920.3708      0.9969611
   1911000  -637.97042      118.97589     -756.94631      314.28303     -882.80786      1920.3708      0.9969611
   1912000  -631.27942      121.20817     -752.48759      320.17976      2936.6244      1920.3708      0.9969611
   1913000  -657.08355      106.29752     -763.38106      280.79224     -2167.6157      1920.3708      0.9969611
   1914000  -640.42979      105.19443     -745.62422      277.87835      661.52921      1920.3708      0.9969611
   1915000  -638.60162      111.54628     -750.14791      294.65722     -1141.1289      1920.3708      0.9969611
   1916000  -638.99258      114.3509      -753.34348      302.06579      65.582825      1920.3708      0.9969611
   1917000  -669.33558      92.358047     -761.69362      243.97016     -3987.167       1920.3708      0.9969611
   1918000  -636.24331      114.0156      -750.25891      301.18009      2016.9647      1920.3708      0.9969611
   1919000  -678.28763      112.9836      -791.27124      298.454       -653.56319      1920.3708      0.9969611
   1920000  -653.8868       121.89804     -775.78483      322.00209     -1062.8301      1920.3708      0.9969611
   1921000  -667.77152      107.90933     -775.68085      285.04996      989.4005       1920.3708      0.9969611
   1922000  -649.68136      102.36447     -752.04583      270.40282      1069.9771      1920.3708      0.9969611
   1923000  -646.99857      127.16861     -774.16718      335.92466     -1915.8986      1920.3708      0.9969611
   1924000  -648.6048       116.94195     -765.54675      308.91024      865.70739      1920.3708      0.9969611
   1925000  -651.92315      105.49979     -757.42294      278.68498      221.81277      1920.3708      0.9969611
   1926000  -660.56933      115.43098     -776.00031      304.91891     -372.59823      1920.3708      0.9969611
   1927000  -659.80263      119.5942      -779.39683      315.91634     -1407.6467      1920.3708      0.9969611
   1928000  -625.28451      119.59541     -744.87992      315.91954      444.65831      1920.3708      0.9969611
   1929000  -644.56535      107.12821     -751.69355      282.98656     -2526.6455      1920.3708      0.9969611
   1930000  -665.47531      98.320388     -763.7957       259.7201      -834.47827      1920.3708      0.9969611
   1931000  -629.68926      122.33989     -752.02915      323.16928      614.49062      1920.3708      0.9969611
   1932000  -614.39497      120.36329     -734.75826      317.94794      71.507954      1920.3708      0.9969611
   1933000  -635.77572      118.50612     -754.28183      313.0421       1516.5883      1920.3708      0.9969611
   1934000  -658.43872      97.175215     -755.61394      256.69505      29.354856      1920.3708      0.9969611
   1935000  -634.51937      128.67801     -763.19739      339.91187      614.70193      1920.3708      0.9969611
   1936000  -643.95268      120.18438     -764.13706      317.47536      1376.494       1920.3708      0.9969611
   1937000  -651.50255      115.67011     -767.17266      305.55058      2312.4051      1920.3708      0.9969611
   1938000  -642.60394      116.69704     -759.30098      308.26329     -2200.6137      1920.3708      0.9969611
   1939000  -650.4205       107.73701     -758.15751      284.59476     -2626.4703      1920.3708      0.9969611
   1940000  -637.369        111.41579     -748.78479      294.3125       425.79633      1920.3708      0.9969611
   1941000  -660.82539      109.40079     -770.22618      288.98975     -3428.0631      1920.3708      0.9969611
   1942000  -660.9521       110.05078     -771.00288      290.70673     -3278.9683      1920.3708      0.9969611
   1943000  -648.97291      107.54576     -756.51866      284.08955      1854.7241      1920.3708      0.9969611
   1944000  -663.42122      98.763928     -762.18515      260.89174      503.62237      1920.3708      0.9969611
   1945000  -615.39662      123.58643     -738.98305      326.46211      140.13433      1920.3708      0.9969611
   1946000  -638.37222      115.26032     -753.63254      304.46811      2141.9039      1920.3708      0.9969611
   1947000  -626.41635      116.07329     -742.48964      306.61561      547.64693      1920.3708      0.9969611
   1948000  -633.50892      127.57991     -761.08883      337.01115     -1614.4209      1920.3708      0.9969611
   1949000  -619.80694      127.23411     -747.04105      336.0977       854.79216      1920.3708      0.9969611
   1950000  -638.90866      109.32594     -748.23459      288.79202     -495.1062       1920.3708      0.9969611
   1951000  -635.91054      122.26756     -758.1781       322.97821     -2237.9109      1920.3708      0.9969611
   1952000  -636.1149       120.56774     -756.68264      318.48802      545.93149      1920.3708      0.9969611
   1953000  -648.66374      105.12814     -753.79189      277.70326      1692.8139      1920.3708      0.9969611
   1954000  -682.31775      99.619291     -781.93704      263.15124     -2980.697       1920.3708      0.9969611
   1955000  -632.91106      115.14444     -748.05549      304.16199     -1797.2061      1920.3708      0.9969611
   1956000  -656.00509      120.50673     -776.51182      318.32685     -1620.2717      1920.3708      0.9969611
   1957000  -666.59064      109.45506     -776.0457       289.1331      -1357.9237      1920.3708      0.9969611
   1958000  -671.63191      106.9812      -778.61311      282.59824     -1426.698       1920.3708      0.9969611
   1959000  -650.69682      114.18276     -764.87959      301.62166     -593.56897      1920.3708      0.9969611
   1960000  -643.09007      107.02975     -750.11982      282.72649     -3118.4264      1920.3708      0.9969611
   1961000  -651.93079      112.15638     -764.08717      296.26883      317.48065      1920.3708      0.9969611
   1962000  -659.38146      103.5101      -762.89155      273.42907      229.7465       1920.3708      0.9969611
   1963000  -626.40463      114.84371     -741.24834      303.36759     -48.088623      1920.3708      0.9969611
   1964000  -660.48133      88.749858     -749.23119      234.43888      193.98691      1920.3708      0.9969611
   1965000  -650.75218      116.80317     -767.55536      308.54365     -994.14126      1920.3708      0.9969611
   1966000  -632.75653      114.57712     -747.33365      302.66337     -217.56315      1920.3708      0.9969611
   1967000  -658.79746      110.11675     -768.9142       290.88099      955.04082      1920.3708      0.9969611
   1968000  -621.9693       115.37971     -737.34901      304.78348      1059.3391      1920.3708      0.9969611
   1969000  -647.66475      117.36066     -765.02542      310.0163      -548.32423      1920.3708      0.9969611
   1970000  -645.29491      115.68871     -760.98362      305.59971     -355.76465      1920.3708      0.9969611
   1971000  -659.17396      103.00241     -762.17637      272.08799     -448.6592       1920.3708      0.9969611
   1972000  -671.08851      118.75166     -789.84018      313.69073      106.00534      1920.3708      0.9969611
   1973000  -642.05567      118.48626     -760.54192      312.98963     -2389.7845      1920.3708      0.9969611
   1974000  -629.02301      110.65225     -739.67526      292.29556     -1109.6071      1920.3708      0.9969611
   1975000  -650.16245      119.3612      -769.52365      315.30085     -1147.2094      1920.3708      0.9969611
   1976000  -652.77225      108.63261     -761.40487      286.96055     -643.82559      1920.3708      0.9969611
   1977000  -624.5876       123.19004     -747.77764      325.415        1203.3395      1920.3708      0.9969611
   1978000  -618.57547      128.24535     -746.82082      338.76895      863.93471      1920.3708      0.9969611
   1979000  -640.63036      109.75877     -750.38913      289.93539     -1081.1859      1920.3708      0.9969611
   1980000  -662.10503      100.93476     -763.03978      266.62613     -2724.3746      1920.3708      0.9969611
   1981000  -630.81993      109.66208     -740.48201      289.67996      106.00842      1920.3708      0.9969611
   1982000  -660.07733      114.43708     -774.51442      302.29347      31.324519      1920.3708      0.9969611
   1983000  -644.11923      116.20177     -760.32099      306.955        390.4882       1920.3708      0.9969611
   1984000  -630.36726      112.70398     -743.07124      297.71534     -1519.6761      1920.3708      0.9969611
   1985000  -643.59333      116.68536     -760.27869      308.23245     -2227.2602      1920.3708      0.9969611
   1986000  -638.58624      115.19333     -753.77957      304.29115      174.38128      1920.3708      0.9969611
   1987000  -654.40347      120.0846      -774.48808      317.21178     -1306.5538      1920.3708      0.9969611
   1988000  -667.45883      110.92831     -778.38714      293.02479     -3690.8812      1920.3708      0.9969611
   1989000  -642.01297      114.24055     -756.25352      301.77432      1548.3723      1920.3708      0.9969611
   1990000  -648.50375      115.01091     -763.51466      303.80927      942.02916      1920.3708      0.9969611
   1991000  -643.94362      116.10733     -760.05095      306.70555     -1023.915       1920.3708      0.9969611
   1992000  -644.83409      112.3228      -757.1569       296.70845      2484.483       1920.3708      0.9969611
   1993000  -660.58415      113.46343     -774.04757      299.72148     -3014.5884      1920.3708      0.9969611
   1994000  -651.20135      109.59664     -760.79799      289.50709     -1303.1579      1920.3708      0.9969611
   1995000  -640.01923      111.38409     -751.40332      294.22878     -1571.4308      1920.3708      0.9969611
   1996000  -651.936        111.48046     -763.41646      294.48334      241.82696      1920.3708      0.9969611
   1997000  -654.8586       115.67929     -770.53789      305.57484      432.70347      1920.3708      0.9969611
   1998000  -627.94118      109.65254     -737.59372      289.65477     -3166.3348      1920.3708      0.9969611
   1999000  -618.83288      118.34367     -737.17655      312.61299     -3202.1459      1920.3708      0.9969611
   2000000  -642.39768      116.84563     -759.24332      308.65581     -615.73597      1920.3708      0.9969611
   2001000  -644.99876      113.72248     -758.72124      300.4058       1208.4742      1920.3708      0.9969611
   2002000  -637.66349      124.44745     -762.11094      328.73654      2083.232       1920.3708      0.9969611
   2003000  -656.65548      113.09375     -769.74923      298.74496     -813.33171      1920.3708      0.9969611
   2004000  -656.65302      112.04035     -768.69337      295.96233     -365.01379      1920.3708      0.9969611
   2005000  -673.36127      103.51988     -776.88115      273.45491     -1501.8066      1920.3708      0.9969611
   2006000  -657.78549      102.42803     -760.21352      270.57072     -236.91501      1920.3708      0.9969611
   2007000  -622.26782      122.40542     -744.67325      323.34238     -1984.4377      1920.3708      0.9969611
   2008000  -648.61477      117.62809     -766.24285      310.72272     -1444.0815      1920.3708      0.9969611
   2009000  -640.63788      102.76144     -743.39932      271.45144     -1322.861       1920.3708      0.9969611
   2010000  -626.16227      118.5914      -744.75367      313.26737      1022.0733      1920.3708      0.9969611
   2011000  -663.14652      110.1966      -773.34312      291.09193      1287.4604      1920.3708      0.9969611
   2012000  -657.12986      118.27178     -775.40164      312.42308      2078.9837      1920.3708      0.9969611
   2013000  -655.50162      106.59455     -762.09617      281.57688      1461.6675      1920.3708      0.9969611
   2014000  -671.61211      107.33703     -778.94914      283.53818      238.29907      1920.3708      0.9969611
   2015000  -659.26093      107.84782     -767.10875      284.88748      3287.7747      1920.3708      0.9969611
   2016000  -665.92873      108.9519      -774.88063      287.80398     -359.18921      1920.3708      0.9969611
   2017000  -609.2274       139.83208     -749.05948      369.37611     -116.60425      1920.3708      0.9969611
   2018000  -632.9818       116.33231     -749.31411      307.29984     -153.80745      1920.3708      0.9969611
   2019000  -653.9235       104.96471     -758.88821      277.27154     -1078.4799      1920.3708      0.9969611
   2020000  -670.43704      105.3968      -775.83383      278.41292     -569.58695      1920.3708      0.9969611
   2021000  -645.80074      110.31248     -756.11322      291.39804     -526.18389      1920.3708      0.9969611
   2022000  -626.204        135.28547     -761.48947      357.36592     -244.92572      1920.3708      0.9969611
   2023000  -641.2957       113.57859     -754.87429      300.0257       3036.3439      1920.3708      0.9969611
   2024000  -643.57694      114.75242     -758.32936      303.12644     -2073.6274      1920.3708      0.9969611
   2025000  -647.27474      114.69417     -761.96891      302.97258      1764.846       1920.3708      0.9969611
   2026000  -663.07777      100.58548     -763.66324      265.70349      2838.6957      1920.3708      0.9969611
   2027000  -645.9054       120.80361     -766.70902      319.11109     -914.55597      1920.3708      0.9969611
   2028000  -618.14035      136.31595     -754.4563       360.08801      1321.5248      1920.3708      0.9969611
   2029000  -644.0369       110.62676     -754.66366      292.22823      429.30433      1920.3708      0.9969611
   2030000  -647.40218      106.70796     -754.11014      281.87646     -1929.5706      1920.3708      0.9969611
   2031000  -644.91388      122.36947     -767.28335      323.24741     -1183.6713      1920.3708      0.9969611
   2032000  -663.19783      113.98671     -777.18454      301.10378      127.8729       1920.3708      0.9969611
   2033000  -641.90488      117.7567      -759.66158      311.06245     -1314.353       1920.3708      0.9969611
   2034000  -668.03692      101.58032     -769.61724      268.33142     -1203.4418      1920.3708      0.9969611
   2035000  -629.14082      119.86117     -749.00199      316.62156      536.47025      1920.3708      0.9969611
   2036000  -640.49006      113.53122     -754.02128      299.90055     -1713.6175      1920.3708      0.9969611
   2037000  -634.22307      114.48052     -748.70359      302.40819      746.07417      1920.3708      0.9969611
   2038000  -647.47365      103.2941      -750.76775      272.8585      -182.06811      1920.3708      0.9969611
   2039000  -656.5901       114.50425     -771.09435      302.4709      -748.43381      1920.3708      0.9969611
   2040000  -667.37935      107.67754     -775.05688      284.43765     -3740.2488      1920.3708      0.9969611
   2041000  -681.49229      103.21755     -784.70984      272.65629      1397.8552      1920.3708      0.9969611
   2042000  -636.55647      130.73845     -767.29493      345.35466      1216.6566      1920.3708      0.9969611
   2043000  -649.08164      126.61649     -775.69813      334.46622      362.21458      1920.3708      0.9969611
   2044000  -619.23985      125.65234     -744.8922       331.91935      1160.2177      1920.3708      0.9969611
   2045000  -653.36761      95.953738     -749.32134      253.46843     -1080.6249      1920.3708      0.9969611
   2046000  -638.20695      112.58109     -750.78804      297.39074      4459.8512      1920.3708      0.9969611
   2047000  -654.72618      103.61727     -758.34345      273.71217     -168.21295      1920.3708      0.9969611
   2048000  -644.21867      109.23147     -753.45014      288.54248     -3330.4255      1920.3708      0.9969611
   2049000  -643.19575      105.2322      -748.42795      277.97812      1922.6416      1920.3708      0.9969611
   2050000  -658.66498      105.18982     -763.8548       277.86619     -545.77517      1920.3708      0.9969611
   2051000  -637.00095      116.44243     -753.44339      307.59073     -2405.7479      1920.3708      0.9969611
   2052000  -678.09366      92.507194     -770.60086      244.36415     -3173.1254      1920.3708      0.9969611
   2053000  -636.1809       109.12329     -745.30418      288.2567      -1624.9895      1920.3708      0.9969611
   2054000  -643.42474      122.52993     -765.95467      323.67129      1249.1542      1920.3708      0.9969611
   2055000  -627.43343      121.07407     -748.5075       319.82553      1138.9276      1920.3708      0.9969611
   2056000  -674.65609      108.85692     -783.51301      287.55307     -1833.2375      1920.3708      0.9969611
   2057000  -633.14493      119.88687     -753.0318       316.68945     -666.25009      1920.3708      0.9969611
   2058000  -620.67673      108.75493     -729.43167      287.28367      2648.873       1920.3708      0.9969611
   2059000  -629.29159      115.0853      -744.37689      304.00578     -2470.6693      1920.3708      0.9969611
   2060000  -645.70272      115.39625     -761.09897      304.82717      1835.8717      1920.3708      0.9969611
   2061000  -652.29935      100.23572     -752.53507      264.77958     -1780.49        1920.3708      0.9969611
   2062000  -643.3387       109.55146     -752.89015      289.38775     -1603.193       1920.3708      0.9969611
   2063000  -660.67682      117.22704     -777.90386      309.66333      2744.8826      1920.3708      0.9969611
   2064000  -667.29101      115.18655     -782.47756      304.27324      384.08545      1920.3708      0.9969611
   2065000  -661.70593      117.17227     -778.87819      309.51864     -41.770069      1920.3708      0.9969611
   2066000  -650.46309      104.49078     -754.95387      276.01962      6091.8582      1920.3708      0.9969611
   2067000  -659.60995      112.83426     -772.44422      298.05951     -250.92162      1920.3708      0.9969611
   2068000  -647.74525      113.77479     -761.52004      300.54398     -202.991        1920.3708      0.9969611
   2069000  -687.78721      91.664272     -779.45148      242.13751     -1485.5108      1920.3708      0.9969611
   2070000  -622.24922      117.5418      -739.79102      310.49479      1555.9114      1920.3708      0.9969611
   2071000  -631.31461      117.1441      -748.45871      309.44423     -402.18813      1920.3708      0.9969611
   2072000  -648.56147      121.63074     -770.1922       321.296        970.21482      1920.3708      0.9969611
   2073000  -648.44699      124.34435     -772.79134      328.46419      270.81091      1920.3708      0.9969611
   2074000  -665.76567      105.85762     -771.62329      279.63022      606.72346      1920.3708      0.9969611
   2075000  -651.04563      112.08923     -763.13487      296.09146     -1198.7932      1920.3708      0.9969611
   2076000  -627.76341      107.1406      -734.90401      283.01929     -666.5197       1920.3708      0.9969611
   2077000  -610.30101      119.93236     -730.23337      316.80961     -404.13978      1920.3708      0.9969611
   2078000  -658.47873      108.89908     -767.37782      287.66445     -4151.7458      1920.3708      0.9969611
   2079000  -634.32529      116.3506      -750.67589      307.34815     -3830.7668      1920.3708      0.9969611
   2080000  -592.22318      126.68711     -718.91029      334.65275     -2033.1538      1920.3708      0.9969611
   2081000  -643.97264      118.56196     -762.5346       313.18961     -2664.0922      1920.3708      0.9969611
   2082000  -648.13404      112.10075     -760.23479      296.12187     -336.10659      1920.3708      0.9969611
   2083000  -679.48587      92.172659     -771.65853      243.48045     -1861.4733      1920.3708      0.9969611
   2084000  -670.5271       111.07724     -781.60434      293.41821     -778.32458      1920.3708      0.9969611
   2085000  -659.8976       102.09692     -761.99452      269.69606      597.05535      1920.3708      0.9969611
   2086000  -640.92682      117.01733     -757.94414      309.10935      2395.9559      1920.3708      0.9969611
   2087000  -658.99204      104.15392     -763.14596      275.12977     -2635.3699      1920.3708      0.9969611
   2088000  -654.23429      110.31025     -764.54455      291.39216     -950.83661      1920.3708      0.9969611
   2089000  -673.9443       116.18371     -790.12801      306.9073      -156.59895      1920.3708      0.9969611
   2090000  -641.36909      111.0166      -752.38569      293.25801     -717.43855      1920.3708      0.9969611
   2091000  -634.71416      116.39381     -751.10797      307.46228      4.5931482      1920.3708      0.9969611
   2092000  -647.80689      121.63595     -769.44284      321.30978     -668.9573       1920.3708      0.9969611
   2093000  -650.98175      109.0956      -760.07735      288.18357      1434.1178      1920.3708      0.9969611
   2094000  -627.38101      94.993463     -722.37447      250.9318      -655.06702      1920.3708      0.9969611
   2095000  -634.84441      124.96278     -759.8072       330.09783      1850.7719      1920.3708      0.9969611
   2096000  -646.73437      110.59183     -757.3262       292.13596     -1776.4246      1920.3708      0.9969611
   2097000  -628.60327      120.81233     -749.41561      319.13413      529.25537      1920.3708      0.9969611
   2098000  -637.25357      109.91731     -747.17088      290.35417     -3197.4857      1920.3708      0.9969611
   2099000  -642.24201      124.55085     -766.79287      329.00969     -439.37506      1920.3708      0.9969611
   2100000  -660.36626      110.73263     -771.0989       292.5079      -803.8839       1920.3708      0.9969611
   2101000  -623.4906       115.06762     -738.55822      303.95908      445.29245      1920.3708      0.9969611
   2102000  -652.45766      98.409277     -750.86694      259.95491     -2047.5947      1920.3708      0.9969611
   2103000  -663.65976      102.46446     -766.12422      270.66696      2052.9018      1920.3708      0.9969611
   2104000  -641.29701      104.24446     -745.54146      275.36894      295.37573      1920.3708      0.9969611
   2105000  -631.69374      125.03469     -756.72843      330.28778     -1036.6691      1920.3708      0.9969611
   2106000  -646.36138      116.65192     -763.0133       308.14411      1179.3925      1920.3708      0.9969611
   2107000  -650.16049      111.26445     -761.42494      293.91274      1733.9455      1920.3708      0.9969611
   2108000  -651.94963      107.83536     -759.78499      284.85456      1032.0364      1920.3708      0.9969611
   2109000  -643.90193      117.08451     -760.98643      309.28681      408.37435      1920.3708      0.9969611
   2110000  -650.67422      105.69704     -756.37126      279.20604      2420.2507      1920.3708      0.9969611
   2111000  -669.96697      108.38132     -778.34829      286.29675      1110.4983      1920.3708      0.9969611
   2112000  -642.17471      113.37932     -755.55403      299.49932     -2692.6909      1920.3708      0.9969611
   2113000  -635.58966      126.15113     -761.74079      333.23692     -1085.1296      1920.3708      0.9969611
   2114000  -647.77217      117.99641     -765.76858      311.69568     -1632.3564      1920.3708      0.9969611
   2115000  -655.52113      122.52605     -778.04718      323.66103      2022.0431      1920.3708      0.9969611
   2116000  -678.32637      110.36892     -788.69529      291.54713      1832.5379      1920.3708      0.9969611
   2117000  -652.44074      104.20989     -756.65063      275.27763     -1290.6023      1920.3708      0.9969611
   2118000  -680.38316      108.55093     -788.93409      286.74479     -2250.2007      1920.3708      0.9969611
   2119000  -661.38145      108.80307     -770.18452      287.41083     -588.06593      1920.3708      0.9969611
   2120000  -646.24028      114.30073     -760.54101      301.93329     -2395.2415      1920.3708      0.9969611
   2121000  -620.53066      120.65719     -741.18785      318.72431      563.17974      1920.3708      0.9969611
   2122000  -622.00017      120.61849     -742.61866      318.62208     -2731.9711      1920.3708      0.9969611
   2123000  -653.66152      118.22511     -771.88664      312.29981      1644.0667      1920.3708      0.9969611
   2124000  -651.24854      115.6308      -766.87934      305.44674      524.04056      1920.3708      0.9969611
   2125000  -629.50289      117.23689     -746.73978      309.68935      889.26529      1920.3708      0.9969611
   2126000  -641.27175      119.63795     -760.9097       316.03192     -502.05684      1920.3708      0.9969611
   2127000  -677.54407      97.426222     -774.97029      257.3581       1245.375       1920.3708      0.9969611
   2128000  -638.64086      116.16776     -754.80862      306.86516      803.12456      1920.3708      0.9969611
   2129000  -663.74577      120.52929     -784.27506      318.38646      2034.3251      1920.3708      0.9969611
   2130000  -644.50423      119.47554     -763.97977      315.6029      -1556.8222      1920.3708      0.9969611
   2131000  -640.29927      112.89532     -753.19459      298.22079      1116.0405      1920.3708      0.9969611
   2132000  -660.55059      107.86836     -768.41894      284.94172      1145.641       1920.3708      0.9969611
   2133000  -636.59976      113.67608     -750.27584      300.28322     -2204.6727      1920.3708      0.9969611
   2134000  -659.89938      105.90632     -765.8057       279.75886     -466.20412      1920.3708      0.9969611
   2135000  -648.90618      112.28532     -761.1915       296.60943     -284.21423      1920.3708      0.9969611
   2136000  -654.12185      107.75843     -761.88028      284.65134     -1705.6078      1920.3708      0.9969611
   2137000  -651.19482      110.42773     -761.62255      291.70248      1695.6581      1920.3708      0.9969611
   2138000  -636.03958      117.1038      -753.14338      309.33778      2174.5542      1920.3708      0.9969611
   2139000  -664.26643      112.52436     -776.79079      297.24087     -1001.2578      1920.3708      0.9969611
   2140000  -668.87402      116.61111     -785.48513      308.03631     -2515.7112      1920.3708      0.9969611
   2141000  -675.13923      98.684134     -773.82337      260.68096      2874.0255      1920.3708      0.9969611
   2142000  -660.59201      116.65286     -777.24487      308.14658     -431.23389      1920.3708      0.9969611
   2143000  -660.28052      103.79893     -764.07945      274.19204      934.80977      1920.3708      0.9969611
   2144000  -633.70822      110.59712     -744.30534      292.14994      254.90595      1920.3708      0.9969611
   2145000  -638.91296      107.96099     -746.87394      285.1864       186.83268      1920.3708      0.9969611
   2146000  -638.70104      112.95351     -751.65455      298.3745      -1896.0385      1920.3708      0.9969611
   2147000  -626.58087      109.11406     -735.69493      288.23233     -625.93864      1920.3708      0.9969611
   2148000  -649.65283      99.409949     -749.06278      262.59825      1543.1444      1920.3708      0.9969611
   2149000  -643.91524      115.53794     -759.45318      305.20146      62.571888      1920.3708      0.9969611
   2150000  -635.83842      114.32791     -750.16633      302.00507      1626.7843      1920.3708      0.9969611
   2151000  -654.44742      117.10985     -771.55727      309.35375     -752.11782      1920.3708      0.9969611
   2152000  -645.93587      111.26358     -757.19945      293.91042     -2383.8078      1920.3708      0.9969611
   2153000  -667.44654      101.79777     -769.24431      268.90585      1446.6291      1920.3708      0.9969611
   2154000  -638.89955      107.2707      -746.17025      283.36296      2731.2784      1920.3708      0.9969611
   2155000  -649.68744      122.31234     -771.99977      323.09649     -1715.8924      1920.3708      0.9969611
   2156000  -632.99224      115.91016     -748.9024       306.1847       375.46554      1920.3708      0.9969611
   2157000  -635.02764      123.97667     -759.00431      327.49294      2220.1042      1920.3708      0.9969611
   2158000  -649.19442      108.06047     -757.25489      285.44921      2090.8392      1920.3708      0.9969611
   2159000  -639.08342      109.50955     -748.59297      289.27706      963.15179      1920.3708      0.9969611
   2160000  -613.66899      124.93955     -738.60854      330.03646      1566.4995      1920.3708      0.9969611
   2161000  -658.4931       114.41308     -772.90618      302.23007      874.06814      1920.3708      0.9969611
   2162000  -670.30121      108.83846     -779.13967      287.5043      -2951.4526      1920.3708      0.9969611
   2163000  -666.23812      104.01457     -770.25269      274.76166     -1403.9797      1920.3708      0.9969611
   2164000  -653.77074      109.44383     -763.21457      289.10344     -1932.6764      1920.3708      0.9969611
   2165000  -625.23925      117.30968     -742.54892      309.88162     -527.98912      1920.3708      0.9969611
   2166000  -630.34326      110.9134      -741.25666      292.98542     -2154.8409      1920.3708      0.9969611
   2167000  -640.38821      112.69913     -753.08734      297.70254      2405.048       1920.3708      0.9969611
   2168000  -624.94921      120.63884     -745.58805      318.67582      1059.8506      1920.3708      0.9969611
   2169000  -657.15107      107.92657     -765.07764      285.09549      280.20988      1920.3708      0.9969611
   2170000  -629.62296      112.17367     -741.79663      296.3145       965.62053      1920.3708      0.9969611
   2171000  -629.36038      109.90442     -739.2648       290.32012     -1273.0812      1920.3708      0.9969611
   2172000  -641.31439      120.94595     -762.26034      319.48708      135.34012      1920.3708      0.9969611
   2173000  -655.61254      105.14832     -760.76086      277.75656     -874.26521      1920.3708      0.9969611
   2174000  -617.43711      115.26996     -732.70707      304.49357     -1608.8162      1920.3708      0.9969611
   2175000  -664.62176      94.769377     -759.39113      250.33986     -3345.5786      1920.3708      0.9969611
   2176000  -659.66481      118.67434     -778.33915      313.48648     -1650.7768      1920.3708      0.9969611
   2177000  -643.27826      122.01034     -765.2886       322.29875     -1214.2956      1920.3708      0.9969611
   2178000  -671.21756      106.91755     -778.13511      282.43011     -1670.4085      1920.3708      0.9969611
   2179000  -667.40824      114.7494      -782.15765      303.11848     -1071.2832      1920.3708      0.9969611
   2180000  -664.37911      123.44679     -787.82589      326.09322      4248.3053      1920.3708      0.9969611
   2181000  -634.31447      121.96681     -756.28129      322.18377     -720.39066      1920.3708      0.9969611
   2182000  -657.69865      109.29484     -766.99349      288.70988     -1454.1899      1920.3708      0.9969611
   2183000  -642.76191      115.79312     -758.55503      305.87552      543.73223      1920.3708      0.9969611
   2184000  -662.68697      112.14488     -774.83185      296.23846     -1018.0763      1920.3708      0.9969611
   2185000  -665.20922      116.91645     -782.12567      308.8429      -1964.8703      1920.3708      0.9969611
   2186000  -638.02292      116.02527     -754.04819      306.48876     -551.58798      1920.3708      0.9969611
   2187000  -648.32315      113.56992     -761.89308      300.0028      -1876.2447      1920.3708      0.9969611
   2188000  -648.64455      109.13471     -757.77926      288.28688     -1553.4871      1920.3708      0.9969611
   2189000  -657.71938      112.38208     -770.10145      296.86502     -241.70594      1920.3708      0.9969611
   2190000  -646.4883       121.45686     -767.94516      320.83669      1335.8724      1920.3708      0.9969611
   2191000  -657.03281      108.19255     -765.22536      285.79809      263.11268      1920.3708      0.9969611
   2192000  -641.71567      115.0776      -756.79327      303.98543      1017.0638      1920.3708      0.9969611
   2193000  -642.08603      109.05461     -751.14064      288.07529     -1415.4338      1920.3708      0.9969611
   2194000  -658.5959       109.44522     -768.04113      289.10712      1747.1516      1920.3708      0.9969611
   2195000  -636.69993      118.09985     -754.79978      311.96893     -1683.094       1920.3708      0.9969611
   2196000  -644.22304      112.10963     -756.33266      296.14533     -809.13889      1920.3708      0.9969611
   2197000  -639.01587      102.54273     -741.5586       270.8737       1205.2461      1920.3708      0.9969611
   2198000  -645.65115      117.32657     -762.97772      309.92623     -2863.6407      1920.3708      0.9969611
   2199000  -638.89907      111.46096     -750.36003      294.43184      129.84646      1920.3708      0.9969611
   2200000  -639.95808      129.02006     -768.97813      340.8154      -1527.5864      1920.3708      0.9969611
   2201000  -628.0095       102.13884     -730.14834      269.8068       1131.0771      1920.3708      0.9969611
   2202000  -626.4328       124.43637     -750.86916      328.70726     -315.49144      1920.3708      0.9969611
   2203000  -633.95441      111.39812     -745.35254      294.26584      1383.7731      1920.3708      0.9969611
   2204000  -652.58965      114.8646      -767.45426      303.42279      538.88439      1920.3708      0.9969611
   2205000  -626.57483      118.88078     -745.45561      314.03181      2804.9319      1920.3708      0.9969611
   2206000  -662.02222      105.14284     -767.16505      277.74207     -1724.1989      1920.3708      0.9969611
   2207000  -638.98915      125.67863     -764.66777      331.98878      1302.1545      1920.3708      0.9969611
   2208000  -648.281        111.45603     -759.73704      294.41881     -1495.9571      1920.3708      0.9969611
   2209000  -651.3027       111.91535     -763.21806      295.63214     -3119.8265      1920.3708      0.9969611
   2210000  -644.53554      113.0544      -757.58994      298.64101      539.81594      1920.3708      0.9969611
   2211000  -656.43364      109.4636      -765.89723      289.15566      1771.2728      1920.3708      0.9969611
   2212000  -646.97291      120.87352     -767.84643      319.29574     -2319.7698      1920.3708      0.9969611
   2213000  -648.55691      110.20974     -758.76665      291.12664      44.19566       1920.3708      0.9969611
   2214000  -630.77907      117.28458     -748.06365      309.81531     -1600.2493      1920.3708      0.9969611
   2215000  -630.64572      119.59021     -750.23593      315.9058       700.62194      1920.3708      0.9969611
   2216000  -629.52854      113.4901      -743.01864      299.79193     -809.82952      1920.3708      0.9969611
   2217000  -593.26222      126.4852      -719.74742      334.1194       4886.2614      1920.3708      0.9969611
   2218000  -662.42537      116.10449     -778.52986      306.69803      2241.1993      1920.3708      0.9969611
   2219000  -628.09916      113.50852     -741.60768      299.8406       1462.6241      1920.3708      0.9969611
   2220000  -654.02567      114.95358     -768.97925      303.65782     -690.15806      1920.3708      0.9969611
   2221000  -642.83717      116.39744     -759.23462      307.47189      463.17664      1920.3708      0.9969611
   2222000  -660.7636       113.60514     -774.36874      300.09582      604.08061      1920.3708      0.9969611
   2223000  -643.39216      119.92065     -763.31281      316.77869     -359.66491      1920.3708      0.9969611
   2224000  -650.51344      127.01475     -777.52818      335.51823     -2545.1987      1920.3708      0.9969611
   2225000  -640.20033      113.87138     -754.07171      300.79911     -2195.9462      1920.3708      0.9969611
   2226000  -596.45666      130.88072     -727.33738      345.73047      3957.5044      1920.3708      0.9969611
   2227000  -635.41841      113.60214     -749.02055      300.08789      2336.5936      1920.3708      0.9969611
   2228000  -605.42137      123.69234     -729.1137       326.74186      431.35805      1920.3708      0.9969611
   2229000  -660.26162      109.91908     -770.1807       290.35885     -419.78267      1920.3708      0.9969611
   2230000  -625.45834      132.19713     -757.65547      349.20785     -1603.5202      1920.3708      0.9969611
   2231000  -654.90691      113.55651     -768.46342      299.96736      925.83081      1920.3708      0.9969611
   2232000  -651.2762       112.21936     -763.49556      296.43519      724.75254      1920.3708      0.9969611
   2233000  -666.12529      123.6034      -789.7287       326.50693     -3346.9668      1920.3708      0.9969611
   2234000  -693.18745      94.297449     -787.4849       249.09323      213.25363      1920.3708      0.9969611
   2235000  -654.75233      118.53762     -773.28994      313.12531      1078.316       1920.3708      0.9969611
   2236000  -664.51342      104.30834     -768.82176      275.53769     -1628.9046      1920.3708      0.9969611
   2237000  -657.87046      101.0701      -758.94056      266.98366     -4027.2586      1920.3708      0.9969611
   2238000  -634.03049      114.07987     -748.11035      301.34985     -465.40891      1920.3708      0.9969611
   2239000  -649.93345      101.30479     -751.23823      267.60359     -32.138678      1920.3708      0.9969611
   2240000  -633.88417      123.74661     -757.63078      326.88521     -1388.9061      1920.3708      0.9969611
   2241000  -641.21041      125.65847     -766.86888      331.93554      1174.2276      1920.3708      0.9969611
   2242000  -638.80236      121.74672     -760.54908      321.60237      2424.1328      1920.3708      0.9969611
   2243000  -628.40693      116.65193     -745.05886      308.14413     -170.49651      1920.3708      0.9969611
   2244000  -620.23011      122.71516     -742.94527      324.16058     -352.0313       1920.3708      0.9969611
   2245000  -646.32128      108.13022     -754.4515       285.63346     -2066.7076      1920.3708      0.9969611
   2246000  -639.29376      113.25295     -752.54671      299.16549      1088.3114      1920.3708      0.9969611
   2247000  -659.3306       102.18683     -761.51743      269.93357     -1070.904       1920.3708      0.9969611
   2248000  -632.73336      113.37486     -746.10823      299.48754      375.39672      1920.3708      0.9969611
   2249000  -640.34341      124.37862     -764.72203      328.55473     -1936.8881      1920.3708      0.9969611
   2250000  -667.41914      95.819046     -763.23819      253.11263     -1379.1055      1920.3708      0.9969611
   2251000  -645.63669      117.54358     -763.18027      310.49949     -1258.7665      1920.3708      0.9969611
   2252000  -648.023        121.95845     -769.98145      322.16167      771.39463      1920.3708      0.9969611
   2253000  -654.39747      117.49711     -771.89458      310.37675     -769.70577      1920.3708      0.9969611
   2254000  -675.18141      95.036352     -770.21777      251.04509     -316.62834      1920.3708      0.9969611
   2255000  -644.06484      126.90091     -770.96575      335.21753     -194.91198      1920.3708      0.9969611
   2256000  -653.31073      115.00144     -768.31217      303.78426     -3707.6276      1920.3708      0.9969611
   2257000  -623.18648      115.16462     -738.35109      304.21529     -1112.8076      1920.3708      0.9969611
   2258000  -648.38339      109.4743      -757.85769      289.18394      1166.3661      1920.3708      0.9969611
   2259000  -676.35597      104.60758     -780.96355      276.32815     -38.084501      1920.3708      0.9969611
   2260000  -628.02401      111.48238     -739.50639      294.48842     -19.662134      1920.3708      0.9969611
   2261000  -648.4477       105.18347     -753.63117      277.8494      -926.06046      1920.3708      0.9969611
   2262000  -673.62422      110.02673     -783.65094      290.6432       678.48359      1920.3708      0.9969611
   2263000  -640.90993      114.73423     -755.64416      303.07839      1611.8498      1920.3708      0.9969611
   2264000  -645.91021      112.5922      -758.5024       297.42007     -1426.8409      1920.3708      0.9969611
   2265000  -651.56981      104.41487     -755.98468      275.81909     -1401.0978      1920.3708      0.9969611
   2266000  -647.12437      113.33805     -760.46242      299.39029     -1724.9434      1920.3708      0.9969611
   2267000  -624.92148      128.74047     -753.66195      340.07686     -516.2559       1920.3708      0.9969611
   2268000  -638.85696      117.65061     -756.50757      310.78222      1135.329       1920.3708      0.9969611
   2269000  -639.92658      100.38421     -740.31079      265.17182     -99.068986      1920.3708      0.9969611
   2270000  -655.87788      111.0232      -766.90108      293.27546     -1935.8915      1920.3708      0.9969611
   2271000  -655.11131      102.52538     -757.63669      270.82788     -2981.6784      1920.3708      0.9969611
   2272000  -664.11898      111.60412     -775.7231       294.80999      709.37859      1920.3708      0.9969611
   2273000  -652.70593      109.15214     -761.85806      288.33292      1802.6377      1920.3708      0.9969611
   2274000  -625.24189      122.91897     -748.16086      324.69895     -3486.9072      1920.3708      0.9969611
   2275000  -625.6574       113.38915     -739.04655      299.52528     -1415.2676      1920.3708      0.9969611
   2276000  -643.00892      109.28671     -752.29563      288.6884      -552.99729      1920.3708      0.9969611
   2277000  -665.56751      111.45006     -777.01756      294.40303      124.5763       1920.3708      0.9969611
   2278000  -639.03219      113.01053     -752.04271      298.52511     -2924.078       1920.3708      0.9969611
   2279000  -684.13367      106.71        -790.84367      281.88184     -1512.6492      1920.3708      0.9969611
   2280000  -658.96927      119.39307     -778.36234      315.38505     -312.22554      1920.3708      0.9969611
   2281000  -647.16934      131.75224     -778.92158      348.03266     -1667.1115      1920.3708      0.9969611
   2282000  -677.40611      110.1856      -787.59171      291.06288     -194.18346      1920.3708      0.9969611
   2283000  -662.64606      109.17032     -771.81638      288.38093      317.99078      1920.3708      0.9969611
   2284000  -660.79565      108.14458     -768.94024      285.67139      3212.628       1920.3708      0.9969611
   2285000  -675.94249      110.84634     -786.78883      292.80827     -1787.9451      1920.3708      0.9969611
   2286000  -636.23426      119.77239     -756.00666      316.38705      538.91819      1920.3708      0.9969611
   2287000  -669.13678      91.271132     -760.40792      241.099       -2972.85        1920.3708      0.9969611
   2288000  -665.73946      98.953625     -764.69309      261.39284      2842.8609      1920.3708      0.9969611
   2289000  -648.19953      122.21126     -770.41079      322.82949     -3369.8511      1920.3708      0.9969611
   2290000  -621.21616      125.74907     -746.96522      332.17485      946.64413      1920.3708      0.9969611
   2291000  -655.54287      103.50874     -759.05161      273.42549      593.12288      1920.3708      0.9969611
   2292000  -665.65223      117.69954     -783.35178      310.91148     -441.51552      1920.3708      0.9969611
   2293000  -649.6877       120.05586     -769.74356      317.13586     -1032.2964      1920.3708      0.9969611
   2294000  -633.27287      119.37585     -752.64872      315.33956     -850.04407      1920.3708      0.9969611
   2295000  -619.19633      117.16981     -736.36613      309.51214      329.32157      1920.3708      0.9969611
   2296000  -650.36226      115.54991     -765.91217      305.23307     -399.11343      1920.3708      0.9969611
   2297000  -652.40026      111.02803     -763.42829      293.28821      557.70033      1920.3708      0.9969611
   2298000  -637.92036      109.30955     -747.22991      288.74873      664.24291      1920.3708      0.9969611
   2299000  -623.01021      128.45073     -751.46094      339.31148     -21.319952      1920.3708      0.9969611
   2300000  -650.58558      111.34371     -761.92928      294.1221       1825.1631      1920.3708      0.9969611
   2301000  -617.71407      120.33925     -738.05332      317.88444     -39.121114      1920.3708      0.9969611
   2302000  -652.90164      110.00624     -762.90788      290.5891      -291.21741      1920.3708      0.9969611
   2303000  -683.13719      105.75779     -788.89498      279.36651      2649.2302      1920.3708      0.9969611
   2304000  -648.15996      118.1272      -766.28716      312.04116      102.37827      1920.3708      0.9969611
   2305000  -659.3956       111.95703     -771.35263      295.74223     -1164.5696      1920.3708      0.9969611
   2306000  -650.05314      97.999475     -748.05262      258.87239     -3955.0735      1920.3708      0.9969611
   2307000  -621.64869      117.99417     -739.64286      311.68974     -407.41092      1920.3708      0.9969611
   2308000  -630.73671      129.03423     -759.77094      340.85284      1869.2622      1920.3708      0.9969611
   2309000  -668.10565      99.916863     -768.02251      263.9373       77.75896       1920.3708      0.9969611
   2310000  -657.30423      126.87178     -784.17602      335.14058     -707.98612      1920.3708      0.9969611
   2311000  -648.82709      110.72027     -759.54736      292.47525      985.63135      1920.3708      0.9969611
   2312000  -646.81707      102.93503     -749.7521       271.91        -122.50835      1920.3708      0.9969611
   2313000  -657.00859      109.16508     -766.17367      288.36711      1364.577       1920.3708      0.9969611
   2314000  -618.68702      121.11073     -739.79775      319.92236      1463.5213      1920.3708      0.9969611
   2315000  -643.44109      116.61671     -760.0578       308.0511      -1704.6301      1920.3708      0.9969611
   2316000  -659.36928      111.62828     -770.99756      294.87381     -3289.4265      1920.3708      0.9969611
   2317000  -679.04918      90.367657     -769.41683      238.71241     -1506.5136      1920.3708      0.9969611
   2318000  -648.30907      102.44312     -750.75219      270.61058      1832.074       1920.3708      0.9969611
   2319000  -656.19448      104.27108     -760.46556      275.43927     -1316.6307      1920.3708      0.9969611
   2320000  -662.65151      105.19856     -767.85007      277.88927     -1076.2696      1920.3708      0.9969611
   2321000  -663.15998      100.71794     -763.87791      266.05339     -1314.8288      1920.3708      0.9969611
   2322000  -639.2066       130.77677     -769.98337      345.45588     -958.22674      1920.3708      0.9969611
   2323000  -656.96922      113.58287     -770.55208      300.03699      35.588697      1920.3708      0.9969611
   2324000  -629.21732      106.90175     -736.11908      282.38837      1764.6037      1920.3708      0.9969611
   2325000  -650.65312      112.5652      -763.21831      297.34875     -2169.6041      1920.3708      0.9969611
   2326000  -637.67765      106.71658     -744.39423      281.89921     -2382.6761      1920.3708      0.9969611
   2327000  -647.32455      118.44907     -765.77362      312.8914      -3653.7304      1920.3708      0.9969611
   2328000  -659.56672      106.92317     -766.48988      282.44493      3060.8214      1920.3708      0.9969611
   2329000  -652.87551      108.45256     -761.32807      286.48492      3793.807       1920.3708      0.9969611
   2330000  -649.19025      112.5415      -761.73176      297.28616     -43.200059      1920.3708      0.9969611
   2331000  -646.80823      123.35482     -770.16305      325.85028     -205.54314      1920.3708      0.9969611
   2332000  -631.15579      130.12552     -761.28131      343.73556      447.30213      1920.3708      0.9969611
   2333000  -645.07792      113.729       -758.80692      300.42301      1441.9979      1920.3708      0.9969611
   2334000  -663.52492      101.48698     -765.01191      268.08488     -772.20732      1920.3708      0.9969611
   2335000  -625.26723      124.11134     -749.37857      327.84868     -478.72776      1920.3708      0.9969611
   2336000  -639.09754      113.40782     -752.50535      299.57459      1094.2206      1920.3708      0.9969611
   2337000  -643.72921      111.5372      -755.26641      294.63322     -4303.0987      1920.3708      0.9969611
   2338000  -631.26265      101.91662     -733.17927      269.21979     -1756.3603      1920.3708      0.9969611
   2339000  -654.78325      113.22121     -768.00446      299.08165     -1050.5111      1920.3708      0.9969611
   2340000  -663.88081      106.77366     -770.65447      282.05001      103.31115      1920.3708      0.9969611
   2341000  -646.8386       117.11267     -763.95127      309.3612      -2450.7008      1920.3708      0.9969611
   2342000  -647.64225      105.0721      -752.71435      277.55521      348.18074      1920.3708      0.9969611
   2343000  -662.08293      111.38741     -773.47035      294.23755     -1004.8215      1920.3708      0.9969611
   2344000  -655.46991      118.58249     -774.0524       313.24384     -892.83857      1920.3708      0.9969611
   2345000  -643.39604      124.34887     -767.74491      328.47614      336.71158      1920.3708      0.9969611
   2346000  -653.12352      113.86942     -766.99295      300.79395     -696.53583      1920.3708      0.9969611
   2347000  -661.92714      104.87679     -766.80393      277.03929     -716.18075      1920.3708      0.9969611
   2348000  -656.40511      121.08392     -777.48902      319.85153      903.64109      1920.3708      0.9969611
   2349000  -630.7698       135.05912     -765.82892      356.76801     -507.698        1920.3708      0.9969611
   2350000  -634.02303      115.08542     -749.10844      304.00609     -2368.9608      1920.3708      0.9969611
   2351000  -648.25962      107.29877     -755.55839      283.43711     -2982.1138      1920.3708      0.9969611
   2352000  -668.10004      114.68614     -782.78618      302.95137      149.50504      1920.3708      0.9969611
   2353000  -647.22122      114.28137     -761.50259      301.88214     -289.36093      1920.3708      0.9969611
   2354000  -653.37841      112.39942     -765.77782      296.91083     -769.97063      1920.3708      0.9969611
   2355000  -625.98447      129.44813     -755.43259      341.94618     -93.457704      1920.3708      0.9969611
   2356000  -629.05234      117.23824     -746.29059      309.69293     -2228.6334      1920.3708      0.9969611
   2357000  -635.72967      113.87762     -749.60729      300.81562      4109.0622      1920.3708      0.9969611
   2358000  -640.89738      114.68103     -755.57841      302.93786     -929.09381      1920.3708      0.9969611
   2359000  -673.16         108.97663     -782.13664      287.8693       709.61376      1920.3708      0.9969611
   2360000  -662.13805      100.6529      -762.79095      265.88159      296.85136      1920.3708      0.9969611
   2361000  -630.857        115.37414     -746.23114      304.76876     -1064.9509      1920.3708      0.9969611
   2362000  -633.53024      128.65271     -762.18295      339.84503      4598.7288      1920.3708      0.9969611
   2363000  -663.46543      101.03655     -764.50198      266.89503     -623.52899      1920.3708      0.9969611
   2364000  -649.10356      120.28623     -769.38979      317.7444      -2823.6388      1920.3708      0.9969611
   2365000  -616.94653      125.37695     -742.32349      331.19189      296.5059       1920.3708      0.9969611
   2366000  -663.77169      113.35049     -777.12217      299.42314     -2722.4951      1920.3708      0.9969611
   2367000  -652.36795      119.28183     -771.64978      315.0912      -1148.01        1920.3708      0.9969611
   2368000  -655.07848      107.06615     -762.14463      282.82264      891.77568      1920.3708      0.9969611
   2369000  -660.81172      98.833887     -759.64561      261.07654     -1382.0965      1920.3708      0.9969611
   2370000  -639.58436      110.23089     -749.81524      291.1825      -804.19586      1920.3708      0.9969611
   2371000  -652.83844      106.50047     -759.33891      281.32836     -772.62105      1920.3708      0.9969611
   2372000  -638.42423      114.41401     -752.83824      302.23251      754.15597      1920.3708      0.9969611
   2373000  -667.60523      93.794007     -761.39924      247.76335      1168.6835      1920.3708      0.9969611
   2374000  -666.44841      107.3449      -773.7933       283.55896      2940.3675      1920.3708      0.9969611
   2375000  -654.67178      116.72587     -771.39765      308.33945     -603.93625      1920.3708      0.9969611
   2376000  -663.06792      110.66202     -773.72995      292.32138     -0.042109425    1920.3708      0.9969611
   2377000  -666.53178      110.0231      -776.55488      290.63363     -1194.5474      1920.3708      0.9969611
   2378000  -660.20206      112.60539     -772.80745      297.45493     -730.94566      1920.3708      0.9969611
   2379000  -672.18311      110.6472      -782.83031      292.28223      227.01879      1920.3708      0.9969611
   2380000  -648.26427      107.22668     -755.49094      283.24667     -453.58956      1920.3708      0.9969611
   2381000  -658.9274       111.80546     -770.73286      295.34184     -3843.9983      1920.3708      0.9969611
   2382000  -663.32379      106.30339     -769.62718      280.80776      526.61941      1920.3708      0.9969611
   2383000  -654.13938      121.57131     -775.71069      321.13901     -1691.6813      1920.3708      0.9969611
   2384000  -610.96513      126.80712     -737.77225      334.96977     -155.10204      1920.3708      0.9969611
   2385000  -657.07885      107.64632     -764.72516      284.35518     -730.21423      1920.3708      0.9969611
   2386000  -643.1448       106.14386     -749.28866      280.38633     -836.67664      1920.3708      0.9969611
   2387000  -650.08271      117.00147     -767.08417      309.06747     -496.29367      1920.3708      0.9969611
   2388000  -636.8657       123.27898     -760.14468      325.64995     -1057.0591      1920.3708      0.9969611
   2389000  -686.94149      97.807727     -784.74922      258.36587     -1031.6381      1920.3708      0.9969611
   2390000  -636.20106      127.88745     -764.0885       337.82353     -16.12859       1920.3708      0.9969611
   2391000  -656.56233      100.09019     -756.65252      264.39515     -2399.4326      1920.3708      0.9969611
   2392000  -642.95964      113.58029     -756.53993      300.03018     -3111.5667      1920.3708      0.9969611
   2393000  -646.97777      111.612       -758.58977      294.8308      -614.08208      1920.3708      0.9969611
   2394000  -653.32997      99.494612     -752.82459      262.82189      1565.1179      1920.3708      0.9969611
   2395000  -626.31317      138.09389     -764.40706      364.78456     -620.53281      1920.3708      0.9969611
   2396000  -625.9504       123.59277     -749.54316      326.47883     -1883.6926      1920.3708      0.9969611
   2397000  -650.3632       111.54594     -761.90915      294.65632     -265.66179      1920.3708      0.9969611
   2398000  -648.05076      113.93202     -761.98278      300.95932     -1711.1128      1920.3708      0.9969611
   2399000  -621.61264      115.91974     -737.53238      306.21        -1515.288       1920.3708      0.9969611
   2400000  -626.51047      113.38662     -739.89709      299.5186      -1860.2572      1920.3708      0.9969611
   2401000  -630.07587      107.84667     -737.92254      284.88443      2184.8978      1920.3708      0.9969611
   2402000  -662.80731      92.300482     -755.10779      243.8181      -1307.6736      1920.3708      0.9969611
   2403000  -652.92872      114.03888     -766.9676       301.24158     -492.7515       1920.3708      0.9969611
   2404000  -654.99365      99.134522     -754.12817      261.87069      976.0213       1920.3708      0.9969611
   2405000  -654.99545      111.6383      -766.63375      294.90029     -1304.998       1920.3708      0.9969611
   2406000  -661.51852      105.44085     -766.95937      278.52929     -1085.8596      1920.3708      0.9969611
   2407000  -654.97297      120.63171     -775.60467      318.65699     -104.28553      1920.3708      0.9969611
   2408000  -662.04069      105.73525     -767.77593      279.30696     -1729.7475      1920.3708      0.9969611
   2409000  -650.63963      115.13426     -765.77389      304.13509     -3641.5972      1920.3708      0.9969611
   2410000  -662.73801      103.12791     -765.86592      272.41951      1042.4866      1920.3708      0.9969611
   2411000  -649.25737      113.48581     -762.74318      299.78062      858.01115      1920.3708      0.9969611
   2412000  -636.23379      117.77038     -754.00417      311.09859     -2207.869       1920.3708      0.9969611
   2413000  -648.46771      103.95059     -752.41831      274.59267      346.40324      1920.3708      0.9969611
   2414000  -648.24257      113.52995     -761.77252      299.89721     -1095.4266      1920.3708      0.9969611
   2415000  -654.17647      114.29242     -768.46889      301.91131      1385.4505      1920.3708      0.9969611
   2416000  -640.9625       108.83831     -749.80081      287.50392     -903.07368      1920.3708      0.9969611
   2417000  -615.6611       114.79811     -730.45921      303.24714     -723.50521      1920.3708      0.9969611
   2418000  -608.30833      133.26854     -741.57687      352.03806     -3959.5125      1920.3708      0.9969611
   2419000  -640.05217      107.15415     -747.20633      283.0551       277.16501      1920.3708      0.9969611
   2420000  -635.11727      108.38926     -743.50653      286.31772      693.4732       1920.3708      0.9969611
   2421000  -664.57051      107.66284     -772.23334      284.39883      1200.5008      1920.3708      0.9969611
   2422000  -622.99319      121.73865     -744.73184      321.58105     -14.132759      1920.3708      0.9969611
   2423000  -631.34267      119.57613     -750.91879      315.8686      -1120.547       1920.3708      0.9969611
   2424000  -670.75008      105.61563     -776.36571      278.99099     -3429.2162      1920.3708      0.9969611
   2425000  -640.35221      115.66705     -756.01926      305.5425       1072.9735      1920.3708      0.9969611
   2426000  -638.65525      110.87669     -749.53193      292.88843     -2161.6403      1920.3708      0.9969611
   2427000  -662.74411      110.76082     -773.50492      292.58235     -2069.387       1920.3708      0.9969611
   2428000  -663.01403      115.75099     -778.76502      305.76425     -896.56999      1920.3708      0.9969611
   2429000  -667.28841      112.78698     -780.07539      297.93461      179.28904      1920.3708      0.9969611
   2430000  -632.79711      120.92466     -753.72177      319.43084      2224.7181      1920.3708      0.9969611
   2431000  -650.77436      106.56323     -757.33759      281.49413     -1947.8539      1920.3708      0.9969611
   2432000  -643.85756      116.48473     -760.34229      307.70247      33.231152      1920.3708      0.9969611
   2433000  -633.62956      110.19168     -743.82124      291.07895      252.30012      1920.3708      0.9969611
   2434000  -648.63098      105.14452     -753.7755       277.74652     -671.31272      1920.3708      0.9969611
   2435000  -631.83753      116.78805     -748.62559      308.50372     -2497.8966      1920.3708      0.9969611
   2436000  -659.40793      103.57919     -762.98712      273.61158     -1909.9033      1920.3708      0.9969611
   2437000  -654.1809       98.497036     -752.67793      260.18673     -324.29541      1920.3708      0.9969611
   2438000  -627.0837       118.0059      -745.0896       311.72074     -708.19441      1920.3708      0.9969611
   2439000  -660.19754      108.27512     -768.47267      286.01622      785.30313      1920.3708      0.9969611
   2440000  -645.12504      105.68557     -750.81061      279.17573     -3219.4288      1920.3708      0.9969611
   2441000  -614.53829      116.96244     -731.50073      308.96436      1947.5767      1920.3708      0.9969611
   2442000  -640.11779      118.13622     -758.25401      312.06498     -2312.6648      1920.3708      0.9969611
   2443000  -654.36998      106.2179      -760.58788      280.58192     -1171.869       1920.3708      0.9969611
   2444000  -654.96201      114.044       -769.00601      301.2551      -1848.053       1920.3708      0.9969611
   2445000  -629.22052      111.75399     -740.97451      295.2059       1801.8716      1920.3708      0.9969611
   2446000  -609.18518      125.81781     -735.00299      332.35645      655.52597      1920.3708      0.9969611
   2447000  -653.0326       114.9372      -767.9698       303.61455     -2224.7379      1920.3708      0.9969611
   2448000  -667.85133      105.69631     -773.54765      279.20411     -452.99952      1920.3708      0.9969611
   2449000  -617.88392      134.19489     -752.07881      354.48507      547.48284      1920.3708      0.9969611
   2450000  -655.08894      114.95272     -770.04166      303.65555      432.88713      1920.3708      0.9969611
   2451000  -648.6327       119.56785     -768.20054      315.84674     -2929.3719      1920.3708      0.9969611
   2452000  -642.02927      114.36751     -756.39678      302.10967      563.72066      1920.3708      0.9969611
   2453000  -672.89348      112.33318     -785.22666      296.73585      872.00598      1920.3708      0.9969611
   2454000  -651.37771      102.31649     -753.6942       270.27608      1007.5853      1920.3708      0.9969611
   2455000  -651.6201       122.02565     -773.64575      322.33919      1464.5703      1920.3708      0.9969611
   2456000  -650.76197      115.52706     -766.28903      305.17271     -2752.8042      1920.3708      0.9969611
   2457000  -658.86707      107.51618     -766.38325      284.01142      2289.1897      1920.3708      0.9969611
   2458000  -630.87871      122.78323     -753.66194      324.34039      591.18768      1920.3708      0.9969611
   2459000  -639.13255      115.49927     -754.63181      305.0993       989.04979      1920.3708      0.9969611
   2460000  -641.63368      117.07602     -758.70971      309.26441      1257.2963      1920.3708      0.9969611
   2461000  -638.88972      108.97041     -747.86013      287.85287      216.47568      1920.3708      0.9969611
   2462000  -634.36825      122.35324     -756.72149      323.20454      1528.3577      1920.3708      0.9969611
   2463000  -655.26612      103.26124     -758.52736      272.77171     -1774.4351      1920.3708      0.9969611
   2464000  -646.8273       124.40272     -771.23001      328.61838     -914.90964      1920.3708      0.9969611
   2465000  -659.80583      105.60279     -765.40862      278.95707      254.9854       1920.3708      0.9969611
   2466000  -654.14205      125.43727     -779.57932      331.35122     -351.47572      1920.3708      0.9969611
   2467000  -659.84037      103.03628     -762.87664      272.17745      817.04231      1920.3708      0.9969611
   2468000  -669.691        102.82136     -772.51237      271.60973     -343.41378      1920.3708      0.9969611
   2469000  -654.23484      113.32314     -767.55798      299.3509       990.89811      1920.3708      0.9969611
   2470000  -663.09351      114.13408     -777.22758      301.49305      361.60895      1920.3708      0.9969611
   2471000  -654.10191      99.980453     -754.08236      264.10528      1356.5823      1920.3708      0.9969611
   2472000  -646.51728      114.3904      -760.90768      302.17016      1928.4276      1920.3708      0.9969611
   2473000  -621.92604      119.46834     -741.39438      315.58389     -385.68436      1920.3708      0.9969611
   2474000  -630.03904      112.87775     -742.91679      298.17437     -15.25831       1920.3708      0.9969611
   2475000  -649.64092      104.27504     -753.91597      275.44973      1480.1959      1920.3708      0.9969611
   2476000  -645.11958      116.94674     -762.06632      308.92291     -23.966399      1920.3708      0.9969611
   2477000  -648.97761      110.06704     -759.04465      290.74969     -1753.4601      1920.3708      0.9969611
   2478000  -658.63313      108.7161      -767.34923      287.18109     -1705.3194      1920.3708      0.9969611
   2479000  -639.39499      109.4757      -748.87069      289.18764     -1101.6895      1920.3708      0.9969611
   2480000  -639.64298      110.88683     -750.52981      292.91524     -1569.7756      1920.3708      0.9969611
   2481000  -635.0335       119.9885      -755.022        316.95791     -3139.846       1920.3708      0.9969611
   2482000  -631.81687      117.75856     -749.57544      311.06739     -1496.133       1920.3708      0.9969611
   2483000  -656.87032      110.51537     -767.38568      291.93398     -2539.9324      1920.3708      0.9969611
   2484000  -663.81218      93.717        -757.52918      247.55993      2571.9189      1920.3708      0.9969611
   2485000  -650.00833      124.5518      -774.56012      329.01218      1345.7338      1920.3708      0.9969611
   2486000  -643.94582      121.385       -765.33082      320.64688     -777.80994      1920.3708      0.9969611
   2487000  -665.93318      107.72402     -773.6572       284.56044     -1086.39        1920.3708      0.9969611
   2488000  -652.02027      106.63932     -758.65959      281.69515     -287.67844      1920.3708      0.9969611
   2489000  -640.659        125.51324     -766.17224      331.5519      -47.200993      1920.3708      0.9969611
   2490000  -668.05326      102.84626     -770.89951      271.67549      587.16629      1920.3708      0.9969611
   2491000  -655.35567      104.63717     -759.99283      276.40631     -1639.8896      1920.3708      0.9969611
   2492000  -631.74737      124.86003     -756.6074       329.8264       460.57485      1920.3708      0.9969611
   2493000  -649.70815      113.97545     -763.68359      301.07401     -9.292698       1920.3708      0.9969611
   2494000  -643.87707      105.6972      -749.57427      279.20645      2334.2085      1920.3708      0.9969611
   2495000  -650.55441      104.90827     -755.46267      277.12244      368.14546      1920.3708      0.9969611
   2496000  -646.30194      107.73697     -754.03891      284.59464      267.49442      1920.3708      0.9969611
   2497000  -633.3162       115.10559     -748.42178      304.05937      1015.0128      1920.3708      0.9969611
   2498000  -660.2113       105.6505      -765.8618       279.0831       2120.4518      1920.3708      0.9969611
   2499000  -633.30236      109.69608     -742.99844      289.76978      551.50783      1920.3708      0.9969611
   2500000  -645.1849       112.06417     -757.24907      296.02525     -810.37224      1920.3708      0.9969611
   2501000  -650.75892      110.05814     -760.81706      290.72619      3094.8016      1920.3708      0.9969611
   2502000  -632.92208      116.76943     -749.69151      308.45451      250.04436      1920.3708      0.9969611
   2503000  -648.42429      115.21148     -763.63577      304.3391      -640.42882      1920.3708      0.9969611
   2504000  -648.97477      112.16681     -761.14158      296.29637      1651.6337      1920.3708      0.9969611
   2505000  -622.59971      119.73356     -742.33327      316.28446     -871.45503      1920.3708      0.9969611
   2506000  -661.93461      102.76979     -764.70441      271.47351     -3711.046       1920.3708      0.9969611
   2507000  -641.0436       117.8061      -758.84969      311.19294     -1810.5133      1920.3708      0.9969611
   2508000  -643.95913      119.17599     -763.13512      314.81162      2602.9203      1920.3708      0.9969611
   2509000  -672.7199       112.7548      -785.4747       297.8496       321.30657      1920.3708      0.9969611
   2510000  -654.19912      116.83519     -771.03431      308.62823     -508.30036      1920.3708      0.9969611
   2511000  -635.7638       116.79851     -752.56231      308.53132     -1580.8293      1920.3708      0.9969611
   2512000  -654.97274      113.47156     -768.4443       299.74297     -3597.4138      1920.3708      0.9969611
   2513000  -661.28575      115.85423     -777.13998      306.03696     -2125.962       1920.3708      0.9969611
   2514000  -665.28969      103.64889     -768.93858      273.79571      1759.4103      1920.3708      0.9969611
   2515000  -619.02154      138.63529     -757.65683      366.2147       2636.5365      1920.3708      0.9969611
   2516000  -650.67413      114.73457     -765.4087       303.0793      -1468.347       1920.3708      0.9969611
   2517000  -657.86736      104.70256     -762.56992      276.57904      719.94182      1920.3708      0.9969611
   2518000  -659.72581      109.63533     -769.36114      289.6093      -1684.5007      1920.3708      0.9969611
   2519000  -645.10894      112.38954     -757.49848      296.88474      541.20793      1920.3708      0.9969611
   2520000  -647.50362      109.95073     -757.45435      290.44246     -723.86531      1920.3708      0.9969611
   2521000  -632.16642      113.307       -745.47342      299.30827     -685.54208      1920.3708      0.9969611
   2522000  -655.27597      101.06387     -756.33984      266.9672      -291.99555      1920.3708      0.9969611
   2523000  -674.49256      107.1604      -781.65296      283.07159     -1565.8417      1920.3708      0.9969611
   2524000  -649.25828      114.10804     -763.36632      301.42426      3256.0583      1920.3708      0.9969611
   2525000  -662.66449      110.89139     -773.55588      292.92728      681.28381      1920.3708      0.9969611
   2526000  -653.89855      112.80064     -766.69918      297.97068      1755.4786      1920.3708      0.9969611
   2527000  -643.20145      122.86218     -766.06363      324.54893     -660.53621      1920.3708      0.9969611
   2528000  -662.57346      102.39646     -764.96992      270.48732     -665.21453      1920.3708      0.9969611
   2529000  -632.17434      123.74158     -755.91592      326.87194      566.51025      1920.3708      0.9969611
   2530000  -655.89753      106.88639     -762.78391      282.34777     -733.33696      1920.3708      0.9969611
   2531000  -641.63987      110.76129     -752.40117      292.58361     -1671.5755      1920.3708      0.9969611
   2532000  -654.13544      99.760041     -753.89548      263.52304      220.65648      1920.3708      0.9969611
   2533000  -676.33114      110.36104     -786.69218      291.52631     -440.15906      1920.3708      0.9969611
   2534000  -658.05117      105.30174     -763.3529       278.16182     -1671.5061      1920.3708      0.9969611
   2535000  -639.74747      112.51493     -752.2624       297.21596      2090.6194      1920.3708      0.9969611
   2536000  -675.53442      95.56515      -771.09957      252.44195      1817.3544      1920.3708      0.9969611
   2537000  -635.31497      109.1576      -744.47257      288.34733      1575.2812      1920.3708      0.9969611
   2538000  -645.29126      123.8711      -769.16236      327.21407      1452.4476      1920.3708      0.9969611
   2539000  -643.96691      104.58687     -748.55378      276.27344      2890.26        1920.3708      0.9969611
   2540000  -658.65832      105.84762     -764.50594      279.6038       233.18969      1920.3708      0.9969611
   2541000  -650.73945      118.68144     -769.42088      313.50522      217.68301      1920.3708      0.9969611
   2542000  -637.20122      119.70754     -756.90876      316.21574      2580.3434      1920.3708      0.9969611
   2543000  -648.3552       104.26301     -752.61821      275.41794     -884.93982      1920.3708      0.9969611
   2544000  -663.3562       108.85233     -772.20854      287.54096     -1453.2134      1920.3708      0.9969611
   2545000  -656.42662      115.68609     -772.11272      305.5928      -1510.1341      1920.3708      0.9969611
   2546000  -639.74997      109.74279     -749.49276      289.89316      1047.751       1920.3708      0.9969611
   2547000  -630.11821      113.80303     -743.92124      300.61858     -649.05039      1920.3708      0.9969611
   2548000  -651.94596      106.06962     -758.01558      280.19023     -2226.4434      1920.3708      0.9969611
   2549000  -659.92952      98.888567     -758.81809      261.22098     -1239.5287      1920.3708      0.9969611
   2550000  -629.13314      125.10686     -754.24         330.47842     -2990.2593      1920.3708      0.9969611
   2551000  -656.07199      105.40212     -761.47411      278.427        21.869555      1920.3708      0.9969611
   2552000  -657.49779      104.5958      -762.09359      276.29704     -724.45485      1920.3708      0.9969611
   2553000  -656.20897      108.72212     -764.93109      287.19699     -783.56158      1920.3708      0.9969611
   2554000  -614.75861      135.79337     -750.55198      358.70757      550.20092      1920.3708      0.9969611
   2555000  -618.27112      120.37052     -738.64164      317.96705      1898.3071      1920.3708      0.9969611
   2556000  -644.05887      110.26965     -754.32851      291.28489      1217.9443      1920.3708      0.9969611
   2557000  -642.2064       116.49233     -758.69873      307.72254      1358.8846      1920.3708      0.9969611
   2558000  -652.08917      115.93893     -768.0281       306.26069      2458.6952      1920.3708      0.9969611
   2559000  -656.94988      100.02741     -756.97729      264.22931      2204.2418      1920.3708      0.9969611
   2560000  -630.06652      121.48305     -751.54957      320.90587      246.64043      1920.3708      0.9969611
   2561000  -644.99655      103.37517     -748.37173      273.07267      3793.2565      1920.3708      0.9969611
   2562000  -645.47316      101.65857     -747.13173      268.53813      75.050523      1920.3708      0.9969611
   2563000  -618.19299      120.87208     -739.06507      319.29195     -917.33669      1920.3708      0.9969611
   2564000  -645.68697      112.25349     -757.94046      296.52535     -2238.4919      1920.3708      0.9969611
   2565000  -637.90312      118.40061     -756.30373      312.76339     -1548.6946      1920.3708      0.9969611
   2566000  -656.73242      102.4821      -759.21453      270.71356      1375.7462      1920.3708      0.9969611
   2567000  -640.05987      117.34286     -757.40273      309.96926     -366.89801      1920.3708      0.9969611
   2568000  -657.09851      105.17172     -762.27023      277.81838     -2507.8404      1920.3708      0.9969611
   2569000  -617.31448      113.57686     -730.89134      300.02113     -2482.3598      1920.3708      0.9969611
   2570000  -649.0378       117.79592     -766.83371      311.16606     -1464.8112      1920.3708      0.9969611
   2571000  -641.1872       118.35461     -759.54181      312.64188      1572.7082      1920.3708      0.9969611
   2572000  -624.76201      130.82328     -755.58529      345.57873      3.4403902      1920.3708      0.9969611
   2573000  -647.66176      106.61174     -754.2735       281.62227      1384.4359      1920.3708      0.9969611
   2574000  -632.68128      119.40493     -752.0862       315.41636      1891.1609      1920.3708      0.9969611
   2575000  -650.22612      118.44237     -768.6685       312.87372      2395.7366      1920.3708      0.9969611
   2576000  -617.25057      126.71055     -743.96112      334.71468     -756.46846      1920.3708      0.9969611
   2577000  -655.43264      112.93705     -768.36969      298.33102      951.45141      1920.3708      0.9969611
   2578000  -634.11985      133.22365     -767.34349      351.91947      2291.7559      1920.3708      0.9969611
   2579000  -649.61816      119.70795     -769.32611      316.21683     -900.36099      1920.3708      0.9969611
   2580000  -677.92836      96.394293     -774.32266      254.63219     -1619.7642      1920.3708      0.9969611
   2581000  -647.46801      115.73732     -763.20534      305.72814     -1557.7494      1920.3708      0.9969611
   2582000  -638.50818      106.01929     -744.52748      280.05729     -882.95876      1920.3708      0.9969611
   2583000  -622.44471      118.86014     -741.30485      313.97727     -587.69217      1920.3708      0.9969611
   2584000  -639.55878      127.74672     -767.30549      337.45178     -2148.8282      1920.3708      0.9969611
   2585000  -650.14366      107.11812     -757.26179      282.95993     -1484.9388      1920.3708      0.9969611
   2586000  -675.03036      110.16514     -785.1955       291.00882      152.93043      1920.3708      0.9969611
   2587000  -669.36815      105.93663     -775.30478      279.83893      10.455209      1920.3708      0.9969611
   2588000  -654.592        121.12047     -775.71248      319.94811     -422.45003      1920.3708      0.9969611
   2589000  -654.62814      110.78945     -765.41759      292.658       -960.04452      1920.3708      0.9969611
   2590000  -590.10618      126.70102     -716.8072       334.6895       1244.0179      1920.3708      0.9969611
   2591000  -653.31511      117.27363     -770.58874      309.78639     -1513.1198      1920.3708      0.9969611
   2592000  -629.1174       124.72319     -753.84059      329.46493     -755.09115      1920.3708      0.9969611
   2593000  -633.04117      113.20477     -746.24594      299.03823      132.57198      1920.3708      0.9969611
   2594000  -622.78173      117.63586     -740.41759      310.74325      795.96234      1920.3708      0.9969611
   2595000  -644.49876      113.93331     -758.43207      300.9627      -1579.2812      1920.3708      0.9969611
   2596000  -616.68577      123.48329     -740.16906      326.18965     -2219.9699      1920.3708      0.9969611
   2597000  -642.06908      111.39437     -753.46345      294.25592     -1537.7275      1920.3708      0.9969611
   2598000  -639.07883      111.41257     -750.4914       294.30401     -1289.4307      1920.3708      0.9969611
   2599000  -624.48926      125.61818     -750.10744      331.8291      -50.088097      1920.3708      0.9969611
   2600000  -625.46631      111.89544     -737.36175      295.57954      1474.5141      1920.3708      0.9969611
   2601000  -643.04624      126.52036     -769.5666       334.21228     -2060.6334      1920.3708      0.9969611
   2602000  -649.71056      109.32829     -759.03886      288.79824      49.563163      1920.3708      0.9969611
   2603000  -670.98167      98.309319     -769.29099      259.69086      123.8259       1920.3708      0.9969611
   2604000  -663.02182      110.14073     -773.16255      290.94436      1930.5998      1920.3708      0.9969611
   2605000  -635.78432      110.28514     -746.06947      291.32583     -1309.4975      1920.3708      0.9969611
   2606000  -649.79434      106.94052     -756.73485      282.49077     -3076.2877      1920.3708      0.9969611
   2607000  -616.18915      132.87672     -749.06588      351.00304      383.28087      1920.3708      0.9969611
   2608000  -653.25101      116.80235     -770.05336      308.54147     -804.91869      1920.3708      0.9969611
   2609000  -635.75394      118.33097     -754.08491      312.57944     -2598.1685      1920.3708      0.9969611
   2610000  -657.67854      99.231241     -756.90978      262.12618     -2306.9068      1920.3708      0.9969611
   2611000  -642.33707      103.4436      -745.78067      273.25342      217.39391      1920.3708      0.9969611
   2612000  -659.96136      121.68613     -781.64748      321.44232     -985.8892       1920.3708      0.9969611
   2613000  -647.34831      114.85185     -762.20016      303.38911      355.34436      1920.3708      0.9969611
   2614000  -639.0368       120.99776     -760.03456      319.62395     -632.08103      1920.3708      0.9969611
   2615000  -666.71701      110.71367     -777.43068      292.45782      2211.9837      1920.3708      0.9969611
   2616000  -657.67242      110.18149     -767.8539       291.05201     -1045.132       1920.3708      0.9969611
   2617000  -643.33453      119.28046     -762.61499      315.08758      481.75562      1920.3708      0.9969611
   2618000  -641.50425      120.46457     -761.96882      318.21549      624.6655       1920.3708      0.9969611
   2619000  -647.26909      107.55419     -754.82328      284.11182      1202.9905      1920.3708      0.9969611
   2620000  -638.95896      114.41107     -753.37003      302.22474     -2237.6119      1920.3708      0.9969611
   2621000  -673.68407      102.31613     -776.0002       270.27513      3004.9385      1920.3708      0.9969611
   2622000  -648.43214      110.59452     -759.02666      292.14306     -1193.2174      1920.3708      0.9969611
   2623000  -632.10401      128.14862     -760.25263      338.51344      486.24277      1920.3708      0.9969611
   2624000  -611.91971      114.8432      -726.76291      303.36624      856.89054      1920.3708      0.9969611
   2625000  -666.997        104.85638     -771.85338      276.98537      1520.8408      1920.3708      0.9969611
   2626000  -667.11937      107.18637     -774.30574      283.14021     -110.63284      1920.3708      0.9969611
   2627000  -672.64085      97.744947     -770.3858       258.20003     -1488.278       1920.3708      0.9969611
   2628000  -646.30902      119.87458     -766.1836       316.65699      1240.4337      1920.3708      0.9969611
   2629000  -669.29141      116.43402     -785.72543      307.5685       4509.4343      1920.3708      0.9969611
   2630000  -645.94935      116.22165     -762.171        307.00753      1978.447       1920.3708      0.9969611
   2631000  -666.85584      104.02303     -770.87886      274.78402      441.89171      1920.3708      0.9969611
   2632000  -671.26038      109.1196      -780.37998      288.24698      284.94415      1920.3708      0.9969611
   2633000  -665.18085      115.97468     -781.15554      306.35513      2998.8984      1920.3708      0.9969611
   2634000  -664.33377      109.09656     -773.43032      288.18609      1634.0672      1920.3708      0.9969611
   2635000  -653.54789      105.21403     -758.76192      277.93013     -185.16764      1920.3708      0.9969611
   2636000  -645.41552      112.90495     -758.32047      298.24622     -1862.1457      1920.3708      0.9969611
   2637000  -674.63315      104.4196      -779.05276      275.8316      -1883.5516      1920.3708      0.9969611
   2638000  -628.88335      123.69981     -752.58316      326.7616      -1843.3448      1920.3708      0.9969611
   2639000  -638.87706      130.79265     -769.6697       345.49782      98.510435      1920.3708      0.9969611
   2640000  -634.86482      118.25772     -753.12254      312.38594     -1709.5686      1920.3708      0.9969611
   2641000  -637.27969      127.42302     -764.70271      336.5967       2003.3417      1920.3708      0.9969611
   2642000  -665.20616      110.20807     -775.41423      291.12223      1991.8624      1920.3708      0.9969611
   2643000  -650.75745      118.58314     -769.34059      313.24555     -2081.6913      1920.3708      0.9969611
   2644000  -657.7467       107.15282     -764.89952      283.05157     -792.12435      1920.3708      0.9969611
   2645000  -655.41798      103.05883     -758.47682      272.23703     -132.33422      1920.3708      0.9969611
   2646000  -635.10435      112.72923     -747.83357      297.78204     -779.11953      1920.3708      0.9969611
   2647000  -633.11139      111.31167     -744.42305      294.03746      1104.4861      1920.3708      0.9969611
   2648000  -647.38909      104.50949     -751.89858      276.06904     -36.525542      1920.3708      0.9969611
   2649000  -665.50237      104.3388      -769.84117      275.61814      996.22757      1920.3708      0.9969611
   2650000  -650.00683      108.64317     -758.65         286.98844      1349.9665      1920.3708      0.9969611
   2651000  -633.18661      116.71771     -749.90432      308.31789     -2426.5142      1920.3708      0.9969611
   2652000  -649.57768      105.31668     -754.89436      278.20129     -83.980877      1920.3708      0.9969611
   2653000  -656.39143      110.90092     -767.29236      292.95246     -551.23362      1920.3708      0.9969611
   2654000  -654.39682      118.81532     -773.21214      313.85888      883.13635      1920.3708      0.9969611
   2655000  -646.33049      106.52429     -752.85478      281.39127     -2182.8438      1920.3708      0.9969611
   2656000  -636.45442      112.76369     -749.21811      297.87307     -180.0487       1920.3708      0.9969611
   2657000  -666.17868      115.02638     -781.20506      303.85013      762.48201      1920.3708      0.9969611
   2658000  -642.97869      120.53053     -763.50922      318.38973      4559.6715      1920.3708      0.9969611
   2659000  -654.85824      101.65912     -756.51736      268.5396      -60.742888      1920.3708      0.9969611
   2660000  -625.42557      114.39804     -739.82361      302.19033     -2707.6886      1920.3708      0.9969611
   2661000  -619.45689      123.80182     -743.25871      327.03107      2407.0214      1920.3708      0.9969611
   2662000  -667.59832      100.50183     -768.10015      265.48252      2011.0093      1920.3708      0.9969611
   2663000  -652.20539      118.63829     -770.84368      313.39124      352.97827      1920.3708      0.9969611
   2664000  -659.60821      115.18973     -774.79794      304.28164     -1031.3527      1920.3708      0.9969611
   2665000  -629.10203      111.44062     -740.54265      294.3781      -1645.8452      1920.3708      0.9969611
   2666000  -658.13609      116.04844     -774.18453      306.54998      182.66981      1920.3708      0.9969611
   2667000  -641.28011      109.67711     -750.95722      289.71966      438.63083      1920.3708      0.9969611
   2668000  -663.6428       103.45341     -767.09621      273.27934      1511.7936      1920.3708      0.9969611
   2669000  -658.28746      106.45314     -764.7406       281.20334     -939.41998      1920.3708      0.9969611
   2670000  -635.14882      113.10569     -748.25451      298.77649     -174.65732      1920.3708      0.9969611
   2671000  -661.26908      103.78319     -765.05227      274.15048      1057.9114      1920.3708      0.9969611
   2672000  -627.89992      119.21044     -747.11036      314.90261     -2623.0605      1920.3708      0.9969611
   2673000  -647.47543      110.19812     -757.67355      291.09596     -1108.0737      1920.3708      0.9969611
   2674000  -643.54974      119.19699     -762.74673      314.86708      3015.773       1920.3708      0.9969611
   2675000  -642.55928      106.35354     -748.91282      280.94023      1573.4261      1920.3708      0.9969611
   2676000  -657.27806      106.23618     -763.51424      280.6302       412.53392      1920.3708      0.9969611
   2677000  -681.96187      107.3879      -789.34976      283.67255     -1166.9344      1920.3708      0.9969611
   2678000  -655.2773       114.80154     -770.07884      303.25621      1712.0728      1920.3708      0.9969611
   2679000  -653.26215      127.54486     -780.80701      336.91857      303.39663      1920.3708      0.9969611
   2680000  -645.31955      127.66818     -772.98773      337.24432      2529.6842      1920.3708      0.9969611
   2681000  -669.75722      102.5825      -772.33971      270.97875      734.72237      1920.3708      0.9969611
   2682000  -646.21703      126.51787     -772.7349       334.20569     -1013.0614      1920.3708      0.9969611
   2683000  -641.50973      114.58614     -756.09587      302.68721     -1569.0553      1920.3708      0.9969611
   2684000  -660.57515      111.04671     -771.62186      293.33756     -1199.1781      1920.3708      0.9969611
   2685000  -644.1305       103.94608     -748.07659      274.58077     -1323.8914      1920.3708      0.9969611
   2686000  -654.68708      96.137753     -750.82484      253.95452     -987.27214      1920.3708      0.9969611
   2687000  -650.74186      110.49859     -761.24045      291.88967     -1219.208       1920.3708      0.9969611
   2688000  -631.61342      117.4408      -749.05421      310.22798     -2688.9099      1920.3708      0.9969611
   2689000  -621.94405      133.92211     -755.86615      353.7645      -873.14626      1920.3708      0.9969611
   2690000  -639.24129      120.31849     -759.55978      317.82962      1997.354       1920.3708      0.9969611
   2691000  -647.66705      105.48535     -753.1524       278.64683      241.45698      1920.3708      0.9969611
   2692000  -650.7903       102.20269     -752.99299      269.97547     -986.16853      1920.3708      0.9969611
   2693000  -621.21073      114.25232     -735.46305      301.80539      1073.8779      1920.3708      0.9969611
   2694000  -650.94722      116.65517     -767.60239      308.1527       60.008277      1920.3708      0.9969611
   2695000  -641.65982      109.09825     -750.75808      288.19057     -718.27949      1920.3708      0.9969611
   2696000  -632.90484      114.22708     -747.13193      301.73874     -2329.9472      1920.3708      0.9969611
   2697000  -637.70006      104.33769     -742.03776      275.61523     -910.22734      1920.3708      0.9969611
   2698000  -646.71935      114.21521     -760.93456      301.70736     -223.18369      1920.3708      0.9969611
   2699000  -641.36597      98.472062     -739.83804      260.12076      318.01663      1920.3708      0.9969611
   2700000  -660.0648       105.62928     -765.69408      279.02704      1337.5033      1920.3708      0.9969611
   2701000  -633.32826      124.27463     -757.60288      328.28001     -1565.2466      1920.3708      0.9969611
   2702000  -632.42248      111.08601     -743.50849      293.44139     -1973.9698      1920.3708      0.9969611
   2703000  -636.61591      123.45197     -760.06788      326.10691     -534.3855       1920.3708      0.9969611
   2704000  -642.17586      116.76969     -758.94555      308.4552       1355.3989      1920.3708      0.9969611
   2705000  -645.90237      127.01437     -772.91673      335.51723      357.76359      1920.3708      0.9969611
   2706000  -656.11229      120.09257     -776.20486      317.23283      907.79546      1920.3708      0.9969611
   2707000  -656.56806      119.18236     -775.75042      314.82844     -663.46437      1920.3708      0.9969611
   2708000  -652.41751      108.17362     -760.59113      285.74811      128.89622      1920.3708      0.9969611
   2709000  -661.27931      104.6406      -765.91991      276.41537     -2905.5065      1920.3708      0.9969611
   2710000  -665.78836      110.46835     -776.25671      291.80979     -1033.339       1920.3708      0.9969611
   2711000  -634.27273      120.92478     -755.19751      319.43116      922.82851      1920.3708      0.9969611
   2712000  -642.18829      115.92774     -758.11603      306.23113     -667.86029      1920.3708      0.9969611
   2713000  -637.35359      126.25412     -763.60771      333.50898      4228.7244      1920.3708      0.9969611
   2714000  -666.9112       110.73621     -777.64741      292.51736      241.32552      1920.3708      0.9969611
   2715000  -644.89698      127.80718     -772.70416      337.6115       4629.04        1920.3708      0.9969611
   2716000  -649.79572      123.60691     -773.40262      326.51619      1573.0287      1920.3708      0.9969611
   2717000  -637.93645      117.08091     -755.01737      309.27732     -1949.9797      1920.3708      0.9969611
   2718000  -642.31441      119.98562     -762.30003      316.95031     -976.9802       1920.3708      0.9969611
   2719000  -648.78973      106.44668     -755.23641      281.18627     -1113.8569      1920.3708      0.9969611
   2720000  -638.23633      124.41212     -762.64846      328.64322     -2271.5031      1920.3708      0.9969611
   2721000  -620.46836      120.35381     -740.82217      317.92289     -399.43045      1920.3708      0.9969611
   2722000  -652.03594      114.94509     -766.98103      303.6354       1086.7892      1920.3708      0.9969611
   2723000  -650.07185      107.05741     -757.12926      282.79955     -29.069945      1920.3708      0.9969611
   2724000  -649.67985      118.33136     -768.01121      312.58048      1918.3892      1920.3708      0.9969611
   2725000  -651.79224      127.49376     -779.286        336.78358     -970.22054      1920.3708      0.9969611
   2726000  -655.00157      113.83147     -768.83304      300.6937       918.2224       1920.3708      0.9969611
   2727000  -635.87312      117.31461     -753.18772      309.89464      2162.3734      1920.3708      0.9969611
   2728000  -673.51317      103.518       -777.03117      273.44995      394.9288       1920.3708      0.9969611
   2729000  -639.65436      115.46097     -755.11534      304.99813     -1848.8257      1920.3708      0.9969611
   2730000  -672.73536      108.69949     -781.43485      287.13722     -38.077841      1920.3708      0.9969611
   2731000  -654.86289      112.52142     -767.38432      297.23312     -388.23222      1920.3708      0.9969611
   2732000  -648.89932      112.71779     -761.61711      297.75184      3618.076       1920.3708      0.9969611
   2733000  -666.8792       99.933439     -766.81264      263.98108      1897.2063      1920.3708      0.9969611
   2734000  -653.04978      101.35864     -754.40842      267.74585     -587.51301      1920.3708      0.9969611
   2735000  -645.5463       87.206126     -732.75243      230.36101      309.77995      1920.3708      0.9969611
   2736000  -627.985        126.39613     -754.38113      333.88411     -156.73055      1920.3708      0.9969611
   2737000  -661.2425       100.33722     -761.57971      265.04769     -1469.5188      1920.3708      0.9969611
   2738000  -663.09313      108.40023     -771.49336      286.3467      -155.16273      1920.3708      0.9969611
   2739000  -639.56428      115.02024     -754.58452      303.83391      557.098        1920.3708      0.9969611
   2740000  -671.80929      105.16777     -776.97706      277.80792     -770.31024      1920.3708      0.9969611
   2741000  -667.39897      100.38444     -767.7834       265.17243      325.54151      1920.3708      0.9969611
   2742000  -628.0131       125.10937     -753.12247      330.48505      1978.2736      1920.3708      0.9969611
   2743000  -654.1015       108.05723     -762.15873      285.44064     -1209.574       1920.3708      0.9969611
   2744000  -641.18057      108.72033     -749.9009       287.19226     -2100.6411      1920.3708      0.9969611
   2745000  -641.8276       109.16129     -750.9889       288.3571       273.75641      1920.3708      0.9969611
   2746000  -627.31945      129.76145     -757.0809       342.77385      76.019957      1920.3708      0.9969611
   2747000  -653.28595      111.6965      -764.98245      295.05402     -862.72021      1920.3708      0.9969611
   2748000  -694.40186      91.586018     -785.98788      241.9308      -1150.7387      1920.3708      0.9969611
   2749000  -654.13473      112.78163     -766.91637      297.92048      221.55958      1920.3708      0.9969611
   2750000  -651.59771      112.52093     -764.11864      297.23181     -1098.6208      1920.3708      0.9969611
   2751000  -662.96883      103.98328     -766.95211      274.67901     -1931.1493      1920.3708      0.9969611
   2752000  -693.89603      107.61885     -801.51487      284.28262     -1451.8329      1920.3708      0.9969611
   2753000  -674.90502      120.27153     -795.17655      317.70555      922.77564      1920.3708      0.9969611
   2754000  -657.31567      115.87919     -773.19486      306.10289     -1918.6168      1920.3708      0.9969611
   2755000  -672.69092      106.87387     -779.5648       282.31472     -2119.1864      1920.3708      0.9969611
   2756000  -636.45487      108.78131     -745.23617      287.35334      3662.7267      1920.3708      0.9969611
   2757000  -633.0983       123.44278     -756.54108      326.08264     -1161.57        1920.3708      0.9969611
   2758000  -667.86873      117.51302     -785.38175      310.41877      389.98684      1920.3708      0.9969611
   2759000  -621.52661      124.85718     -746.38379      329.81887      472.55197      1920.3708      0.9969611
   2760000  -649.58043      119.51992     -769.10035      315.72013     -376.84916      1920.3708      0.9969611
   2761000  -646.53912      109.91519     -756.45431      290.34856      311.80716      1920.3708      0.9969611
   2762000  -652.49876      113.56824     -766.067        299.99835      1038.6363      1920.3708      0.9969611
   2763000  -644.97917      99.169688     -744.14886      261.96358      41.23256       1920.3708      0.9969611
   2764000  -645.16137      112.30699     -757.46836      296.66669      1656.5528      1920.3708      0.9969611
   2765000  -649.62564      116.34362     -765.96925      307.3297       430.09781      1920.3708      0.9969611
   2766000  -630.91954      120.24757     -751.16711      317.64228      846.3611       1920.3708      0.9969611
   2767000  -659.40818      114.86785     -774.27603      303.43136     -640.35736      1920.3708      0.9969611
   2768000  -650.62252      110.5387      -761.16122      291.99562     -108.80329      1920.3708      0.9969611
   2769000  -636.28451      117.07173     -753.35624      309.25308      359.53024      1920.3708      0.9969611
   2770000  -657.09597      89.53467      -746.63064      236.51202     -66.688606      1920.3708      0.9969611
   2771000  -636.48299      121.13112     -757.61411      319.97622      2111.8856      1920.3708      0.9969611
   2772000  -649.58611      104.80535     -754.39147      276.85059     -696.56993      1920.3708      0.9969611
   2773000  -638.86447      115.18777     -754.05224      304.27646      1770.2234      1920.3708      0.9969611
   2774000  -641.92553      104.84109     -746.76662      276.94497      1309.1623      1920.3708      0.9969611
   2775000  -654.96737      110.04531     -765.01268      290.69229     -254.57678      1920.3708      0.9969611
   2776000  -655.25029      101.00404     -756.25432      266.80914     -943.81431      1920.3708      0.9969611
   2777000  -639.67521      119.62243     -759.29764      315.99091     -603.51337      1920.3708      0.9969611
   2778000  -659.11567      106.08501     -765.20068      280.23089      1143.5983      1920.3708      0.9969611
   2779000  -668.33343      99.721564     -768.05499      263.4214      -153.55539      1920.3708      0.9969611
   2780000  -661.56198      119.6075      -781.16948      315.95148      515.63229      1920.3708      0.9969611
   2781000  -624.40824      122.25596     -746.66419      322.94756     -1963.0854      1920.3708      0.9969611
   2782000  -648.0244       127.61849     -775.64289      337.11306     -932.15286      1920.3708      0.9969611
   2783000  -638.7369       118.26837     -757.00527      312.41406      2064.4124      1920.3708      0.9969611
   2784000  -616.19237      136.55982     -752.75218      360.73219      2183.3556      1920.3708      0.9969611
   2785000  -627.15346      119.88163     -747.03509      316.67561      367.42763      1920.3708      0.9969611
   2786000  -644.72064      123.23217     -767.95281      325.52629     -1303.8486      1920.3708      0.9969611
   2787000  -669.22852      101.51351     -770.74203      268.15494     -773.54899      1920.3708      0.9969611
   2788000  -680.76925      107.7308      -788.50005      284.57835      3040.6985      1920.3708      0.9969611
   2789000  -639.22445      120.79534     -760.01978      319.08923      2698.3991      1920.3708      0.9969611
   2790000  -674.43365      103.79997     -778.23363      274.19481      1574.0579      1920.3708      0.9969611
   2791000  -628.18481      119.59043     -747.77525      315.90639      2191.7628      1920.3708      0.9969611
   2792000  -642.35041      103.28774     -745.63815      272.84171     -478.87046      1920.3708      0.9969611
   2793000  -601.86896      117.47648     -719.34543      310.32223     -108.14466      1920.3708      0.9969611
   2794000  -652.03978      105.46336     -757.50313      278.58874     -2895.3625      1920.3708      0.9969611
   2795000  -613.85528      118.70146     -732.55674      313.55811     -1332.611       1920.3708      0.9969611
   2796000  -649.66636      107.35279     -757.01915      283.57981      481.88925      1920.3708      0.9969611
   2797000  -651.88557      115.63017     -767.51575      305.4451      -2000.9861      1920.3708      0.9969611
   2798000  -628.21405      123.4794      -751.69344      326.17937      241.44622      1920.3708      0.9969611
   2799000  -647.74465      132.54554     -780.29018      350.1282      -747.62262      1920.3708      0.9969611
   2800000  -658.12098      116.64604     -774.76702      308.12857     -396.14544      1920.3708      0.9969611
   2801000  -636.19633      122.56684     -758.76317      323.76878     -507.46325      1920.3708      0.9969611
   2802000  -626.96292      121.03656     -747.99949      319.72645      734.70884      1920.3708      0.9969611
   2803000  -626.39597      112.24051     -738.63648      296.49106     -0.80276382     1920.3708      0.9969611
   2804000  -663.52196      111.15931     -774.68127      293.63499     -1925.9292      1920.3708      0.9969611
   2805000  -646.31147      111.51655     -757.82802      294.57868      1452.1996      1920.3708      0.9969611
   2806000  -639.79178      105.48485     -745.27663      278.64552      393.62139      1920.3708      0.9969611
   2807000  -601.617        133.23984     -734.85684      351.96226      1069.7985      1920.3708      0.9969611
   2808000  -635.26882      115.92442     -751.19324      306.22236     -1134.1783      1920.3708      0.9969611
   2809000  -661.32327      116.92881     -778.25208      308.87554      757.67641      1920.3708      0.9969611
   2810000  -661.2053       104.02209     -765.22739      274.78153     -3497.2525      1920.3708      0.9969611
   2811000  -659.5613       112.91336     -772.47467      298.26846     -61.016629      1920.3708      0.9969611
   2812000  -641.05561      117.69399     -758.7496       310.89681      738.39317      1920.3708      0.9969611
   2813000  -648.01261      119.77246     -767.78507      316.38723      523.02189      1920.3708      0.9969611
   2814000  -661.16692      98.165633     -759.33255      259.3113      -720.09892      1920.3708      0.9969611
   2815000  -632.55283      107.40788     -739.96072      283.72535      2353.0677      1920.3708      0.9969611
   2816000  -646.40069      101.88242     -748.28311      269.12945     -187.83453      1920.3708      0.9969611
   2817000  -644.86559      103.56568     -748.43127      273.57589     -272.04707      1920.3708      0.9969611
   2818000  -645.23239      104.96207     -750.19446      277.26455      479.21799      1920.3708      0.9969611
   2819000  -657.74446      111.00687     -768.75133      293.23231     -1054.5433      1920.3708      0.9969611
   2820000  -625.54032      112.13558     -737.67589      296.21387     -707.92553      1920.3708      0.9969611
   2821000  -627.96237      111.83042     -739.79279      295.40778     -203.14843      1920.3708      0.9969611
   2822000  -647.31209      118.68452     -765.9966       313.51335     -1933.752       1920.3708      0.9969611
   2823000  -655.87         104.27463     -760.14463      275.44865     -1880.9428      1920.3708      0.9969611
   2824000  -638.97948      111.36289     -750.34237      294.17277     -244.0349       1920.3708      0.9969611
   2825000  -646.94474      116.18725     -763.13199      306.91665      1986.9762      1920.3708      0.9969611
   2826000  -640.91237      121.77001     -762.68238      321.66389     -2681.1335      1920.3708      0.9969611
   2827000  -666.45197      105.30236     -771.75433      278.16347      424.55606      1920.3708      0.9969611
   2828000  -637.60463      119.13841     -756.74303      314.71234     -158.62252      1920.3708      0.9969611
   2829000  -658.72899      101.88347     -760.61246      269.13224     -626.75858      1920.3708      0.9969611
   2830000  -636.95106      118.28952     -755.24058      312.46993      2332.7154      1920.3708      0.9969611
   2831000  -674.30224      98.721489     -773.02372      260.77964     -2453.5132      1920.3708      0.9969611
   2832000  -639.34851      120.98377     -760.33228      319.587       -1278.9599      1920.3708      0.9969611
   2833000  -658.94356      103.39608     -762.33964      273.12789     -1390.2196      1920.3708      0.9969611
   2834000  -652.56235      118.60829     -771.17064      313.312        1547.9502      1920.3708      0.9969611
   2835000  -660.93788      111.74516     -772.68305      295.18257     -2466.0184      1920.3708      0.9969611
   2836000  -632.34911      120.6515      -753.00061      318.70928     -1130.5359      1920.3708      0.9969611
   2837000  -662.20682      111.88201     -774.08883      295.54406     -290.74324      1920.3708      0.9969611
   2838000  -646.17574      121.29323     -767.46897      320.40445     -1319.9928      1920.3708      0.9969611
   2839000  -654.15142      113.16812     -767.31954      298.94142     -103.26314      1920.3708      0.9969611
   2840000  -667.48971      107.13885     -774.62856      283.01468     -2281.392       1920.3708      0.9969611
   2841000  -650.37339      118.29622     -768.66961      312.48764     -861.69841      1920.3708      0.9969611
   2842000  -651.18402      117.9811      -769.16512      311.65522      476.7401       1920.3708      0.9969611
   2843000  -667.68174      101.71563     -769.39737      268.68887      474.54958      1920.3708      0.9969611
   2844000  -663.64825      106.19531     -769.84356      280.52226     -1631.1057      1920.3708      0.9969611
   2845000  -651.2041       118.40042     -769.60452      312.7629      -768.77712      1920.3708      0.9969611
   2846000  -661.42066      111.59609     -773.01676      294.78879      350.2464       1920.3708      0.9969611
   2847000  -657.83746      120.33842     -778.17588      317.88225      712.73426      1920.3708      0.9969611
   2848000  -663.49583      111.29002     -774.78585      293.98028     -2421.0753      1920.3708      0.9969611
   2849000  -660.39084      106.92639     -767.31724      282.45346      2358.1857      1920.3708      0.9969611
   2850000  -637.72338      127.18536     -764.90874      335.96893      892.08897      1920.3708      0.9969611
   2851000  -655.30865      109.74724     -765.05589      289.90491     -2063.1362      1920.3708      0.9969611
   2852000  -644.17283      115.0705      -759.24332      303.96667     -2156.2201      1920.3708      0.9969611
   2853000  -634.90966      120.57289     -755.48255      318.50162     -4185.2114      1920.3708      0.9969611
   2854000  -635.24675      109.25899     -744.50574      288.61518     -1623.5116      1920.3708      0.9969611
   2855000  -645.20832      110.61264     -755.82096      292.19094     -1655.1446      1920.3708      0.9969611
   2856000  -649.4492       105.59104     -755.04024      278.92602     -803.20329      1920.3708      0.9969611
   2857000  -649.45654      99.384206     -748.84074      262.53025     -1364.1607      1920.3708      0.9969611
   2858000  -644.02778      125.17331     -769.2011       330.65396     -1055.7359      1920.3708      0.9969611
   2859000  -634.51181      114.00356     -748.51537      301.14829     -1252.3893      1920.3708      0.9969611
   2860000  -623.89297      118.91628     -742.80925      314.12558      987.37664      1920.3708      0.9969611
   2861000  -648.14007      108.25614     -756.39621      285.96608      506.71153      1920.3708      0.9969611
   2862000  -642.26105      115.40145     -757.66251      304.84091      1051.1838      1920.3708      0.9969611
   2863000  -667.42064      103.43078     -770.85142      273.21956      605.06141      1920.3708      0.9969611
   2864000  -628.84214      112.72249     -741.56463      297.76424      1898.9441      1920.3708      0.9969611
   2865000  -639.79889      127.40608     -767.20496      336.55195     -1717.3537      1920.3708      0.9969611
   2866000  -637.6713       102.67425     -740.34554      271.22112     -778.62671      1920.3708      0.9969611
   2867000  -650.10194      98.502843     -748.60478      260.20207      689.29337      1920.3708      0.9969611
   2868000  -627.86603      113.63966     -741.50569      300.187        593.95457      1920.3708      0.9969611
   2869000  -647.27323      110.20804     -757.48127      291.12217      2347.5263      1920.3708      0.9969611
   2870000  -645.61957      100.91515     -746.53472      266.57433     -1855.9549      1920.3708      0.9969611
   2871000  -651.1038       119.80585     -770.90965      316.47544      2103.9267      1920.3708      0.9969611
   2872000  -650.20364      117.30026     -767.50389      309.85673      1458.7147      1920.3708      0.9969611
   2873000  -662.45539      106.64148     -769.09687      281.70084     -1150.8311      1920.3708      0.9969611
   2874000  -648.76284      113.10414     -761.86697      298.7724       4250.5843      1920.3708      0.9969611
   2875000  -664.75008      113.54516     -778.29525      299.9374      -247.57624      1920.3708      0.9969611
   2876000  -632.98112      128.42869     -761.40981      339.25326     -2016.0521      1920.3708      0.9969611
   2877000  -664.82418      114.4644      -779.28858      302.36563      940.23414      1920.3708      0.9969611
   2878000  -651.11033      109.47059     -760.58092      289.17414     -1009.8106      1920.3708      0.9969611
   2879000  -674.12303      105.29334     -779.41638      278.13964      683.24661      1920.3708      0.9969611
   2880000  -656.11382      123.54605     -779.65987      326.35544      297.29352      1920.3708      0.9969611
   2881000  -639.85619      114.18207     -754.03826      301.61982     -880.49386      1920.3708      0.9969611
   2882000  -651.80544      111.9565      -763.76194      295.74082      411.31581      1920.3708      0.9969611
   2883000  -636.25446      117.11763     -753.37209      309.37432     -848.14198      1920.3708      0.9969611
   2884000  -644.95135      115.87656     -760.82791      306.09595      534.0602       1920.3708      0.9969611
   2885000  -663.97941      104.94794     -768.92735      277.22723     -89.766187      1920.3708      0.9969611
   2886000  -647.19199      104.23811     -751.4301       275.35218      1525.7366      1920.3708      0.9969611
   2887000  -648.71123      99.298988     -748.01022      262.30514     -18.091954      1920.3708      0.9969611
   2888000  -660.21275      108.40903     -768.62178      286.36995     -401.94988      1920.3708      0.9969611
   2889000  -633.54762      123.32976     -756.87738      325.78409     -1000.3146      1920.3708      0.9969611
   2890000  -665.45242      110.51023     -775.96265      291.92041      1230.5703      1920.3708      0.9969611
   2891000  -658.95539      100.15692     -759.11231      264.57143      118.15366      1920.3708      0.9969611
   2892000  -635.45742      110.29499     -745.75241      291.35183      233.29502      1920.3708      0.9969611
   2893000  -646.06825      97.435924     -743.50417      257.38373      396.88606      1920.3708      0.9969611
   2894000  -670.30345      104.85445     -775.1579       276.98029      1191.2997      1920.3708      0.9969611
   2895000  -637.98575      117.08084     -755.06659      309.27713     -1499.869       1920.3708      0.9969611
   2896000  -643.13189      108.21608     -751.34797      285.86026     -282.47675      1920.3708      0.9969611
   2897000  -635.31457      111.83759     -747.15215      295.42672     -429.81869      1920.3708      0.9969611
   2898000  -637.3071       110.05094     -747.35804      290.70717     -2531.3057      1920.3708      0.9969611
   2899000  -623.83792      124.37599     -748.21391      328.54778      1633.3406      1920.3708      0.9969611
   2900000  -643.11727      110.60146     -753.71873      292.1614       1646.7705      1920.3708      0.9969611
   2901000  -616.08969      128.90671     -744.9964       340.51599      1538.4058      1920.3708      0.9969611
   2902000  -640.70418      118.9695      -759.67368      314.26616      2526.8882      1920.3708      0.9969611
   2903000  -640.708        103.12458     -743.83259      272.41071     -412.0677       1920.3708      0.9969611
   2904000  -605.60424      123.83208     -729.43631      327.11099     -712.81607      1920.3708      0.9969611
   2905000  -646.60135      113.45804     -760.05939      299.70725     -79.203843      1920.3708      0.9969611
   2906000  -646.5007       103.18524     -749.68593      272.57093      1749.193       1920.3708      0.9969611
   2907000  -653.54719      113.22103     -766.76822      299.08119      256.0508       1920.3708      0.9969611
   2908000  -630.34451      114.89897     -745.24348      303.51356      1009.5599      1920.3708      0.9969611
   2909000  -671.68105      106.51434     -778.19539      281.365        117.94894      1920.3708      0.9969611
   2910000  -641.73137      108.20937     -749.94074      285.84254     -3431.9212      1920.3708      0.9969611
   2911000  -648.13669      113.27609     -761.41278      299.22662      394.16187      1920.3708      0.9969611
   2912000  -656.86952      114.02708     -770.8966       301.2104      -1519.5866      1920.3708      0.9969611
   2913000  -634.23991      137.97341     -772.21332      364.46631      1257.3071      1920.3708      0.9969611
   2914000  -647.25712      124.17721     -771.43434      328.02269      3956.7778      1920.3708      0.9969611
   2915000  -636.3657       98.113084     -734.47879      259.17249     -1409.022       1920.3708      0.9969611
   2916000  -650.01629      122.66152     -772.67781      324.01889     -716.44786      1920.3708      0.9969611
   2917000  -631.89957      125.26571     -757.16528      330.89804      116.43847      1920.3708      0.9969611
   2918000  -645.84542      123.42651     -769.27192      326.03965     -660.52644      1920.3708      0.9969611
   2919000  -647.86986      114.04867     -761.91853      301.26745      1057.8468      1920.3708      0.9969611
   2920000  -663.24204      98.060855     -761.30289      259.03453     -817.49144      1920.3708      0.9969611
   2921000  -645.36778      123.361       -768.72877      325.8666       680.67518      1920.3708      0.9969611
   2922000  -648.2877       107.87797     -756.16567      284.96711      3316.1551      1920.3708      0.9969611
   2923000  -616.9979       110.47955     -727.47746      291.83938      3184.0515      1920.3708      0.9969611
   2924000  -636.02295      107.31517     -743.33812      283.48043     -772.89541      1920.3708      0.9969611
   2925000  -653.71305      112.12427     -765.83732      296.184        264.4877       1920.3708      0.9969611
   2926000  -628.23937      121.04706     -749.28644      319.75418     -1914.6139      1920.3708      0.9969611
   2927000  -656.21523      99.220443     -755.43567      262.09766     -306.63154      1920.3708      0.9969611
   2928000  -637.36585      110.27092     -747.63677      291.28827      54.730286      1920.3708      0.9969611
   2929000  -664.18505      112.91812     -777.10317      298.28101     -983.62854      1920.3708      0.9969611
   2930000  -636.29135      126.10532     -762.39668      333.11593      594.56336      1920.3708      0.9969611
   2931000  -651.74129      119.16639     -770.90769      314.78626      2643.4122      1920.3708      0.9969611
   2932000  -661.02578      105.12751     -766.15329      277.70159     -233.47585      1920.3708      0.9969611
   2933000  -666.16429      119.28882     -785.45311      315.10965     -2016.2837      1920.3708      0.9969611
   2934000  -634.20459      125.47646     -759.68105      331.45473      2194.3608      1920.3708      0.9969611
   2935000  -625.0779       135.5446      -760.6225       358.05044      7.8994937      1920.3708      0.9969611
   2936000  -648.02831      116.15595     -764.18427      306.83398      2412.754       1920.3708      0.9969611
   2937000  -636.04585      102.02545     -738.0713       269.50728     -481.11851      1920.3708      0.9969611
   2938000  -634.70029      105.63        -740.33029      279.02896     -781.27768      1920.3708      0.9969611
   2939000  -677.64646      106.84044     -784.4869       282.22641      1844.1753      1920.3708      0.9969611
   2940000  -675.93966      104.34279     -780.28245      275.6287      -189.47956      1920.3708      0.9969611
   2941000  -667.57587      116.19711     -783.77298      306.94269     -1523.4382      1920.3708      0.9969611
   2942000  -650.46548      111.05541     -761.52088      293.36053      249.71399      1920.3708      0.9969611
   2943000  -679.17857      101.61675     -780.79532      268.42766     -333.54381      1920.3708      0.9969611
   2944000  -670.08573      95.958688     -766.04442      253.4815      -1487.8738      1920.3708      0.9969611
   2945000  -626.58912      115.61124     -742.20036      305.39508      469.16638      1920.3708      0.9969611
   2946000  -666.65102      99.657451     -766.30847      263.25204     -1057.4041      1920.3708      0.9969611
   2947000  -648.90649      98.072148     -746.97864      259.06436     -2724.5301      1920.3708      0.9969611
   2948000  -663.97161      121.47833     -785.44994      320.89341     -3564.8643      1920.3708      0.9969611
   2949000  -650.81125      116.39644     -767.2077       307.46925     -2741.1301      1920.3708      0.9969611
   2950000  -637.3819       117.56902     -754.95093      310.56669     -1708.4675      1920.3708      0.9969611
   2951000  -652.7076       109.70748     -762.41509      289.7999       820.17495      1920.3708      0.9969611
   2952000  -642.26265      101.21031     -743.47296      267.35402      1728.7062      1920.3708      0.9969611
   2953000  -649.96011      117.47652     -767.43663      310.32234     -143.34722      1920.3708      0.9969611
   2954000  -647.02851      115.84735     -762.87586      306.01878      2797.453       1920.3708      0.9969611
   2955000  -659.58396      122.40741     -781.99136      323.34762     -3246.6288      1920.3708      0.9969611
   2956000  -639.24186      115.9246      -755.16646      306.22285      1381.5694      1920.3708      0.9969611
   2957000  -655.87506      115.37743     -771.25249      304.77747     -2825.5673      1920.3708      0.9969611
   2958000  -637.77937      122.5187      -760.29807      323.64162      2076.1143      1920.3708      0.9969611
   2959000  -641.05274      116.31413     -757.36687      307.2518      -2009.9899      1920.3708      0.9969611
   2960000  -636.39689      118.19238     -754.58927      312.21334      418.76519      1920.3708      0.9969611
   2961000  -635.13719      120.8202      -755.95739      319.1549      -127.2631       1920.3708      0.9969611
   2962000  -626.34159      116.73476     -743.07635      308.36295     -157.73715      1920.3708      0.9969611
   2963000  -641.88259      107.72729     -749.60988      284.56907     -980.09219      1920.3708      0.9969611
   2964000  -596.43078      124.88967     -721.32046      329.90471     -34.188567      1920.3708      0.9969611
   2965000  -657.7141       119.55946     -777.27356      315.82457      765.71933      1920.3708      0.9969611
   2966000  -671.23645      93.677374     -764.91382      247.45526      3906.48        1920.3708      0.9969611
   2967000  -658.14105      110.97164     -769.1127       293.13927     -635.91893      1920.3708      0.9969611
   2968000  -627.57621      126.50106     -754.07727      334.1613      -598.60761      1920.3708      0.9969611
   2969000  -626.69031      109.41898     -736.10928      289.03778     -225.2668       1920.3708      0.9969611
   2970000  -670.36551      109.65594     -780.02144      289.66374     -1727.5389      1920.3708      0.9969611
   2971000  -655.23114      118.27208     -773.50322      312.42388      1816.5308      1920.3708      0.9969611
   2972000  -673.98265      117.54639     -791.52904      310.50691      1265.6883      1920.3708      0.9969611
   2973000  -658.84702      113.55022     -772.39724      299.95076     -807.53762      1920.3708      0.9969611
   2974000  -661.86477      115.88337     -777.74814      306.11393      915.24606      1920.3708      0.9969611
   2975000  -662.98735      103.36145     -766.3488       273.03642     -350.22038      1920.3708      0.9969611
   2976000  -630.17613      110.89223     -741.06836      292.9295      -411.36177      1920.3708      0.9969611
   2977000  -633.6103       111.45407     -745.06437      294.41363     -391.11243      1920.3708      0.9969611
   2978000  -645.42791      121.84935     -767.27726      321.87348      1220.8974      1920.3708      0.9969611
   2979000  -622.8045       120.56721     -743.37172      318.48663     -1030.9439      1920.3708      0.9969611
   2980000  -640.41153      115.899       -756.31053      306.15521     -710.76227      1920.3708      0.9969611
   2981000  -641.60805      118.32608     -759.93412      312.56651      3438.6891      1920.3708      0.9969611
   2982000  -665.98617      100.03436     -766.02054      264.24769      1076.0644      1920.3708      0.9969611
   2983000  -634.07465      112.85357     -746.92822      298.11051      1771.8271      1920.3708      0.9969611
   2984000  -640.78054      104.92071     -745.70125      277.1553       1668.6341      1920.3708      0.9969611
   2985000  -634.26805      127.76028     -762.02833      337.4876       2832.5071      1920.3708      0.9969611
   2986000  -646.89508      115.09715     -761.99223      304.03707     -637.29675      1920.3708      0.9969611
   2987000  -660.4065       116.65754     -777.06404      308.15896     -1926.4606      1920.3708      0.9969611
   2988000  -670.63315      106.57389     -777.20704      281.52229     -438.62452      1920.3708      0.9969611
   2989000  -631.10126      118.7445      -749.84576      313.67182      817.18387      1920.3708      0.9969611
   2990000  -657.01901      103.97938     -760.99839      274.66873     -2760.4783      1920.3708      0.9969611
   2991000  -643.27864      110.35024     -753.62888      291.4978      -805.24159      1920.3708      0.9969611
   2992000  -649.17187      108.64288     -757.81475      286.98767     -417.92306      1920.3708      0.9969611
   2993000  -663.94671      106.67199     -770.6187       281.78143     -2073.3314      1920.3708      0.9969611
   2994000  -625.68579      117.78366     -743.46945      311.13367      1326.7091      1920.3708      0.9969611
   2995000  -629.65426      111.26462     -740.91889      293.91319     -1023.2241      1920.3708      0.9969611
   2996000  -658.46213      115.47157     -773.9337       305.02613     -4146.5321      1920.3708      0.9969611
   2997000  -637.96404      115.39526     -753.35931      304.82456     -2726.4669      1920.3708      0.9969611
   2998000  -642.44741      120.20422     -762.65163      317.52776     -652.81333      1920.3708      0.9969611
   2999000  -673.71933      106.40308     -780.12241      281.07109      1082.719       1920.3708      0.9969611
   3000000  -654.85827      107.26406     -762.12233      283.34543     -523.12676      1920.3708      0.9969611
Loop time of 1782.07 on 1 procs for 2000000 steps with 192 atoms

Performance: 96.966 ns/day, 0.248 hours/ns, 1122.292 timesteps/s
99.7% CPU use with 1 MPI tasks x 1 OpenMP threads

MPI task timing breakdown:
Section |  min time  |  avg time  |  max time  |%varavg| %total
---------------------------------------------------------------
Pair    | 1431.6     | 1431.6     | 1431.6     |   0.0 | 80.33
Bond    | 0.11118    | 0.11118    | 0.11118    |   0.0 |  0.01
Kspace  | 225.22     | 225.22     | 225.22     |   0.0 | 12.64
Neigh   | 71.575     | 71.575     | 71.575     |   0.0 |  4.02
Comm    | 27.148     | 27.148     | 27.148     |   0.0 |  1.52
Output  | 0.47646    | 0.47646    | 0.47646    |   0.0 |  0.03
Modify  | 21.345     | 21.345     | 21.345     |   0.0 |  1.20
Other   |            | 4.614      |            |       |  0.26

Nlocal:            192 ave         192 max         192 min
Histogram: 1 0 0 0 0 0 0 0 0 0
Nghost:           4602 ave        4602 max        4602 min
Histogram: 1 0 0 0 0 0 0 0 0 0
Neighs:          69158 ave       69158 max       69158 min
Histogram: 1 0 0 0 0 0 0 0 0 0

Total # of neighbors = 69158
Ave neighs/atom = 360.19792
Ave special neighs/atom = 2
Neighbor list builds = 55922
Dangerous builds = 0

# write data file
write_data data.after_prod.lmp
System init for write_data ...
PPPM initialization ...
  using 12-bit tables for long-range coulomb (src/kspace.cpp:342)
  G vector (1/distance) = 0.31260513
  grid = 12 12 12
  stencil order = 5
  estimated absolute RMS force accuracy = 0.0021455329
  estimated relative force accuracy = 6.4612085e-06
  using double precision FFTW3
  3d grid and FFT values/proc = 6859 1728
Generated 1 of 1 mixed pair_coeff terms from geometric mixing rule

# clean up
undump dPROD
unfix fTHERMO
unfix fMOM
unfix fSHAKE
Total wall time: 0:44:40
