LAMMPS (23 Jun 2022 - Update 4)
  using 1 OpenMP thread(s) per MPI task
# created by fftool

# System settings
units real
boundary p p p  # Periodic boundary conditions

# definition of atoms, bonds, angles
atom_style full
bond_style harmonic
angle_style harmonic

# definition of pair potentials
special_bonds lj/coul 0.0 0.0 0.5
pair_style lj/cut/coul/long 10.0 10.0
pair_modify mix geometric tail yes
kspace_style pppm 1.0e-5

# read data file
read_data data.lmp
Reading data file ...
  orthogonal box = (0 0 0) to (9.865483 9.865483 9.865483)
  1 by 1 by 1 MPI processor grid
  reading atoms ...
  96 atoms
  scanning bonds ...
  1 = max bonds/atom
  scanning angles ...
  1 = max angles/atom
  reading bonds ...
  64 bonds
  reading angles ...
  32 angles
Finding 1-2 1-3 1-4 neighbors ...
  special bond factors lj:    0        0        0.5
  special bond factors coul:  0        0        0.5
     2 = max # of 1-2 neighbors
     1 = max # of 1-3 neighbors
     1 = max # of 1-4 neighbors
     2 = max # of special neighbors
  special bonds CPU = 0.001 seconds
  read_data CPU = 0.006 seconds

# definition of LJ parameters
pair_coeff    1    1     0.000000     0.000000  # Hw Hw
pair_coeff    2    2     0.162876     3.153970  # Ow-Ow

############################################

# remove energy hotspots
minimize 1.0e-4 1.0e-6 100 1000
WARNING: Using 'neigh_modify every 1 delay 0 check yes' setting during minimization (src/min.cpp:187)
PPPM initialization ...
  using 12-bit tables for long-range coulomb (src/kspace.cpp:342)
  G vector (1/distance) = 0.30847861
  grid = 9 9 9
  stencil order = 5
  estimated absolute RMS force accuracy = 0.0027675926
  estimated relative force accuracy = 8.334523e-06
  using double precision FFTW3
  3d grid and FFT values/proc = 4096 729
Generated 1 of 1 mixed pair_coeff terms from geometric mixing rule
Neighbor list info ...
  update every 1 steps, delay 0 steps, check yes
  max neighbors/atom: 2000, page size: 100000
  master list distance cutoff = 12
  ghost atom cutoff = 12
  binsize = 6, bins = 2 2 2
  1 neighbor lists, perpetual/occasional/extra = 1 0 0
  (1) pair lj/cut/coul/long, perpetual
      attributes: half, newton on
      pair build: half/bin/newton
      stencil: half/bin/3d
      bin: standard
Per MPI rank memory allocation (min/avg/max) = 8.326 | 8.326 | 8.326 Mbytes
   Step          Temp          E_pair         E_mol          TotEng         Press
         0   0              699783.11      7.0695082e-09  699783.11      1.9998962e+08
       100   0             -490.08551      42.297697     -447.78782     -8022.9707
Loop time of 0.107469 on 1 procs for 100 steps with 96 atoms

99.6% CPU use with 1 MPI tasks x 1 OpenMP threads

Minimization stats:
  Stopping criterion = max iterations
  Energy initial, next-to-last, final =
      699783.109607733  -447.544892323257  -447.787815809309
  Force two-norm initial, final = 11925714 20.171462
  Force max component initial, final = 8254873.4 4.5062711
  Final line search alpha, max atom move = 0.018039907 0.081292713
  Iterations, force evaluations = 100 176

MPI task timing breakdown:
Section |  min time  |  avg time  |  max time  |%varavg| %total
---------------------------------------------------------------
Pair    | 0.09073    | 0.09073    | 0.09073    |   0.0 | 84.42
Bond    | 0.0003479  | 0.0003479  | 0.0003479  |   0.0 |  0.32
Kspace  | 0.010805   | 0.010805   | 0.010805   |   0.0 | 10.05
Neigh   | 0.0028901  | 0.0028901  | 0.0028901  |   0.0 |  2.69
Comm    | 0.0021135  | 0.0021135  | 0.0021135  |   0.0 |  1.97
Output  | 9.066e-06  | 9.066e-06  | 9.066e-06  |   0.0 |  0.01
Modify  | 0          | 0          | 0          |   0.0 |  0.00
Other   |            | 0.0005741  |            |       |  0.53

Nlocal:             96 ave          96 max          96 min
Histogram: 1 0 0 0 0 0 0 0 0 0
Nghost:           3798 ave        3798 max        3798 min
Histogram: 1 0 0 0 0 0 0 0 0 0
Neighs:          34701 ave       34701 max       34701 min
Histogram: 1 0 0 0 0 0 0 0 0 0

Total # of neighbors = 34701
Ave neighs/atom = 361.46875
Ave special neighs/atom = 2
Neighbor list builds = 4
Dangerous builds = 0
reset_timestep 0

# constrain water bonds and angles
fix fSHAKE all shake 0.0001 20 0 b 1 a 1
       0 = # of size 2 clusters
       0 = # of size 3 clusters
       0 = # of size 4 clusters
      32 = # of frozen angles
  find clusters CPU = 0.000 seconds

# remove Center of Mass movement every 100 steps
fix fMOM all momentum 100 linear 1 1 1

# define the neighbor list
neighbor 2.0 bin

# IMPORTANT: timestep and temperature and pressure
timestep 1.0
variable vTK equal 298.15
variable vPBAR equal 1.0

# randomize velocities
velocity all create ${vTK} 51591
velocity all create 298.15 51591

# thermostat (solving the ODE)
fix fTHERMO all nvt temp ${vTK} ${vTK} 100
fix fTHERMO all nvt temp 298.15 ${vTK} 100
fix fTHERMO all nvt temp 298.15 298.15 100

# print settings
thermo 1000
thermo_style custom step etotal ke pe temp press vol density
# trajectory output
dump dEQUI all custom 1000 equi.lammpstrj id element xu yu zu
dump_modify dEQUI element H O sort id

# equilibration
# 1 ns
run 1000000
PPPM initialization ...
  using 12-bit tables for long-range coulomb (src/kspace.cpp:342)
  G vector (1/distance) = 0.30847861
  grid = 9 9 9
  stencil order = 5
  estimated absolute RMS force accuracy = 0.0027675926
  estimated relative force accuracy = 8.334523e-06
  using double precision FFTW3
  3d grid and FFT values/proc = 4096 729
Generated 1 of 1 mixed pair_coeff terms from geometric mixing rule
Per MPI rank memory allocation (min/avg/max) = 9.334 | 9.334 | 9.334 Mbytes
   Step         TotEng         KinEng         PotEng          Temp          Press          Volume        Density
         0  -434.09562      55.989897     -490.08551      298.15        -3061.7694      960.18531      0.99696118
      1000  -325.32054      49.772172     -375.09271      265.0402      -394.92512      960.18531      0.99696118
      2000  -307.75907      54.245216     -362.00429      288.85946      3314.9514      960.18531      0.99696118
      3000  -344.02247      52.8563       -396.87877      281.46339     -309.82067      960.18531      0.99696118
      4000  -329.97589      55.778967     -385.75485      297.02678      4161.0057      960.18531      0.99696118
      5000  -330.13281      57.940621     -388.07344      308.53774      1967.3146      960.18531      0.99696118
      6000  -330.89285      55.534388     -386.42724      295.72439     -2917.6728      960.18531      0.99696118
      7000  -360.06622      50.642862     -410.70908      269.67668     -3457.4607      960.18531      0.99696118
      8000  -338.0422       49.389756     -387.43196      263.0038      -2579.7337      960.18531      0.99696118
      9000  -319.14382      57.991233     -377.13505      308.80725     -1788.3038      960.18531      0.99696118
     10000  -332.4512       62.032557     -394.48375      330.32758     -4868.6541      960.18531      0.99696118
     11000  -344.07105      56.101338     -400.17239      298.74343     -2062.0208      960.18531      0.99696118
     12000  -333.07376      54.283509     -387.35727      289.06337      1733.6836      960.18531      0.99696118
     13000  -340.63273      56.978044     -397.61077      303.41195      149.0418       960.18531      0.99696118
     14000  -331.01769      51.612842     -382.63053      274.84189     -2258.3529      960.18531      0.99696118
     15000  -330.85406      58.566974     -389.42103      311.87311     -1393.1332      960.18531      0.99696118
     16000  -323.36923      50.774954     -374.14418      270.38008     -2286.1625      960.18531      0.99696118
     17000  -350.26642      53.223047     -403.48947      283.41634      3413.3315      960.18531      0.99696118
     18000  -325.13095      62.984023     -388.11498      335.3942      -652.89586      960.18531      0.99696118
     19000  -325.37096      60.719679     -386.09064      323.33641      1722.8871      960.18531      0.99696118
     20000  -351.63728      55.52416      -407.16144      295.66992     -2123.7456      960.18531      0.99696118
     21000  -330.26001      58.201177     -388.46119      309.92522      1345.1933      960.18531      0.99696118
     22000  -344.27203      57.544523     -401.81655      306.42849     -2988.8774      960.18531      0.99696118
     23000  -332.02117      59.12515      -391.14632      314.84544      57.807305      960.18531      0.99696118
     24000  -331.34589      59.446594     -390.79248      316.55715     -3471.9672      960.18531      0.99696118
     25000  -334.17831      51.916949     -386.09526      276.46128      348.56965      960.18531      0.99696118
     26000  -335.68798      52.504587     -388.19256      279.59049     -2085.5105      960.18531      0.99696118
     27000  -341.68466      53.64195      -395.32661      285.64703     -1973.6327      960.18531      0.99696118
     28000  -334.04423      54.993978     -389.03821      292.84667     -2948.2655      960.18531      0.99696118
     29000  -331.23915      57.740783     -388.97993      307.47359     -2036.4606      960.18531      0.99696118
     30000  -309.51465      53.927343     -363.44199      287.16676     -1260.4571      960.18531      0.99696118
     31000  -341.09615      53.294719     -394.39087      283.798       -971.00546      960.18531      0.99696118
     32000  -352.31745      47.394827     -399.71228      252.38067     -2273.5378      960.18531      0.99696118
     33000  -343.42014      51.459198     -394.87934      274.02372     -1063.1869      960.18531      0.99696118
     34000  -330.01198      59.440799     -389.45278      316.52629      1327.293       960.18531      0.99696118
     35000  -346.85609      51.232299     -398.08839      272.81547     -4752.5137      960.18531      0.99696118
     36000  -328.73508      55.958881     -384.69396      297.98484     -1251.1122      960.18531      0.99696118
     37000  -349.60554      49.043793     -398.64933      261.16152     -28.703719      960.18531      0.99696118
     38000  -329.53748      61.911506     -391.44899      329.68297     -1477.566       960.18531      0.99696118
     39000  -326.4602       60.718931     -387.17913      323.33243     -233.63522      960.18531      0.99696118
     40000  -331.59432      51.897094     -383.49142      276.35555     -544.27121      960.18531      0.99696118
     41000  -339.93479      50.404859     -390.33965      268.4093       0.16100602     960.18531      0.99696118
     42000  -348.33548      61.225563     -409.56104      326.03028      1366.434       960.18531      0.99696118
     43000  -339.00415      50.608186     -389.61233      269.49203      1578.3084      960.18531      0.99696118
     44000  -332.23269      58.860279     -391.09297      313.43498      5896.4951      960.18531      0.99696118
     45000  -331.0212       55.180159     -386.20136      293.83809     -1397.9765      960.18531      0.99696118
     46000  -324.18696      52.843237     -377.03019      281.39383      4682.6324      960.18531      0.99696118
     47000  -322.80958      59.672772     -382.48235      317.76156      1752.5002      960.18531      0.99696118
     48000  -324.9986       64.8984       -389.897        345.58839      90.745434      960.18531      0.99696118
     49000  -346.85418      48.922429     -395.7766       260.51526     -1089.7369      960.18531      0.99696118
     50000  -358.9317       56.879628     -415.81133      302.88788      330.9542       960.18531      0.99696118
     51000  -355.00976      50.697743     -405.70751      269.96893      791.48183      960.18531      0.99696118
     52000  -339.51197      61.447521     -400.95949      327.21222      1666.7987      960.18531      0.99696118
     53000  -347.12576      56.557055     -403.68282      301.17016     -2850.1549      960.18531      0.99696118
     54000  -340.81551      56.981344     -397.79686      303.42953     -3319.9174      960.18531      0.99696118
     55000  -324.41261      58.49563      -382.90824      311.4932       108.70648      960.18531      0.99696118
     56000  -323.25371      59.635815     -382.88953      317.56476      1419.6808      960.18531      0.99696118
     57000  -345.60306      42.729963     -388.33302      227.53995     -2801.6654      960.18531      0.99696118
     58000  -341.08565      56.906033     -397.99169      303.02849     -5442.7842      960.18531      0.99696118
     59000  -337.4808       57.062671     -394.54347      303.8626       396.10991      960.18531      0.99696118
     60000  -335.95624      59.061157     -395.0174       314.50467      650.63941      960.18531      0.99696118
     61000  -337.50919      55.225934     -392.73513      294.08185     -1306.4353      960.18531      0.99696118
     62000  -346.898        50.770085     -397.66808      270.35415      102.56582      960.18531      0.99696118
     63000  -331.05785      63.534046     -394.5919       338.32311     -3286.5006      960.18531      0.99696118
     64000  -341.29019      45.149775     -386.43996      240.42562     -1673.6614      960.18531      0.99696118
     65000  -338.43218      49.163581     -387.59577      261.79941     -515.67541      960.18531      0.99696118
     66000  -337.57803      61.249934     -398.82796      326.16006     -450.0381       960.18531      0.99696118
     67000  -332.70361      53.707972     -386.41158      285.9986       2707.2288      960.18531      0.99696118
     68000  -332.15261      55.558776     -387.71138      295.85425      626.78977      960.18531      0.99696118
     69000  -330.82324      59.221271     -390.04451      315.35729      3121.44        960.18531      0.99696118
     70000  -328.17517      50.167761     -378.34293      267.14673      1385.5091      960.18531      0.99696118
     71000  -332.21503      53.419134     -385.63416      284.46051      646.40384      960.18531      0.99696118
     72000  -331.69672      54.40755      -386.10427      289.7239       2417.1426      960.18531      0.99696118
     73000  -331.23         57.571511     -388.80152      306.5722      -109.66327      960.18531      0.99696118
     74000  -342.05468      57.020459     -399.07513      303.63782     -1929.3033      960.18531      0.99696118
     75000  -347.87086      44.141763     -392.01262      235.05788     -3310.9639      960.18531      0.99696118
     76000  -346.67434      54.232468     -400.90681      288.79158      339.9972       960.18531      0.99696118
     77000  -334.71449      61.344003     -396.05849      326.66098     -978.08351      960.18531      0.99696118
     78000  -354.28196      45.623422     -399.90538      242.94782     -3763.849       960.18531      0.99696118
     79000  -333.7963       50.518841     -384.31514      269.01626     -4119.485       960.18531      0.99696118
     80000  -333.9276       53.428931     -387.35653      284.51269     -3268.3444      960.18531      0.99696118
     81000  -345.0776       55.745776     -400.82337      296.85004      1170.9994      960.18531      0.99696118
     82000  -335.0916       55.451998     -390.5436       295.28565      459.18349      960.18531      0.99696118
     83000  -336.72921      50.136698     -386.8659       266.98132     -2946.1763      960.18531      0.99696118
     84000  -337.77734      55.526938     -393.30428      295.68471      1339.9881      960.18531      0.99696118
     85000  -336.52032      48.970846     -385.49117      260.77308      522.97868      960.18531      0.99696118
     86000  -329.80536      55.172508     -384.97786      293.79735      1884.9541      960.18531      0.99696118
     87000  -338.66457      50.316905     -388.98148      267.94093     -4768.4503      960.18531      0.99696118
     88000  -328.15006      54.520903     -382.67097      290.32751      912.95099      960.18531      0.99696118
     89000  -329.62068      60.043205     -389.66388      319.73414      806.59994      960.18531      0.99696118
     90000  -349.29748      53.657606     -402.95508      285.73039      1997.2312      960.18531      0.99696118
     91000  -329.57381      50.849892     -380.4237       270.77912      1350.9504      960.18531      0.99696118
     92000  -335.24346      55.887129     -391.13059      297.60275     -3888.8862      960.18531      0.99696118
     93000  -323.61425      65.684603     -389.29885      349.77497     -3174.4236      960.18531      0.99696118
     94000  -338.02472      51.001148     -389.02587      271.58458     -2086.8339      960.18531      0.99696118
     95000  -327.4244       55.901196     -383.32559      297.67766     -1119.3189      960.18531      0.99696118
     96000  -344.82089      52.394199     -397.21509      279.00266     -1233.9082      960.18531      0.99696118
     97000  -331.72496      55.0884       -386.81336      293.34947     -4496.7258      960.18531      0.99696118
     98000  -342.02275      56.881195     -398.90394      302.89622      1636.568       960.18531      0.99696118
     99000  -333.73484      63.337716     -397.07255      337.27764     -218.71621      960.18531      0.99696118
    100000  -347.74812      54.292214     -402.04034      289.10973      693.13267      960.18531      0.99696118
    101000  -354.92961      41.886444     -396.81605      223.04816      73.570976      960.18531      0.99696118
    102000  -340.10557      59.628895     -399.73446      317.52791      1115.5648      960.18531      0.99696118
    103000  -348.34907      52.771634     -401.1207       281.01254     -2229.6476      960.18531      0.99696118
    104000  -337.97128      64.253969     -402.22525      342.15675      2267.316       960.18531      0.99696118
    105000  -325.96055      59.199357     -385.1599       315.24059      2769.6108      960.18531      0.99696118
    106000  -327.05904      46.308254     -373.3673       246.5946      -252.48343      960.18531      0.99696118
    107000  -345.98707      55.571168     -401.55823      295.92024     -5310.068       960.18531      0.99696118
    108000  -339.53098      55.870454     -395.40143      297.51396      2080.9279      960.18531      0.99696118
    109000  -336.37092      50.992926     -387.36385      271.54079     -1719.8382      960.18531      0.99696118
    110000  -332.93902      60.089308     -393.02833      319.97965     -1219.1473      960.18531      0.99696118
    111000  -343.80579      58.177271     -401.98306      309.79792      490.26563      960.18531      0.99696118
    112000  -328.60665      58.037818     -386.64446      309.05532     -757.26696      960.18531      0.99696118
    113000  -342.25117      56.406099     -398.65727      300.36631     -2275.7779      960.18531      0.99696118
    114000  -330.5874       56.190139     -386.77754      299.21631      1211.9227      960.18531      0.99696118
    115000  -332.64372      54.623428     -387.26714      290.87346     -1764.6553      960.18531      0.99696118
    116000  -317.94167      60.103569     -378.04523      320.05559      2815.2113      960.18531      0.99696118
    117000  -343.00894      42.620567     -385.62951      226.95741     -1157.6281      960.18531      0.99696118
    118000  -339.71427      50.046413     -389.76069      266.50055     -3088.9151      960.18531      0.99696118
    119000  -340.56681      48.370418     -388.93723      257.57576      2232.1378      960.18531      0.99696118
    120000  -331.95182      63.306847     -395.25866      337.11326     -4122.2949      960.18531      0.99696118
    121000  -328.0982       55.43404      -383.53224      295.19003      555.1528       960.18531      0.99696118
    122000  -341.05346      55.932356     -396.98582      297.84359     -564.35159      960.18531      0.99696118
    123000  -349.13254      43.900608     -393.03314      233.77372     -4797.7158      960.18531      0.99696118
    124000  -324.04288      66.919366     -390.96225      356.35017      1129.8368      960.18531      0.99696118
    125000  -344.55332      51.652205     -396.20552      275.0515      -3514.1405      960.18531      0.99696118
    126000  -331.4516       53.335607     -384.78721      284.01573     -635.43172      960.18531      0.99696118
    127000  -320.27471      57.840183     -378.11489      308.0029       491.01901      960.18531      0.99696118
    128000  -332.05282      50.140702     -382.19352      267.00264     -61.702208      960.18531      0.99696118
    129000  -318.26319      65.76827      -384.03146      350.2205       139.08039      960.18531      0.99696118
    130000  -332.94608      53.406943     -386.35302      284.3956       1744.3252      960.18531      0.99696118
    131000  -348.48036      51.181668     -399.66203      272.54586     -901.85381      960.18531      0.99696118
    132000  -339.49631      47.154384     -386.6507       251.10029      994.52068      960.18531      0.99696118
    133000  -334.16324      60.646769     -394.81001      322.94816      738.31578      960.18531      0.99696118
    134000  -336.44056      60.184028     -396.62459      320.48403     -2679.6418      960.18531      0.99696118
    135000  -321.23533      61.187296     -382.42262      325.82651     -1523.6442      960.18531      0.99696118
    136000  -350.85961      50.364567     -401.22417      268.19474     -3382.9306      960.18531      0.99696118
    137000  -332.41576      51.647664     -384.06343      275.02732     -2117.6038      960.18531      0.99696118
    138000  -332.46389      63.110889     -395.57478      336.06977     -224.17702      960.18531      0.99696118
    139000  -328.24494      59.051475     -387.29642      314.45311      1450.9528      960.18531      0.99696118
    140000  -348.32495      45.583438     -393.90839      242.7349       2157.1015      960.18531      0.99696118
    141000  -333.22848      50.494083     -383.72256      268.88442      2635.6425      960.18531      0.99696118
    142000  -330.64858      54.452868     -385.10144      289.96522     -2048.9748      960.18531      0.99696118
    143000  -340.8751       51.098588     -391.97368      272.10345      2870.1107      960.18531      0.99696118
    144000  -349.94934      51.790229     -401.73957      275.78649     -1406.584       960.18531      0.99696118
    145000  -321.12374      67.472877     -388.59662      359.29765      385.78619      960.18531      0.99696118
    146000  -330.53622      60.008028     -390.54425      319.54682     -866.10084      960.18531      0.99696118
    147000  -343.08212      51.305464     -394.38758      273.20508      233.79322      960.18531      0.99696118
    148000  -328.58833      58.597754     -387.18609      312.03702     -26.852962      960.18531      0.99696118
    149000  -342.3138       56.202786     -398.51658      299.28365     -871.68828      960.18531      0.99696118
    150000  -320.65054      59.219195     -379.86974      315.34623      1142.3673      960.18531      0.99696118
    151000  -331.15079      56.486254     -387.63704      300.79313     -148.77417      960.18531      0.99696118
    152000  -320.22801      56.140388     -376.36839      298.95138      2930.2874      960.18531      0.99696118
    153000  -338.16053      51.533855     -389.69438      274.42128     -1525.4367      960.18531      0.99696118
    154000  -325.17558      65.275055     -390.45064      347.5941      -2712.8042      960.18531      0.99696118
    155000  -310.26878      56.882777     -367.15155      302.90465     -4548.4448      960.18531      0.99696118
    156000  -338.36704      58.736223     -397.10326      312.77437     -4529.0598      960.18531      0.99696118
    157000  -327.76763      67.576476     -395.34411      359.84932      508.01412      960.18531      0.99696118
    158000  -323.09692      56.377116     -379.47404      300.21197     -2262.6899      960.18531      0.99696118
    159000  -343.64574      47.035949     -390.68168      250.46962     -735.33083      960.18531      0.99696118
    160000  -332.79075      51.626812     -384.41756      274.91628      5766.5247      960.18531      0.99696118
    161000  -337.82211      50.722951     -388.54506      270.10316      26.228212      960.18531      0.99696118
    162000  -335.32396      56.53556      -391.85952      301.0557       4026.3422      960.18531      0.99696118
    163000  -334.63552      55.387468     -390.02299      294.94203      2004.0602      960.18531      0.99696118
    164000  -356.4745       47.945717     -404.42021      255.3142      -1501.0872      960.18531      0.99696118
    165000  -328.31831      60.942848     -389.26116      324.5248      -4258.2928      960.18531      0.99696118
    166000  -337.80117      52.366591     -390.16776      278.85565      251.92397      960.18531      0.99696118
    167000  -343.22514      55.490726     -398.71586      295.49189      141.13374      960.18531      0.99696118
    168000  -312.88514      56.391224     -369.27636      300.2871      -3444.9463      960.18531      0.99696118
    169000  -311.09405      65.597313     -376.69136      349.31015      2986.5305      960.18531      0.99696118
    170000  -322.97846      56.486926     -379.46538      300.79671     -1986.5025      960.18531      0.99696118
    171000  -348.19354      45.432083     -393.62562      241.92893     -1283.7196      960.18531      0.99696118
    172000  -335.39962      48.956298     -384.35592      260.69561     -1522.2058      960.18531      0.99696118
    173000  -351.15043      50.822166     -401.9726       270.63148      3198.8231      960.18531      0.99696118
    174000  -322.11502      52.556294     -374.67131      279.86583     -2055.7502      960.18531      0.99696118
    175000  -335.67114      57.12075      -392.79189      304.17187     -1116.9406      960.18531      0.99696118
    176000  -332.45784      62.556992     -395.01483      333.12023      628.60876      960.18531      0.99696118
    177000  -333.41629      62.720074     -396.13637      333.98865     -2402.3038      960.18531      0.99696118
    178000  -327.65491      61.194475     -388.84938      325.86473     -802.32231      960.18531      0.99696118
    179000  -340.70809      60.297581     -401.00567      321.08871     -2163.6274      960.18531      0.99696118
    180000  -329.02502      45.941899     -374.96692      244.64373     -401.42413      960.18531      0.99696118
    181000  -334.23045      50.36547      -384.59592      268.19955     -70.374665      960.18531      0.99696118
    182000  -332.67852      57.922135     -390.60065      308.4393      -1917.5847      960.18531      0.99696118
    183000  -337.9285       60.510486     -398.43899      322.22244      4154.5613      960.18531      0.99696118
    184000  -324.9096       66.205694     -391.11529      352.54981     -126.71292      960.18531      0.99696118
    185000  -336.96188      53.824856     -390.78673      286.62101     -60.465753      960.18531      0.99696118
    186000  -304.00594      68.675129     -372.68107      365.69972     -2061.8373      960.18531      0.99696118
    187000  -323.98386      52.465622     -376.44948      279.383       -644.4549       960.18531      0.99696118
    188000  -345.83371      51.566941     -397.40066      274.59746      307.66807      960.18531      0.99696118
    189000  -325.67712      46.005891     -371.68301      244.9845      -5699.1736      960.18531      0.99696118
    190000  -348.23608      48.717714     -396.95379      259.42513     -3395.1051      960.18531      0.99696118
    191000  -337.62413      48.944445     -386.56857      260.63249     -1063.0705      960.18531      0.99696118
    192000  -330.9127       54.186978     -385.09968      288.54934     -364.01971      960.18531      0.99696118
    193000  -310.79164      70.794112     -381.58575      376.98345      2177.1426      960.18531      0.99696118
    194000  -337.16244      54.538532     -391.70097      290.42138      2403.5431      960.18531      0.99696118
    195000  -344.60455      55.540419     -400.14497      295.7565      -1845.6051      960.18531      0.99696118
    196000  -333.0745       55.399696     -388.4742       295.00714      1611.5685      960.18531      0.99696118
    197000  -316.85862      60.148552     -377.00717      320.29512     -260.86675      960.18531      0.99696118
    198000  -334.93078      59.962673     -394.89346      319.3053      -2384.6719      960.18531      0.99696118
    199000  -337.47566      57.915653     -395.39131      308.40478     -3004.4032      960.18531      0.99696118
    200000  -352.16962      43.171039     -395.34066      229.88871      1800.8784      960.18531      0.99696118
    201000  -330.09118      60.243993     -390.33518      320.80335     -2091.7929      960.18531      0.99696118
    202000  -339.44088      56.959718     -396.4006       303.31436     -1573.7571      960.18531      0.99696118
    203000  -322.39366      58.772266     -381.16593      312.96631      1543.5039      960.18531      0.99696118
    204000  -343.69644      50.417207     -394.11365      268.47505     -3779.6225      960.18531      0.99696118
    205000  -350.17818      54.172365     -404.35055      288.47152     -2701.2206      960.18531      0.99696118
    206000  -343.78365      53.562764     -397.34642      285.22535      1463.1786      960.18531      0.99696118
    207000  -320.75715      65.864582     -386.62173      350.73337      3341.4488      960.18531      0.99696118
    208000  -334.94412      61.12644      -396.07056      325.50244     -3486.6824      960.18531      0.99696118
    209000  -341.11972      51.188824     -392.30855      272.58397     -1410.1989      960.18531      0.99696118
    210000  -330.12135      71.681714     -401.80307      381.70999      2135.1578      960.18531      0.99696118
    211000  -348.39017      46.554385     -394.94456      247.90526     -1240.3854      960.18531      0.99696118
    212000  -333.05423      66.476174     -399.5304       353.99014      2129.0526      960.18531      0.99696118
    213000  -346.19341      49.027676     -395.22109      261.0757       2480.7697      960.18531      0.99696118
    214000  -331.20591      67.046944     -398.25286      357.02953      910.77184      960.18531      0.99696118
    215000  -351.31442      52.363606     -403.67802      278.83976     -912.72505      960.18531      0.99696118
    216000  -330.1486       55.475978     -385.62458      295.41335     -1163.2085      960.18531      0.99696118
    217000  -344.02596      54.664822     -398.69078      291.09389      1960.5257      960.18531      0.99696118
    218000  -330.54384      57.915169     -388.45901      308.40221      1346.3283      960.18531      0.99696118
    219000  -333.63846      52.802906     -386.44136      281.17906      72.648479      960.18531      0.99696118
    220000  -344.4844       54.749882     -399.23428      291.54684     -2842.6975      960.18531      0.99696118
    221000  -333.80562      51.448345     -385.25396      273.96593     -1430.3165      960.18531      0.99696118
    222000  -321.50013      57.5384       -379.03853      306.39588     -129.99954      960.18531      0.99696118
    223000  -336.006        47.903348     -383.90935      255.08858     -772.90631      960.18531      0.99696118
    224000  -321.54812      62.801706     -384.34983      334.42335      8317.9606      960.18531      0.99696118
    225000  -332.64032      57.027064     -389.66738      303.67298      803.86344      960.18531      0.99696118
    226000  -331.90406      63.618094     -395.52215      338.77067     -737.37055      960.18531      0.99696118
    227000  -334.6966       51.328716     -386.02531      273.3289      -2745.9815      960.18531      0.99696118
    228000  -326.08228      64.450503     -390.53278      343.2033       2030.7977      960.18531      0.99696118
    229000  -342.46064      50.152105     -392.61275      267.06336     -2242.9254      960.18531      0.99696118
    230000  -329.68561      50.605422     -380.29103      269.47731     -1194.4441      960.18531      0.99696118
    231000  -329.70928      59.101686     -388.81097      314.72049     -2227.7195      960.18531      0.99696118
    232000  -340.62766      60.096302     -400.72396      320.01689     -476.58317      960.18531      0.99696118
    233000  -350.91399      44.95221      -395.8662       239.37357     -3620.3049      960.18531      0.99696118
    234000  -337.7244       55.714513     -393.43891      296.68356     -683.7167       960.18531      0.99696118
    235000  -308.97442      72.281549     -381.25597      384.90416     -2085.69        960.18531      0.99696118
    236000  -332.17307      56.58114      -388.75421      301.29841      500.35256      960.18531      0.99696118
    237000  -339.10862      56.07047      -395.17909      298.57906     -4325.8548      960.18531      0.99696118
    238000  -333.12788      53.31645      -386.44433      283.91371     -1501.5393      960.18531      0.99696118
    239000  -342.9795       43.34229      -386.32179      230.80064     -815.19844      960.18531      0.99696118
    240000  -333.8697       51.56037      -385.43007      274.56247      308.90479      960.18531      0.99696118
    241000  -339.11952      47.924474     -387.04399      255.20108     -2078.2433      960.18531      0.99696118
    242000  -333.1701       54.400428     -387.57053      289.68597     -1350.48        960.18531      0.99696118
    243000  -341.05079      45.101824     -386.15262      240.17028     -5856.6307      960.18531      0.99696118
    244000  -328.39784      50.042863     -378.44071      266.48164      1213.2445      960.18531      0.99696118
    245000  -336.12408      51.224474     -387.34856      272.7738      -85.269324      960.18531      0.99696118
    246000  -338.27072      61.754709     -400.02543      328.84802     -1696.4301      960.18531      0.99696118
    247000  -325.06416      60.531344     -385.59551      322.33352     -2046.6363      960.18531      0.99696118
    248000  -325.88447      57.098728     -382.9832       304.0546      -992.09761      960.18531      0.99696118
    249000  -332.28753      49.836779     -382.12431      265.38423      42.911639      960.18531      0.99696118
    250000  -339.92904      49.516956     -389.446        263.68115      4169.5309      960.18531      0.99696118
    251000  -341.13184      47.402824     -388.53467      252.42325      2327.7733      960.18531      0.99696118
    252000  -328.54586      51.241674     -379.78753      272.86539     -2303.3358      960.18531      0.99696118
    253000  -340.55971      53.449915     -394.00963      284.62443     -5021.4366      960.18531      0.99696118
    254000  -326.10115      54.855878     -380.95703      292.11128     -480.37811      960.18531      0.99696118
    255000  -341.85985      54.834273     -396.69412      291.99623     -1123.4133      960.18531      0.99696118
    256000  -346.68143      49.504243     -396.18567      263.61345      117.94679      960.18531      0.99696118
    257000  -361.29755      47.915149     -409.2127       255.15142     -978.09496      960.18531      0.99696118
    258000  -329.98482      57.956256     -387.94108      308.621       -892.36653      960.18531      0.99696118
    259000  -338.11989      61.916395     -400.03628      329.70901     -819.70392      960.18531      0.99696118
    260000  -354.4923       49.0589       -403.5512       261.24197     -566.13546      960.18531      0.99696118
    261000  -338.35129      46.152371     -384.50366      245.76451      2496.5779      960.18531      0.99696118
    262000  -340.80459      54.483699     -395.28829      290.1294       53.518797      960.18531      0.99696118
    263000  -339.09254      65.134175     -404.22671      346.84391      2691.7827      960.18531      0.99696118
    264000  -347.85316      51.955215     -399.80838      276.66505     -1967.5801      960.18531      0.99696118
    265000  -341.33221      58.666908     -399.99911      312.40527     -1272.4791      960.18531      0.99696118
    266000  -346.98307      47.817509     -394.80058      254.63148      751.04251      960.18531      0.99696118
    267000  -364.09359      45.525718     -409.61931      242.42754      1690.1006      960.18531      0.99696118
    268000  -350.1929       56.605271     -406.79817      301.42691      1757.9669      960.18531      0.99696118
    269000  -361.3227       51.383857     -412.70655      273.62252     -3810.3591      960.18531      0.99696118
    270000  -339.7848       55.889984     -395.67479      297.61796      201.49107      960.18531      0.99696118
    271000  -344.43268      53.400798     -397.83347      284.36287      1836.0886      960.18531      0.99696118
    272000  -327.07172      58.758036     -385.82975      312.89053      490.1052       960.18531      0.99696118
    273000  -302.48968      63.576529     -366.06621      338.54933      2379.289       960.18531      0.99696118
    274000  -331.26285      58.964718     -390.22756      313.99112     -2113.6498      960.18531      0.99696118
    275000  -335.59875      54.380299     -389.97905      289.57878      1008.7483      960.18531      0.99696118
    276000  -342.09241      55.105291     -397.1977       293.43942     -1639.0835      960.18531      0.99696118
    277000  -348.62927      50.468851     -399.09812      268.75006     -996.41396      960.18531      0.99696118
    278000  -344.46141      48.262721     -392.72413      257.00227     -1239.7491      960.18531      0.99696118
    279000  -332.23794      51.492658     -383.7306       274.2019      -2104.1834      960.18531      0.99696118
    280000  -319.54507      68.607477     -388.15255      365.33947     -5188.9449      960.18531      0.99696118
    281000  -332.80144      51.250276     -384.05171      272.9112       848.02568      960.18531      0.99696118
    282000  -329.96698      59.594879     -389.56186      317.34678      2957.3911      960.18531      0.99696118
    283000  -322.40162      53.999947     -376.40157      287.55338     -41.323651      960.18531      0.99696118
    284000  -324.13607      59.709109     -383.84518      317.95506      1057.8987      960.18531      0.99696118
    285000  -339.57493      51.550117     -391.12505      274.50787      2161.5955      960.18531      0.99696118
    286000  -343.81689      53.703618     -397.52051      285.97541     -899.50721      960.18531      0.99696118
    287000  -358.1936       53.949252     -412.14286      287.28343     -2696.3864      960.18531      0.99696118
    288000  -339.81857      59.140392     -398.95896      314.9266      -614.91576      960.18531      0.99696118
    289000  -341.30475      49.955711     -391.26046      266.01755     -1210.2568      960.18531      0.99696118
    290000  -356.02227      49.399395     -405.42167      263.05513     -5288.0905      960.18531      0.99696118
    291000  -355.70829      53.973062     -409.68135      287.41022      835.11319      960.18531      0.99696118
    292000  -344.65964      62.434823     -407.09446      332.46967      1386.9851      960.18531      0.99696118
    293000  -339.59423      53.261332     -392.85556      283.62021     -3407.9094      960.18531      0.99696118
    294000  -343.35145      57.425347     -400.77679      305.79387     -1895.3954      960.18531      0.99696118
    295000  -322.21304      62.789471     -385.00251      334.35819     -1756.5876      960.18531      0.99696118
    296000  -326.54802      59.757461     -386.30548      318.21254     -25.302504      960.18531      0.99696118
    297000  -344.71534      53.631904     -398.34725      285.59353      1550.1592      960.18531      0.99696118
    298000  -317.68862      72.342888     -390.03151      385.23079     -3019.1623      960.18531      0.99696118
    299000  -347.2239       53.208485     -400.43239      283.33879     -4429.0215      960.18531      0.99696118
    300000  -346.07153      46.906511     -392.97804      249.78036     -1795.093       960.18531      0.99696118
    301000  -330.32347      68.043202     -398.36667      362.33467     -589.21063      960.18531      0.99696118
    302000  -335.74667      57.480613     -393.22729      306.08817      884.33508      960.18531      0.99696118
    303000  -339.40252      49.091891     -388.49441      261.41765     -1309.4871      960.18531      0.99696118
    304000  -328.05288      53.812193     -381.86507      286.55358     -3743.9078      960.18531      0.99696118
    305000  -325.2712       58.945552     -384.21675      313.88907     -2976.6358      960.18531      0.99696118
    306000  -335.45688      52.351751     -387.80863      278.77663      1775.6754      960.18531      0.99696118
    307000  -334.3813       45.757612     -380.13891      243.66239     -113.44534      960.18531      0.99696118
    308000  -307.65766      65.064527     -372.72218      346.47302     -243.93281      960.18531      0.99696118
    309000  -319.38522      51.911522     -371.29674      276.43238     -1859.7488      960.18531      0.99696118
    310000  -327.77176      55.35524      -383.127        294.77041     -5230.8644      960.18531      0.99696118
    311000  -326.33195      57.221214     -383.55316      304.70685     -2898.7346      960.18531      0.99696118
    312000  -352.55878      51.124822     -403.6836       272.24315     -1746.805       960.18531      0.99696118
    313000  -345.79127      50.021535     -395.81281      266.36807     -1387.0193      960.18531      0.99696118
    314000  -323.71745      66.040956     -389.7584       351.67258      916.89905      960.18531      0.99696118
    315000  -321.82163      57.209462     -379.03109      304.64427     -2950.4668      960.18531      0.99696118
    316000  -320.90552      58.930039     -379.83556      313.80646     -831.46958      960.18531      0.99696118
    317000  -328.40808      50.719888     -379.12797      270.08685     -1702.5046      960.18531      0.99696118
    318000  -333.6662       54.970166     -388.63636      292.71987     -756.42967      960.18531      0.99696118
    319000  -324.5937       56.300155     -380.89385      299.80215     -160.57446      960.18531      0.99696118
    320000  -340.70516      54.12891      -394.83407      288.24012     -990.7506       960.18531      0.99696118
    321000  -349.13588      51.35469      -400.49057      273.46721      760.72498      960.18531      0.99696118
    322000  -331.22601      61.480229     -392.70623      327.38639      2496.7014      960.18531      0.99696118
    323000  -350.9801       57.449426     -408.42952      305.92209      879.13019      960.18531      0.99696118
    324000  -347.00073      49.551072     -396.55181      263.86282     -3541.5206      960.18531      0.99696118
    325000  -328.99693      45.928597     -374.92553      244.5729      -1479.8725      960.18531      0.99696118
    326000  -350.53156      51.579153     -402.11072      274.66249     -4790.0143      960.18531      0.99696118
    327000  -327.34163      54.854332     -382.19597      292.10304     -3105.5245      960.18531      0.99696118
    328000  -351.80869      44.606128     -396.41482      237.53066     -1481.5737      960.18531      0.99696118
    329000  -330.51215      59.487458     -389.99961      316.77475     -1768.7738      960.18531      0.99696118
    330000  -340.5044       60.97526      -401.47966      324.6974       972.68783      960.18531      0.99696118
    331000  -346.81131      50.162803     -396.97412      267.12033     -2839.7227      960.18531      0.99696118
    332000  -342.12229      59.555886     -401.67818      317.13914     -2332.9139      960.18531      0.99696118
    333000  -339.82169      55.905319     -395.72701      297.69962     -1189.4217      960.18531      0.99696118
    334000  -338.44718      55.794624     -394.2418       297.11016      530.23692      960.18531      0.99696118
    335000  -336.26325      61.991278     -398.25452      330.10777     -4364.035       960.18531      0.99696118
    336000  -330.93829      61.651793     -392.59008      328.29998     -4049.2511      960.18531      0.99696118
    337000  -331.27158      52.080855     -383.35243      277.33409     -3115.6712      960.18531      0.99696118
    338000  -333.56397      58.187147     -391.75112      309.85051     -981.30194      960.18531      0.99696118
    339000  -335.34284      59.294278     -394.63712      315.74605     -76.546546      960.18531      0.99696118
    340000  -321.00905      62.494327     -383.50338      332.78653     -482.14285      960.18531      0.99696118
    341000  -352.34095      41.49753      -393.83848      220.97716     -3998.8932      960.18531      0.99696118
    342000  -334.17856      59.036442     -393.215        314.37306     -3353.1543      960.18531      0.99696118
    343000  -340.11899      53.010546     -393.12954      282.28476     -3817.3955      960.18531      0.99696118
    344000  -354.6362       48.723954     -403.36015      259.45836     -1894.405       960.18531      0.99696118
    345000  -331.12338      59.664005     -390.78739      317.71488      1155.151       960.18531      0.99696118
    346000  -335.28974      59.29673      -394.58647      315.75911     -2761.7457      960.18531      0.99696118
    347000  -345.22054      51.23997      -396.46051      272.85632     -1580.5955      960.18531      0.99696118
    348000  -321.45726      65.995995     -387.45326      351.43315      2059.2412      960.18531      0.99696118
    349000  -342.83922      55.094598     -397.93382      293.38247      148.25271      960.18531      0.99696118
    350000  -333.15309      50.518205     -383.6713       269.01287     -2128.3047      960.18531      0.99696118
    351000  -329.46295      48.774886     -378.23784      259.72958     -1813.746       960.18531      0.99696118
    352000  -314.77692      54.959239     -369.73616      292.66168      4202.8778      960.18531      0.99696118
    353000  -324.70705      59.100108     -383.80716      314.71209      671.70513      960.18531      0.99696118
    354000  -331.94929      53.772801     -385.72209      286.34381      31.312163      960.18531      0.99696118
    355000  -332.87982      54.065105     -386.94493      287.90035     -123.24623      960.18531      0.99696118
    356000  -339.51268      51.733151     -391.24583      275.48254     -706.53844      960.18531      0.99696118
    357000  -322.3348       59.257442     -381.59224      315.5499       2057.7139      960.18531      0.99696118
    358000  -324.50752      60.407334     -384.91486      321.67315     -272.15557      960.18531      0.99696118
    359000  -347.31078      54.081329     -401.39211      287.98675     -2341.8784      960.18531      0.99696118
    360000  -330.7872       66.858189     -397.64539      356.0244      -1362.1181      960.18531      0.99696118
    361000  -337.49667      52.18422      -389.68089      277.88452      2656.5041      960.18531      0.99696118
    362000  -342.99792      50.469741     -393.46766      268.7548       3370.579       960.18531      0.99696118
    363000  -318.96327      64.621939     -383.58521      344.11621     -1461.0579      960.18531      0.99696118
    364000  -334.422        59.160777     -393.58277      315.03515     -3588.0787      960.18531      0.99696118
    365000  -349.91206      49.806066     -399.71812      265.22068     -185.53697      960.18531      0.99696118
    366000  -345.85097      52.025273     -397.87624      277.03811     -342.68331      960.18531      0.99696118
    367000  -356.39951      45.278292     -401.6778       241.10998     -842.21117      960.18531      0.99696118
    368000  -343.40208      60.597827     -403.99991      322.68754     -45.930369      960.18531      0.99696118
    369000  -354.89651      49.552952     -404.44946      263.87283      2027.2302      960.18531      0.99696118
    370000  -365.67736      49.61161      -415.28897      264.18519     -4023.4541      960.18531      0.99696118
    371000  -344.71181      50.057252     -394.76906      266.55826      2769.612       960.18531      0.99696118
    372000  -351.59161      56.017553     -407.60916      298.29727     -477.56081      960.18531      0.99696118
    373000  -341.04649      48.225908     -389.2724       256.80624     -3463.1128      960.18531      0.99696118
    374000  -351.93267      51.167879     -403.10055      272.47243     -4626.4122      960.18531      0.99696118
    375000  -347.05839      57.271819     -404.3302       304.97632      1030.1069      960.18531      0.99696118
    376000  -330.19682      56.950714     -387.14754      303.26642     -2441.1543      960.18531      0.99696118
    377000  -325.58855      60.714762     -386.30331      323.31023     -3979.2562      960.18531      0.99696118
    378000  -335.2322       56.019669     -391.25186      298.30854     -1360.4391      960.18531      0.99696118
    379000  -324.05316      59.536625     -383.58978      317.03657      141.94975      960.18531      0.99696118
    380000  -321.94344      60.900645     -382.84409      324.30007     -2012.0776      960.18531      0.99696118
    381000  -328.25213      53.400083     -381.65221      284.35907     -1806.8875      960.18531      0.99696118
    382000  -328.12323      60.837705     -388.96093      323.96491     -3132.4281      960.18531      0.99696118
    383000  -308.9437       62.466156     -371.40986      332.63652      1065.9347      960.18531      0.99696118
    384000  -326.39044      59.754275     -386.14471      318.19557      903.13246      960.18531      0.99696118
    385000  -340.03901      54.800113     -394.83913      291.81432      117.8347       960.18531      0.99696118
    386000  -329.9864       50.383681     -380.37008      268.29652     -1422.2431      960.18531      0.99696118
    387000  -350.59592      48.633739     -399.22966      258.97796     -1253.4145      960.18531      0.99696118
    388000  -335.61804      57.36827      -392.98631      305.48993      2009.2015      960.18531      0.99696118
    389000  -346.06808      62.418192     -408.48627      332.38111      668.36547      960.18531      0.99696118
    390000  -330.3183       66.432225     -396.75052      353.75611      4650.3893      960.18531      0.99696118
    391000  -345.34154      52.612414     -397.95396      280.16468      4940.6621      960.18531      0.99696118
    392000  -349.15993      60.740154     -409.90009      323.44544      3407.4773      960.18531      0.99696118
    393000  -337.24526      66.71641      -403.96167      355.26941     -1922.307       960.18531      0.99696118
    394000  -345.1261       54.395693     -399.52179      289.66076      363.87836      960.18531      0.99696118
    395000  -329.68773      55.989066     -385.6768       298.14558     -5168.8947      960.18531      0.99696118
    396000  -339.84538      60.623954     -400.46933      322.82667     -2115.4404      960.18531      0.99696118
    397000  -336.68993      64.910465     -401.60039      345.65263      3805.3616      960.18531      0.99696118
    398000  -321.33088      51.866217     -373.1971       276.19113     -4866.0882      960.18531      0.99696118
    399000  -342.67223      54.852653     -397.52488      292.0941      -2102.3949      960.18531      0.99696118
    400000  -339.11089      59.651713     -398.76261      317.64942     -1377.3397      960.18531      0.99696118
    401000  -344.88639      47.447913     -392.33431      252.66336     -650.35667      960.18531      0.99696118
    402000  -325.09121      62.346816     -387.43802      332.00103     -960.22433      960.18531      0.99696118
    403000  -322.12949      53.984968     -376.11446      287.47362     -3516.7048      960.18531      0.99696118
    404000  -322.19225      49.498759     -371.69101      263.58425      795.6168       960.18531      0.99696118
    405000  -306.85524      67.331037     -374.18628      358.54235     -2570.3491      960.18531      0.99696118
    406000  -329.23972      51.936817     -381.17653      276.56708     -5521.0129      960.18531      0.99696118
    407000  -329.40148      62.870891     -392.27237      334.79177     -2841.995       960.18531      0.99696118
    408000  -348.73825      49.261366     -397.99961      262.32012     -3414.2485      960.18531      0.99696118
    409000  -332.8861       54.289701     -387.1758       289.09634     -1326.5621      960.18531      0.99696118
    410000  -331.39352      65.490067     -396.88359      348.73905     -4306.3384      960.18531      0.99696118
    411000  -325.41934      54.316955     -379.7363       289.24147      1939.0728      960.18531      0.99696118
    412000  -332.7704       68.160528     -400.93093      362.95944      283.80084      960.18531      0.99696118
    413000  -340.612        57.544402     -398.1564       306.42785     -1927.9052      960.18531      0.99696118
    414000  -340.48221      50.864969     -391.34718      270.85941     -2497.5898      960.18531      0.99696118
    415000  -324.94835      67.091629     -392.03998      357.26748     -504.92904      960.18531      0.99696118
    416000  -350.47101      52.714549     -403.18556      280.70855     -2842.3749      960.18531      0.99696118
    417000  -317.11883      57.089513     -374.20834      304.00553     -4660.8959      960.18531      0.99696118
    418000  -341.55028      53.201545     -394.75182      283.30184     -1608.9433      960.18531      0.99696118
    419000  -330.73567      51.690679     -382.42634      275.25637     -333.3128       960.18531      0.99696118
    420000  -351.62428      49.222605     -400.84689      262.11371     -1142.6051      960.18531      0.99696118
    421000  -353.06044      49.024805     -402.08524      261.06041      806.95282      960.18531      0.99696118
    422000  -317.51631      56.855632     -374.37194      302.7601       4120.7548      960.18531      0.99696118
    423000  -326.27878      64.046002     -390.32479      341.04931      575.25047      960.18531      0.99696118
    424000  -315.38394      57.6372       -373.02114      306.922        2872.5665      960.18531      0.99696118
    425000  -327.41834      59.14616      -386.5645       314.95732     -2334.531       960.18531      0.99696118
    426000  -341.28318      53.300962     -394.58414      283.83124     -461.30701      960.18531      0.99696118
    427000  -315.34059      57.765515     -373.10611      307.60529     -2243.6523      960.18531      0.99696118
    428000  -331.50202      55.49023      -386.99225      295.48924     -3086.2412      960.18531      0.99696118
    429000  -333.69234      50.672484     -384.36483      269.83442     -3203.5233      960.18531      0.99696118
    430000  -350.44358      46.240744     -396.68432      246.2351      -3604.2469      960.18531      0.99696118
    431000  -327.15057      56.415736     -383.5663       300.41762     -3398.845       960.18531      0.99696118
    432000  -314.04531      63.391851     -377.43716      337.56591      2698.9443      960.18531      0.99696118
    433000  -311.17571      64.098087     -375.2738       341.32666      952.46771      960.18531      0.99696118
    434000  -348.14478      47.976332     -396.12111      255.47722     -1740.3804      960.18531      0.99696118
    435000  -325.16466      59.402564     -384.56723      316.32268      3784.8793      960.18531      0.99696118
    436000  -347.49655      50.25757      -397.75412      267.62497      161.72289      960.18531      0.99696118
    437000  -340.9589       55.688257     -396.64715      296.54375     -4392.0201      960.18531      0.99696118
    438000  -338.02638      51.59306      -389.61944      274.73655     -3863.4704      960.18531      0.99696118
    439000  -332.58136      51.506276     -384.08764      274.27441      248.12397      960.18531      0.99696118
    440000  -318.85052      59.31056      -378.16108      315.83276      310.48683      960.18531      0.99696118
    441000  -347.54734      46.699292     -394.24663      248.6769       2408.5493      960.18531      0.99696118
    442000  -337.87413      46.500794     -384.37492      247.61988      297.88331      960.18531      0.99696118
    443000  -346.8019       51.150518     -397.95241      272.37998     -995.1572       960.18531      0.99696118
    444000  -323.77247      61.533939     -385.30641      327.6724       2022.8223      960.18531      0.99696118
    445000  -330.18061      54.149645     -384.33026      288.35054     -1856.3631      960.18531      0.99696118
    446000  -309.21115      55.733456     -364.94461      296.78444     -4093.2975      960.18531      0.99696118
    447000  -319.03944      59.441833     -378.48127      316.53179     -2436.8384      960.18531      0.99696118
    448000  -339.93706      50.665969     -390.60303      269.79973     -622.5327       960.18531      0.99696118
    449000  -323.23989      57.017591     -380.25748      303.62255      1787.8665      960.18531      0.99696118
    450000  -346.8721       54.297286     -401.16939      289.13673     -793.94638      960.18531      0.99696118
    451000  -342.1695       50.386139     -392.55564      268.30961     -2578.753       960.18531      0.99696118
    452000  -337.34297      52.639832     -389.9828       280.31068      414.00669      960.18531      0.99696118
    453000  -325.15847      52.704401     -377.86287      280.65451     -1088.2562      960.18531      0.99696118
    454000  -322.71919      53.208868     -375.92806      283.34084     -2839.7002      960.18531      0.99696118
    455000  -337.67928      61.241832     -398.92111      326.11691     -1812.3511      960.18531      0.99696118
    456000  -328.8472       56.987265     -385.83447      303.46105     -2361.2578      960.18531      0.99696118
    457000  -336.04207      51.852337     -387.8944       276.11722     -1973.2787      960.18531      0.99696118
    458000  -324.9762       51.24646      -376.22266      272.89088     -2491.2792      960.18531      0.99696118
    459000  -345.35292      56.424511     -401.77743      300.46435     -76.36014       960.18531      0.99696118
    460000  -337.9418       54.618593     -392.5604       290.84772     -1559.2359      960.18531      0.99696118
    461000  -319.96777      66.192469     -386.16024      352.47939      680.14854      960.18531      0.99696118
    462000  -335.41494      49.335113     -384.75005      262.71283     -1587.6972      960.18531      0.99696118
    463000  -351.22218      51.680443     -402.90262      275.20187     -900.96922      960.18531      0.99696118
    464000  -345.96898      49.682831     -395.65182      264.56445      1233.7457      960.18531      0.99696118
    465000  -325.23893      60.814222     -386.05315      323.83986     -4243.5307      960.18531      0.99696118
    466000  -337.37858      57.064116     -394.4427       303.87029     -2489.5669      960.18531      0.99696118
    467000  -337.04248      67.595422     -404.6379       359.95021      401.37313      960.18531      0.99696118
    468000  -350.34095      58.705592     -409.04654      312.61126      1465.5556      960.18531      0.99696118
    469000  -355.45957      45.871389     -401.33096      244.26826     -295.0622       960.18531      0.99696118
    470000  -354.78208      48.134334     -402.91642      256.3186      -5739.4399      960.18531      0.99696118
    471000  -341.42138      50.742393     -392.16377      270.20669      855.2256       960.18531      0.99696118
    472000  -329.53862      57.682384     -387.22101      307.16261     -2849.1091      960.18531      0.99696118
    473000  -333.87324      59.668245     -393.54149      317.73746     -2861.5769      960.18531      0.99696118
    474000  -313.74061      58.853842     -372.59445      313.40071     -12.558227      960.18531      0.99696118
    475000  -317.50584      58.251851     -375.75769      310.19506      179.52418      960.18531      0.99696118
    476000  -349.15229      42.769946     -391.92224      227.75287     -744.43981      960.18531      0.99696118
    477000  -345.49736      52.802877     -398.30023      281.1789      -4242.5289      960.18531      0.99696118
    478000  -340.59659      55.524899     -396.12149      295.67385     -49.017155      960.18531      0.99696118
    479000  -346.88217      56.673196     -403.55536      301.78862     -3646.0851      960.18531      0.99696118
    480000  -336.85427      58.233893     -395.08817      310.09943      1711.4019      960.18531      0.99696118
    481000  -341.07917      54.261271     -395.34044      288.94495      2581.8993      960.18531      0.99696118
    482000  -348.61876      50.318775     -398.93753      267.95089      766.11939      960.18531      0.99696118
    483000  -348.21795      44.422708     -392.64066      236.55394      972.77735      960.18531      0.99696118
    484000  -328.19703      62.979033     -391.17606      335.36762      426.58426      960.18531      0.99696118
    485000  -345.61136      42.96078      -388.57214      228.76907     -94.045508      960.18531      0.99696118
    486000  -341.52735      63.041731     -404.56908      335.7015       1943.3215      960.18531      0.99696118
    487000  -342.51149      55.034138     -397.54563      293.06052     -1500.7002      960.18531      0.99696118
    488000  -326.00558      67.77397      -393.77955      360.90099      682.42363      960.18531      0.99696118
    489000  -310.41228      66.514159     -376.92643      354.19241     -4639.3968      960.18531      0.99696118
    490000  -339.44591      53.34865      -392.79456      284.08518     -4667.6218      960.18531      0.99696118
    491000  -342.72705      53.874404     -396.60145      286.88486      326.64192      960.18531      0.99696118
    492000  -332.60272      64.536522     -397.13924      343.66136     -3273.349       960.18531      0.99696118
    493000  -344.71648      63.366165     -408.08264      337.42913      2166.6378      960.18531      0.99696118
    494000  -337.11655      52.467791     -389.58434      279.39455     -150.16055      960.18531      0.99696118
    495000  -353.56165      53.773738     -407.33539      286.3488       117.43187      960.18531      0.99696118
    496000  -343.87845      52.304509     -396.18296      278.52506     -2172.1883      960.18531      0.99696118
    497000  -341.93743      59.472655     -401.41009      316.69593     -6.1281849      960.18531      0.99696118
    498000  -345.85681      51.891372     -397.74818      276.32508      990.71558      960.18531      0.99696118
    499000  -329.80773      57.238343     -387.04608      304.79806     -2431.0031      960.18531      0.99696118
    500000  -336.24474      46.872187     -383.11693      249.59758     -1535.4019      960.18531      0.99696118
    501000  -345.48753      51.264462     -396.75199      272.98674      3248.1813      960.18531      0.99696118
    502000  -324.76385      52.887843     -377.6517       281.63135     -3161.7929      960.18531      0.99696118
    503000  -359.28671      46.632091     -405.9188       248.31905      1501.6314      960.18531      0.99696118
    504000  -338.09612      43.727018     -381.82314      232.84934     -451.60315      960.18531      0.99696118
    505000  -326.20116      65.57075      -391.77191      349.1687       206.31243      960.18531      0.99696118
    506000  -338.6013       63.311342     -401.91264      337.1372      -2034.5645      960.18531      0.99696118
    507000  -328.33513      59.948894     -388.28403      319.23193      2155.504       960.18531      0.99696118
    508000  -336.94807      56.253177     -393.20125      299.55199     -4844.8058      960.18531      0.99696118
    509000  -336.36846      66.61565      -402.98411      354.73286      740.29455      960.18531      0.99696118
    510000  -334.14247      63.6155       -397.75797      338.75686      6892.7427      960.18531      0.99696118
    511000  -344.25441      54.456036     -398.71044      289.98209     -2634.796       960.18531      0.99696118
    512000  -336.51843      54.130794     -390.64923      288.25015     -3504.5047      960.18531      0.99696118
    513000  -341.79857      56.290861     -398.08943      299.75266      122.5488       960.18531      0.99696118
    514000  -339.60089      58.655457     -398.25635      312.34429      31.240656      960.18531      0.99696118
    515000  -339.72349      52.412795     -392.13629      279.10169      2805.3834      960.18531      0.99696118
    516000  -333.36962      54.558586     -387.9282       290.52817      800.72712      960.18531      0.99696118
    517000  -346.50707      60.063865     -406.57093      319.84416     -752.9998       960.18531      0.99696118
    518000  -341.54388      59.032163     -400.57604      314.35028     -3764.0452      960.18531      0.99696118
    519000  -331.71559      54.802737     -386.51832      291.8283       1809.7745      960.18531      0.99696118
    520000  -332.37391      56.619393     -388.9933       301.50211     -750.93235      960.18531      0.99696118
    521000  -325.46106      57.917543     -383.37861      308.41485      2599.9898      960.18531      0.99696118
    522000  -338.37479      49.725254     -388.10005      264.79035     -3235.7524      960.18531      0.99696118
    523000  -323.72635      58.430799     -382.15715      311.14797     -3398.6555      960.18531      0.99696118
    524000  -328.99228      61.46427      -390.45655      327.30141     -2160.0544      960.18531      0.99696118
    525000  -315.10102      54.490007     -369.59103      290.16299      1753.8395      960.18531      0.99696118
    526000  -341.01539      58.762129     -399.77752      312.91233     -106.10408      960.18531      0.99696118
    527000  -321.4711       60.594649     -382.06575      322.67062      327.56273      960.18531      0.99696118
    528000  -337.10165      55.264513     -392.36617      294.28728     -764.21156      960.18531      0.99696118
    529000  -337.50262      50.891993     -388.39461      271.00332      2944.4305      960.18531      0.99696118
    530000  -314.91966      49.036971     -363.95663      261.1252       1392.4168      960.18531      0.99696118
    531000  -347.99741      52.320789     -400.3182       278.61175      878.30512      960.18531      0.99696118
    532000  -334.55952      60.069616     -394.62914      319.87478     -4320.7339      960.18531      0.99696118
    533000  -324.84658      59.787865     -384.63445      318.37444      692.52612      960.18531      0.99696118
    534000  -311.59401      74.008262     -385.60228      394.09902      2849.0408      960.18531      0.99696118
    535000  -331.70568      52.467858     -384.17354      279.3949      -2929.7366      960.18531      0.99696118
    536000  -335.46001      50.918574     -386.37859      271.14486      193.52924      960.18531      0.99696118
    537000  -325.88512      63.314122     -389.19924      337.152       -124.7498       960.18531      0.99696118
    538000  -328.16396      50.872029     -379.03598      270.89701      1191.7858      960.18531      0.99696118
    539000  -343.8709       47.470171     -391.34107      252.78188     -602.65769      960.18531      0.99696118
    540000  -336.9453       49.305202     -386.25051      262.55355      951.27412      960.18531      0.99696118
    541000  -329.2371       46.624677     -375.86178      248.27957      756.90697      960.18531      0.99696118
    542000  -333.37143      47.26512      -380.63655      251.68997     -3769.9733      960.18531      0.99696118
    543000  -327.00302      60.221364     -387.22439      320.68285     -1789.7431      960.18531      0.99696118
    544000  -338.13503      54.349725     -392.48476      289.41598     -1631.7694      960.18531      0.99696118
    545000  -342.02387      60.308395     -402.33226      321.1463      -717.82536      960.18531      0.99696118
    546000  -336.86886      50.598774     -387.46763      269.44191     -3960.078       960.18531      0.99696118
    547000  -329.75812      54.925166     -384.68329      292.48024     -2441.1619      960.18531      0.99696118
    548000  -343.36268      57.754813     -401.11749      307.5483      -3391.0971      960.18531      0.99696118
    549000  -329.74681      63.747078     -393.49389      339.45752      3739.4155      960.18531      0.99696118
    550000  -336.8762       49.645164     -386.52136      264.36387      1382.4822      960.18531      0.99696118
    551000  -353.81478      49.901727     -403.71651      265.73008      42.708801      960.18531      0.99696118
    552000  -344.86873      50.598412     -395.46715      269.43998     -3644.4041      960.18531      0.99696118
    553000  -328.9441       56.341615     -385.28571      300.02292     -1553.9376      960.18531      0.99696118
    554000  -347.50556      57.007293     -404.51286      303.5677       334.78799      960.18531      0.99696118
    555000  -337.54946      62.349914     -399.89938      332.01753     -1075.3252      960.18531      0.99696118
    556000  -344.54762      48.330813     -392.87844      257.36486     -5367.8259      960.18531      0.99696118
    557000  -348.41598      48.472845     -396.88883      258.12119      823.34157      960.18531      0.99696118
    558000  -329.83695      56.956193     -386.79314      303.2956       3380.5417      960.18531      0.99696118
    559000  -330.91442      54.90674      -385.82116      292.38212      2344.0996      960.18531      0.99696118
    560000  -344.12255      46.721697     -390.84424      248.79621      106.32724      960.18531      0.99696118
    561000  -329.65134      62.660691     -392.31204      333.67243     -709.52969      960.18531      0.99696118
    562000  -327.30299      54.365412     -381.6684       289.49951     -5616.807       960.18531      0.99696118
    563000  -331.00074      51.709054     -382.70979      275.35422     -3489.6645      960.18531      0.99696118
    564000  -333.17111      56.431615     -389.60272      300.50218     -1735.1385      960.18531      0.99696118
    565000  -331.95476      58.872159     -390.82692      313.49824      1036.996       960.18531      0.99696118
    566000  -331.6173       45.234039     -376.85134      240.87433      2255.9494      960.18531      0.99696118
    567000  -325.25494      59.482408     -384.73735      316.74786      1378.5528      960.18531      0.99696118
    568000  -335.58885      60.421963     -396.01081      321.75106     -182.04922      960.18531      0.99696118
    569000  -336.62113      54.366786     -390.98792      289.50682      2399.0822      960.18531      0.99696118
    570000  -323.21877      58.988669     -382.20744      314.11866      96.97078       960.18531      0.99696118
    571000  -348.72274      48.264972     -396.98771      257.01425      1758.3801      960.18531      0.99696118
    572000  -333.2708       61.874235     -395.14503      329.4845       4750.4599      960.18531      0.99696118
    573000  -336.84154      55.54242      -392.38396      295.76716     -1611.4099      960.18531      0.99696118
    574000  -343.43488      59.283058     -402.71794      315.68631      1754.8307      960.18531      0.99696118
    575000  -341.28921      49.744244     -391.03345      264.89148      3186.7124      960.18531      0.99696118
    576000  -328.7132       61.75385      -390.46705      328.84344      1502.9213      960.18531      0.99696118
    577000  -334.90698      60.92928      -395.83626      324.45255     -771.29118      960.18531      0.99696118
    578000  -339.64914      48.09142      -387.74057      256.09008      1208.8492      960.18531      0.99696118
    579000  -350.21267      51.161849     -401.37451      272.44032     -4385.4548      960.18531      0.99696118
    580000  -339.7168       54.388439     -394.10524      289.62213     -1993.723       960.18531      0.99696118
    581000  -340.71742      56.600588     -397.31801      301.40198     -643.98062      960.18531      0.99696118
    582000  -350.26372      49.80933      -400.07305      265.23806     -1079.1061      960.18531      0.99696118
    583000  -330.99898      63.848831     -394.84781      339.99936     -737.23879      960.18531      0.99696118
    584000  -334.63189      60.858912     -395.4908       324.07784     -2833.6715      960.18531      0.99696118
    585000  -344.70881      51.563422     -396.27223      274.57872      686.62199      960.18531      0.99696118
    586000  -332.39623      60.871151     -393.26738      324.14301      1489.0832      960.18531      0.99696118
    587000  -338.31582      52.057229     -390.37305      277.20828     -446.23596      960.18531      0.99696118
    588000  -316.29398      63.268269     -379.56224      336.90783     -3626.4945      960.18531      0.99696118
    589000  -330.4469       56.464537     -386.91143      300.67749     -1335.0819      960.18531      0.99696118
    590000  -330.41556      59.697167     -390.11273      317.89147      972.20774      960.18531      0.99696118
    591000  -348.27144      59.701153     -407.97259      317.91269     -3293.5956      960.18531      0.99696118
    592000  -328.63564      62.218145     -390.85379      331.31584      3313.7634      960.18531      0.99696118
    593000  -319.76252      62.42885      -382.19137      332.43786     -508.46586      960.18531      0.99696118
    594000  -336.05321      54.314499     -390.36771      289.2284       966.08276      960.18531      0.99696118
    595000  -335.13672      61.988118     -397.12483      330.09094     -3106.5886      960.18531      0.99696118
    596000  -328.09631      56.780634     -384.87694      302.36073     -673.52747      960.18531      0.99696118
    597000  -336.23478      52.795413     -389.0302       281.13916     -870.20277      960.18531      0.99696118
    598000  -336.32255      59.279369     -395.60192      315.66666     -864.23279      960.18531      0.99696118
    599000  -348.24903      54.605629     -402.85466      290.77868      2536.5426      960.18531      0.99696118
    600000  -330.80389      61.586362     -392.39026      327.95156     -196.43096      960.18531      0.99696118
    601000  -341.63418      60.0341       -401.66828      319.68566     -1932.7305      960.18531      0.99696118
    602000  -307.5117       72.692578     -380.20428      387.09291      3712.2273      960.18531      0.99696118
    603000  -338.94291      56.000404     -394.94331      298.20595     -2837.2689      960.18531      0.99696118
    604000  -333.45093      66.824429     -400.27536      355.84462      1207.0976      960.18531      0.99696118
    605000  -336.71789      56.286671     -393.00456      299.73034      739.40253      960.18531      0.99696118
    606000  -340.78876      63.173512     -403.96227      336.40324     -592.51346      960.18531      0.99696118
    607000  -332.04042      62.328753     -394.36917      331.90484     -1424.2666      960.18531      0.99696118
    608000  -334.3301       59.486195     -393.8163       316.76803     -1693.2175      960.18531      0.99696118
    609000  -321.42628      49.892858     -371.31913      265.68285      483.52436      960.18531      0.99696118
    610000  -327.78375      56.879528     -384.66328      302.88735      639.28661      960.18531      0.99696118
    611000  -351.11523      51.097343     -402.21258      272.09682     -68.943425      960.18531      0.99696118
    612000  -328.94         60.826905     -389.76691      323.9074      -1846.9297      960.18531      0.99696118
    613000  -332.8349       59.738917     -392.57382      318.11379     -2098.726       960.18531      0.99696118
    614000  -345.61592      50.475633     -396.09155      268.78617     -4508.5892      960.18531      0.99696118
    615000  -325.05296      61.901857     -386.95481      329.63159     -3115.1793      960.18531      0.99696118
    616000  -332.85516      56.521615     -389.37678      300.98144      639.1071       960.18531      0.99696118
    617000  -329.97959      60.407211     -390.3868       321.6725       2538.1538      960.18531      0.99696118
    618000  -320.25889      58.773773     -379.03266      312.97433     -368.15574      960.18531      0.99696118
    619000  -344.53078      47.310653     -391.84143      251.93244     -4312.4993      960.18531      0.99696118
    620000  -338.79984      63.380512     -402.18035      337.50553     -2218.0814      960.18531      0.99696118
    621000  -338.72723      57.632861     -396.36009      306.8989       619.41864      960.18531      0.99696118
    622000  -349.79577      53.51244      -403.30821      284.95738     -2722.5913      960.18531      0.99696118
    623000  -326.30894      58.57546      -384.8844       311.9183      -1783.4549      960.18531      0.99696118
    624000  -318.42731      51.039706     -369.46702      271.7899      -6918.1628      960.18531      0.99696118
    625000  -339.97501      41.355095     -381.33011      220.21869     -751.8813       960.18531      0.99696118
    626000  -317.25727      55.621205     -372.87848      296.18669      1027.721       960.18531      0.99696118
    627000  -334.65926      55.241186     -389.90045      294.16306     -3970.6168      960.18531      0.99696118
    628000  -333.07505      50.228364     -383.30342      267.46945     -3602.7307      960.18531      0.99696118
    629000  -356.36231      47.2031       -403.56541      251.35971     -288.7582       960.18531      0.99696118
    630000  -342.52427      49.586019     -392.11029      264.04892     -2777.988       960.18531      0.99696118
    631000  -337.08695      59.237144     -396.3241       315.44181      1416.5875      960.18531      0.99696118
    632000  -326.94861      52.534398     -379.48301      279.74924     -2208.3491      960.18531      0.99696118
    633000  -347.66663      46.952454     -394.61908      250.02501     -1042.2414      960.18531      0.99696118
    634000  -335.79618      65.415993     -401.21218      348.3446       176.95164      960.18531      0.99696118
    635000  -340.62237      64.044602     -404.66697      341.04186      2198.9152      960.18531      0.99696118
    636000  -349.35945      50.816427     -400.17588      270.60093     -3198.4941      960.18531      0.99696118
    637000  -326.01337      69.40713      -395.4205       369.59768      5828.7621      960.18531      0.99696118
    638000  -335.11078      48.772879     -383.88366      259.71889      2287.3405      960.18531      0.99696118
    639000  -331.4713       59.972628     -391.44393      319.35831      536.36591      960.18531      0.99696118
    640000  -338.27359      52.11624      -390.38983      277.52252      4454.1381      960.18531      0.99696118
    641000  -343.79406      53.322392     -397.11645      283.94536      2707.8952      960.18531      0.99696118
    642000  -334.51573      58.012822     -392.52855      308.92221      591.01213      960.18531      0.99696118
    643000  -324.18081      54.433169     -378.61398      289.86032     -1145.2298      960.18531      0.99696118
    644000  -326.00315      53.24933      -379.25248      283.5563      -4562.5235      960.18531      0.99696118
    645000  -320.32194      59.098538     -379.42048      314.70373     -4937.9123      960.18531      0.99696118
    646000  -327.77456      57.467155     -385.24171      306.0165      -559.05771      960.18531      0.99696118
    647000  -344.56541      48.316053     -392.88146      257.28626      2016.9044      960.18531      0.99696118
    648000  -341.10356      50.992426     -392.09599      271.53813     -703.18875      960.18531      0.99696118
    649000  -343.50018      49.424192     -392.92437      263.18718     -1459.3909      960.18531      0.99696118
    650000  -339.7993       49.139971     -388.93927      261.67368     -4950.4491      960.18531      0.99696118
    651000  -345.61091      57.928267     -403.53918      308.47195      892.95414      960.18531      0.99696118
    652000  -330.53846      63.221656     -393.76012      336.65961     -3107.5664      960.18531      0.99696118
    653000  -338.32639      57.238539     -395.56493      304.7991      -1622.8783      960.18531      0.99696118
    654000  -347.71194      53.626673     -401.33861      285.56567      1417.9455      960.18531      0.99696118
    655000  -341.47822      56.486544     -397.96477      300.79468     -2163.6368      960.18531      0.99696118
    656000  -323.99601      55.991385     -379.9874       298.15792      3122.7765      960.18531      0.99696118
    657000  -309.25062      71.982321     -381.23295      383.31075     -3579.8457      960.18531      0.99696118
    658000  -328.53209      55.543741     -384.07583      295.77419      1502.1116      960.18531      0.99696118
    659000  -339.1882       51.029698     -390.2179       271.73661     -1403.5553      960.18531      0.99696118
    660000  -339.07552      53.268552     -392.34407      283.65866     -798.84103      960.18531      0.99696118
    661000  -346.63264      49.539437     -396.17208      263.80086      447.35726      960.18531      0.99696118
    662000  -334.04876      63.101914     -397.15068      336.02197     -633.65933      960.18531      0.99696118
    663000  -352.29122      54.874096     -407.16531      292.20828     -1292.7013      960.18531      0.99696118
    664000  -340.3812       66.860366     -407.24157      356.03599      1582.382       960.18531      0.99696118
    665000  -355.60045      59.022247     -414.62269      314.29747     -1473.8927      960.18531      0.99696118
    666000  -335.48957      49.903257     -385.39283      265.73823     -1745.1148      960.18531      0.99696118
    667000  -327.51547      60.402107     -387.91758      321.64532     -322.41912      960.18531      0.99696118
    668000  -339.95424      45.61515      -385.56939      242.90377      224.7389       960.18531      0.99696118
    669000  -329.02024      59.412424     -388.43267      316.37519     -1622.2107      960.18531      0.99696118
    670000  -320.6366       56.333561     -376.97016      299.98004     -239.20034      960.18531      0.99696118
    671000  -323.74486      56.491948     -380.23681      300.82346     -2411.0534      960.18531      0.99696118
    672000  -335.35506      57.830284     -393.18534      307.95019      887.02966      960.18531      0.99696118
    673000  -336.37289      52.392511     -388.7654       278.99368     -4540.2594      960.18531      0.99696118
    674000  -328.62114      60.989404     -389.61054      324.77272     -3499.4655      960.18531      0.99696118
    675000  -363.3355       50.37754      -413.71304      268.26382     -1478.5378      960.18531      0.99696118
    676000  -362.06817      53.813047     -415.88122      286.55813     -3074.7615      960.18531      0.99696118
    677000  -329.558        56.527117     -386.08512      301.01073     -411.66599      960.18531      0.99696118
    678000  -328.81345      52.979044     -381.7925       282.117        131.17073      960.18531      0.99696118
    679000  -335.81238      51.953195     -387.76558      276.65429     -2792.7305      960.18531      0.99696118
    680000  -342.21746      52.711647     -394.92911      280.6931       4112.3009      960.18531      0.99696118
    681000  -340.5041       57.725364     -398.22947      307.39148     -1702.7714      960.18531      0.99696118
    682000  -330.65325      59.175154     -389.8284       315.11171     -989.75584      960.18531      0.99696118
    683000  -329.34715      56.603665     -385.95082      301.41836     -908.4896       960.18531      0.99696118
    684000  -340.25359      58.761326     -399.01492      312.90805      1136.7344      960.18531      0.99696118
    685000  -348.90422      57.728472     -406.63269      307.40803      42.171613      960.18531      0.99696118
    686000  -342.60043      54.303138     -396.90357      289.1679      -2194.2692      960.18531      0.99696118
    687000  -333.65342      57.132983     -390.7864       304.23701     -2419.3308      960.18531      0.99696118
    688000  -334.99628      64.970137     -399.96642      345.97039     -5439.4141      960.18531      0.99696118
    689000  -339.32964      65.614672     -404.94431      349.40258     -4421.3409      960.18531      0.99696118
    690000  -318.44598      64.868622     -383.3146       345.42982     -274.32787      960.18531      0.99696118
    691000  -338.54801      56.165056     -394.71306      299.08274      340.92999      960.18531      0.99696118
    692000  -309.45608      61.126468     -370.58255      325.50259      679.0781       960.18531      0.99696118
    693000  -336.12638      55.279806     -391.40619      294.36872     -1963.568       960.18531      0.99696118
    694000  -323.92705      53.50471      -377.43176      284.91622      1748.9992      960.18531      0.99696118
    695000  -332.79998      52.975679     -385.77566      282.09909     -938.99837      960.18531      0.99696118
    696000  -323.65562      80.738783     -404.3944       429.9395      -49.950478      960.18531      0.99696118
    697000  -360.13332      51.783478     -411.9168       275.75054      1588.6464      960.18531      0.99696118
    698000  -330.81534      64.848957     -395.6643       345.3251      -2001.1851      960.18531      0.99696118
    699000  -358.74439      44.221003     -402.9654       235.47984      106.67256      960.18531      0.99696118
    700000  -347.04516      47.729199     -394.77436      254.16123     -2223.4216      960.18531      0.99696118
    701000  -315.90944      59.785768     -375.6952       318.36327     -3083.3518      960.18531      0.99696118
    702000  -340.51368      41.446221     -381.9599       220.70394     -38.817167      960.18531      0.99696118
    703000  -327.14727      55.938786     -383.08605      297.87784      4389.6545      960.18531      0.99696118
    704000  -342.79021      51.646337     -394.43654      275.02025     -846.53574      960.18531      0.99696118
    705000  -338.06922      56.463576     -394.53279      300.67238      723.48668      960.18531      0.99696118
    706000  -320.13348      58.119332     -378.25281      309.48939      2712.2897      960.18531      0.99696118
    707000  -325.27478      57.516413     -382.79119      306.2788      -3886.1122      960.18531      0.99696118
    708000  -332.13143      51.234482     -383.36591      272.8271      -3991.7001      960.18531      0.99696118
    709000  -318.5967       60.133159     -378.72986      320.21316     -2429.4365      960.18531      0.99696118
    710000  -335.4375       60.884266     -396.32177      324.21285     -4464.4388      960.18531      0.99696118
    711000  -326.73811      65.494302     -392.23242      348.76161     -1793.1526      960.18531      0.99696118
    712000  -333.97795      44.315462     -378.29341      235.98284     -2429.7317      960.18531      0.99696118
    713000  -346.36119      54.772432     -401.13363      291.66692     -823.36601      960.18531      0.99696118
    714000  -334.37773      54.541972     -388.91971      290.4397       117.60467      960.18531      0.99696118
    715000  -327.33538      54.523403     -381.85878      290.34082      1339.9357      960.18531      0.99696118
    716000  -334.36116      56.265765     -390.62693      299.61902     -2332.7212      960.18531      0.99696118
    717000  -343.67472      46.1143       -389.78902      245.56178     -1782.7023      960.18531      0.99696118
    718000  -334.96656      58.305449     -393.27201      310.48047      1351.1423      960.18531      0.99696118
    719000  -329.33697      64.357505     -393.69448      342.70808      2247.6296      960.18531      0.99696118
    720000  -343.04627      64.926859     -407.97313      345.73993     -1694.1356      960.18531      0.99696118
    721000  -324.45191      60.751783     -385.20369      323.50737      198.42073      960.18531      0.99696118
    722000  -339.27175      51.770678     -391.04243      275.68238     -1563.6955      960.18531      0.99696118
    723000  -316.93551      69.40665      -386.34216      369.59512     -1918.1356      960.18531      0.99696118
    724000  -320.68857      60.778795     -381.46736      323.65121     -182.44272      960.18531      0.99696118
    725000  -324.45514      60.236451     -384.69159      320.76319      739.75325      960.18531      0.99696118
    726000  -333.64679      52.807482     -386.45427      281.20343      3288.4883      960.18531      0.99696118
    727000  -340.29523      48.069348     -388.36458      255.97254      467.17623      960.18531      0.99696118
    728000  -333.39279      63.767026     -397.15982      339.56374     -407.63002      960.18531      0.99696118
    729000  -353.87957      51.94042      -405.81999      276.58626      4602.4933      960.18531      0.99696118
    730000  -340.63172      56.173717     -396.80544      299.12886     -447.08729      960.18531      0.99696118
    731000  -336.26691      66.690179     -402.95709      355.12973     -106.98505      960.18531      0.99696118
    732000  -335.02083      57.316786     -392.33762      305.21577     -3255.1112      960.18531      0.99696118
    733000  -331.16363      53.019129     -384.18276      282.33046     -370.17365      960.18531      0.99696118
    734000  -339.36912      60.033151     -399.40227      319.6806      -1871.3611      960.18531      0.99696118
    735000  -329.30709      59.820282     -389.12737      318.54706     -2113.0795      960.18531      0.99696118
    736000  -346.5413       53.723754     -400.26506      286.08264     -2602.8093      960.18531      0.99696118
    737000  -342.07335      53.907818     -395.98117      287.06279     -2587.8253      960.18531      0.99696118
    738000  -347.37433      49.173485     -396.54782      261.85215     -3058.8195      960.18531      0.99696118
    739000  -321.60005      61.112057     -382.71211      325.42585      1812.5082      960.18531      0.99696118
    740000  -329.07356      66.313964     -395.38752      353.12636     -2013.7758      960.18531      0.99696118
    741000  -318.58964      60.092707     -378.68235      319.99775     -4410.9635      960.18531      0.99696118
    742000  -342.22103      55.319757     -397.54078      294.58146     -1952.9426      960.18531      0.99696118
    743000  -319.30792      54.203505     -373.51142      288.63734     -3288.7432      960.18531      0.99696118
    744000  -324.78331      58.392582     -383.17589      310.94446      2294.7378      960.18531      0.99696118
    745000  -327.85476      62.995852     -390.85061      335.45719      250.11951      960.18531      0.99696118
    746000  -334.79975      49.407271     -384.20702      263.09707     -518.55823      960.18531      0.99696118
    747000  -320.7857       54.549501     -375.3352       290.4798       6428.3817      960.18531      0.99696118
    748000  -331.95809      55.297789     -387.25588      294.46448      511.33342      960.18531      0.99696118
    749000  -347.0849       51.506972     -398.59187      274.27812      1115.3332      960.18531      0.99696118
    750000  -332.66966      63.688236     -396.3579       339.14418      313.95101      960.18531      0.99696118
    751000  -327.7017       65.144351     -392.84605      346.89809     -2846.7005      960.18531      0.99696118
    752000  -324.39015      55.578362     -379.96851      295.95855     -2914.3077      960.18531      0.99696118
    753000  -334.75453      53.854327     -388.60886      286.77795     -2470.3254      960.18531      0.99696118
    754000  -360.68273      43.004229     -403.68696      229.00044     -792.63633      960.18531      0.99696118
    755000  -328.44254      62.750438     -391.19298      334.15034      1819.9645      960.18531      0.99696118
    756000  -334.83801      61.543457     -396.38147      327.72309      511.95519      960.18531      0.99696118
    757000  -344.71808      48.5405       -393.25858      258.48146      1257.7457      960.18531      0.99696118
    758000  -336.68826      53.905668     -390.59393      287.05134     -784.54895      960.18531      0.99696118
    759000  -316.38631      60.415018     -376.80132      321.71407     -1645.4608      960.18531      0.99696118
    760000  -324.47184      56.212495     -380.68433      299.33535     -652.29405      960.18531      0.99696118
    761000  -332.70113      60.013983     -392.71512      319.57853     -3551.2216      960.18531      0.99696118
    762000  -322.5149       46.827272     -369.34217      249.3584       3176.4199      960.18531      0.99696118
    763000  -339.25695      47.404756     -386.6617       252.43354      1210.6587      960.18531      0.99696118
    764000  -330.73697      67.826813     -398.56378      361.18238      3552.5987      960.18531      0.99696118
    765000  -340.42554      47.596646     -388.02218      253.45537      63.655475      960.18531      0.99696118
    766000  -336.84598      46.101629     -382.94761      245.4943      -1907.2935      960.18531      0.99696118
    767000  -321.42053      55.369057     -376.78959      294.84399     -192.85675      960.18531      0.99696118
    768000  -340.34248      56.085432     -396.42791      298.65873      916.51643      960.18531      0.99696118
    769000  -314.74213      58.999711     -373.74184      314.17746     -907.49418      960.18531      0.99696118
    770000  -341.85939      49.941524     -391.80092      265.94201      388.63754      960.18531      0.99696118
    771000  -339.50144      49.638271     -389.13971      264.32716     -4861.6008      960.18531      0.99696118
    772000  -336.49128      53.147501     -389.63879      283.01405     -1157.5115      960.18531      0.99696118
    773000  -323.27053      59.809134     -383.07966      318.4877      -2654.2689      960.18531      0.99696118
    774000  -344.39405      45.167597     -389.56165      240.52052     -3648.403       960.18531      0.99696118
    775000  -325.17175      52.613325     -377.78507      280.16953     -2866.6881      960.18531      0.99696118
    776000  -334.76677      54.89579      -389.66257      292.32381     -547.45732      960.18531      0.99696118
    777000  -333.69656      58.086501     -391.78306      309.31456      3102.9713      960.18531      0.99696118
    778000  -331.00572      60.354818     -391.36054      321.3935      -145.16966      960.18531      0.99696118
    779000  -331.06833      60.642987     -391.71131      322.92802     -4158.0337      960.18531      0.99696118
    780000  -322.97445      59.277547     -382.252        315.65696     -493.40744      960.18531      0.99696118
    781000  -324.19724      55.015199     -379.21244      292.95967     -3414.5476      960.18531      0.99696118
    782000  -330.92979      50.19189      -381.12168      267.27522     -396.14272      960.18531      0.99696118
    783000  -322.97727      55.804656     -378.78192      297.16358     -2764.4177      960.18531      0.99696118
    784000  -343.00179      47.982419     -390.98421      255.50964     -90.559676      960.18531      0.99696118
    785000  -326.66225      61.928975     -388.59122      329.776       -1181.5316      960.18531      0.99696118
    786000  -335.17292      55.732896     -390.90582      296.78145     -3664.6715      960.18531      0.99696118
    787000  -323.1103       56.197557     -379.30786      299.25581     -3373.974       960.18531      0.99696118
    788000  -336.64103      56.598451     -393.23949      301.39059     -2578.7786      960.18531      0.99696118
    789000  -336.35284      52.073709     -388.42654      277.29604     -2370.0542      960.18531      0.99696118
    790000  -312.55945      69.302745     -381.86219      369.04182      2348.5504      960.18531      0.99696118
    791000  -348.72362      46.319943     -395.04357      246.65684      3435.6762      960.18531      0.99696118
    792000  -307.63839      63.702069     -371.34046      339.21784      4600.2147      960.18531      0.99696118
    793000  -334.98088      65.517727     -400.49861      348.88635     -4863.8539      960.18531      0.99696118
    794000  -337.0307       53.972373     -391.00307      287.40655     -637.14391      960.18531      0.99696118
    795000  -330.7798       59.617091     -390.39689      317.46506      2318.4094      960.18531      0.99696118
    796000  -330.97771      50.947476     -381.92519      271.29877     -4012.4557      960.18531      0.99696118
    797000  -344.1064       49.520209     -393.62661      263.69847      4883.113       960.18531      0.99696118
    798000  -324.7886       58.327291     -383.1159       310.59679      109.18175      960.18531      0.99696118
    799000  -342.40964      55.410679     -397.82032      295.06563     -1096.2904      960.18531      0.99696118
    800000  -328.60972      52.969369     -381.57909      282.06548     -4103.4339      960.18531      0.99696118
    801000  -328.2445       53.646856     -381.89136      285.67315     -1058.7629      960.18531      0.99696118
    802000  -346.3475       48.160777     -394.50828      256.45941     -4157.149       960.18531      0.99696118
    803000  -333.64345      60.91752      -394.56097      324.38993     -4148.743       960.18531      0.99696118
    804000  -315.92288      59.551164     -375.47405      317.11399      4557.2602      960.18531      0.99696118
    805000  -342.31549      53.458417     -395.77391      284.6697       217.82418      960.18531      0.99696118
    806000  -330.99252      50.416604     -381.40913      268.47184     -223.0307       960.18531      0.99696118
    807000  -337.40118      56.617066     -394.01824      301.48972     -1269.415       960.18531      0.99696118
    808000  -315.04294      60.077759     -375.1207       319.91815      3505.5284      960.18531      0.99696118
    809000  -319.35587      50.74704      -370.10291      270.23143     -1663.8575      960.18531      0.99696118
    810000  -337.56849      49.442063     -387.01056      263.28234      1116.4686      960.18531      0.99696118
    811000  -320.00807      63.52038      -383.52845      338.25034     -1912.2593      960.18531      0.99696118
    812000  -345.04153      52.104606     -397.14614      277.46056      105.42814      960.18531      0.99696118
    813000  -336.19145      49.820642     -386.01209      265.2983       34.059277      960.18531      0.99696118
    814000  -315.8947       62.13677      -378.03147      330.88252     -373.43067      960.18531      0.99696118
    815000  -326.87291      55.021987     -381.8949       292.99582      2180.9954      960.18531      0.99696118
    816000  -343.90145      59.774247     -403.6757       318.30192     -2133.7073      960.18531      0.99696118
    817000  -330.84842      50.156531     -381.00495      267.08693      1089.8168      960.18531      0.99696118
    818000  -332.42309      62.354908     -394.77799      332.04412     -4381.1075      960.18531      0.99696118
    819000  -356.05839      40.426005     -396.48439      215.27122     -2507.4335      960.18531      0.99696118
    820000  -333.74592      54.874038     -388.61996      292.20798     -1711.5396      960.18531      0.99696118
    821000  -336.90141      56.540038     -393.44145      301.07954      947.89658      960.18531      0.99696118
    822000  -327.69523      62.193842     -389.88908      331.18643     -3264.898       960.18531      0.99696118
    823000  -345.18454      45.609408     -390.79395      242.87319     -638.10322      960.18531      0.99696118
    824000  -338.54004      50.485669     -389.02571      268.83961     -3529.1098      960.18531      0.99696118
    825000  -342.22982      57.704264     -399.93408      307.27913     -3211.9348      960.18531      0.99696118
    826000  -343.95882      59.382821     -403.34164      316.21755     -449.13412      960.18531      0.99696118
    827000  -338.435        61.766734     -400.20173      328.91205     -282.87863      960.18531      0.99696118
    828000  -335.8141       57.454105     -393.26821      305.94701      2186.6125      960.18531      0.99696118
    829000  -334.55147      56.130215     -390.68169      298.89721      4947.9058      960.18531      0.99696118
    830000  -337.90774      64.822423     -402.73017      345.1838      -2469.34        960.18531      0.99696118
    831000  -337.25904      57.983054     -395.2421       308.7637       1568.6126      960.18531      0.99696118
    832000  -345.01506      52.514303     -397.52936      279.64223     -47.870123      960.18531      0.99696118
    833000  -333.4992       52.104274     -385.60348      277.4588       1567.9988      960.18531      0.99696118
    834000  -350.72501      55.751206     -406.47622      296.87895      2184.7371      960.18531      0.99696118
    835000  -337.75227      59.375668     -397.12793      316.17946     -596.67978      960.18531      0.99696118
    836000  -325.3605       55.65227      -381.01277      296.35212     -3078.0023      960.18531      0.99696118
    837000  -314.62132      60.672336     -375.29365      323.08431     -1137.7407      960.18531      0.99696118
    838000  -342.03502      57.406257     -399.44128      305.69221     -3218.082       960.18531      0.99696118
    839000  -343.64074      55.891826     -399.53256      297.62777     -3286.1313      960.18531      0.99696118
    840000  -325.30467      56.37213      -381.6768       300.18542     -231.95326      960.18531      0.99696118
    841000  -343.49582      49.103783     -392.59961      261.48098     -2622.1293      960.18531      0.99696118
    842000  -346.64139      51.669985     -398.31138      275.14618     -3188.271       960.18531      0.99696118
    843000  -325.47634      56.314201     -381.79054      299.87694     -2838.9055      960.18531      0.99696118
    844000  -340.23432      63.715629     -403.94995      339.29005     -889.50334      960.18531      0.99696118
    845000  -336.42417      54.977241     -391.40141      292.75754      1102.036       960.18531      0.99696118
    846000  -330.38015      58.168681     -388.54883      309.75218     -2320.7432      960.18531      0.99696118
    847000  -326.3255       59.919215     -386.24471      319.07389      330.71151      960.18531      0.99696118
    848000  -337.1249       56.086254     -393.21115      298.66311      291.84625      960.18531      0.99696118
    849000  -325.61313      60.022499     -385.63563      319.62388      788.57149      960.18531      0.99696118
    850000  -331.73011      54.801421     -386.53154      291.82129     -400.46763      960.18531      0.99696118
    851000  -352.08019      48.447171     -400.52736      257.98447     -382.72097      960.18531      0.99696118
    852000  -333.34163      56.494455     -389.83608      300.83681     -1846.8626      960.18531      0.99696118
    853000  -322.21294      53.033522     -375.24646      282.4071      -266.44226      960.18531      0.99696118
    854000  -327.95035      56.538709     -384.48906      301.07246      147.41968      960.18531      0.99696118
    855000  -331.44834      57.277239     -388.72558      305.00519      1585.2848      960.18531      0.99696118
    856000  -332.46526      51.37526      -383.84052      273.57675      4086.7795      960.18531      0.99696118
    857000  -321.76781      47.572774     -369.34059      253.32825     -2889.0287      960.18531      0.99696118
    858000  -335.02314      56.111884     -391.13502      298.79959      2675.9974      960.18531      0.99696118
    859000  -332.65896      57.950365     -390.60932      308.58963     -42.733062      960.18531      0.99696118
    860000  -332.36953      57.677182     -390.04671      307.13491     -519.00729      960.18531      0.99696118
    861000  -346.04936      48.395251     -394.44461      257.708        2694.5426      960.18531      0.99696118
    862000  -322.56856      62.0587       -384.62726      330.46679     -737.85939      960.18531      0.99696118
    863000  -329.80375      55.690873     -385.49462      296.55768     -41.265584      960.18531      0.99696118
    864000  -321.18682      59.264697     -380.45152      315.58853     -2258.774       960.18531      0.99696118
    865000  -344.05196      62.289364     -406.34133      331.69509      4638.0547      960.18531      0.99696118
    866000  -351.47518      54.65257      -406.12775      291.02865      153.72211      960.18531      0.99696118
    867000  -335.58778      55.644034     -391.23181      296.30826     -3928.8406      960.18531      0.99696118
    868000  -344.26993      57.78583      -402.05576      307.71347     -1809.9885      960.18531      0.99696118
    869000  -341.64384      62.599738     -404.24358      333.34786     -1056.8628      960.18531      0.99696118
    870000  -346.67215      49.587151     -396.2593       264.05495     -32.074513      960.18531      0.99696118
    871000  -320.01664      64.187665     -384.2043       341.80367      1400.6878      960.18531      0.99696118
    872000  -335.06892      53.042919     -388.11184      282.45714     -902.14658      960.18531      0.99696118
    873000  -331.84957      55.324751     -387.17432      294.60805     -1135.1728      960.18531      0.99696118
    874000  -337.89597      51.897488     -389.79346      276.35765     -515.26452      960.18531      0.99696118
    875000  -350.66764      46.268966     -396.9366       246.38539     -1089.9365      960.18531      0.99696118
    876000  -346.31736      45.047416     -391.36477      239.88055     -5735.9932      960.18531      0.99696118
    877000  -320.26173      50.592918     -370.85465      269.41072     -197.18171      960.18531      0.99696118
    878000  -344.78872      47.931618     -392.72034      255.23912     -6525.932       960.18531      0.99696118
    879000  -331.96147      51.445097     -383.40657      273.94863     -1271.9007      960.18531      0.99696118
    880000  -351.05465      42.060312     -393.11496      223.97402     -29.868179      960.18531      0.99696118
    881000  -344.55818      55.944035     -400.50221      297.90578     -3272.9574      960.18531      0.99696118
    882000  -330.13711      45.978241     -376.11536      244.83726      939.3785       960.18531      0.99696118
    883000  -353.01921      47.752978     -400.77219      254.28785     -2782.5585      960.18531      0.99696118
    884000  -335.09968      57.545927     -392.64561      306.43597     -1742.2454      960.18531      0.99696118
    885000  -338.47476      65.907984     -404.38275      350.96449     -1318.4799      960.18531      0.99696118
    886000  -346.97028      52.093914     -399.0642       277.40363      257.78401      960.18531      0.99696118
    887000  -328.43477      52.408466     -380.84324      279.07864     -1562.3339      960.18531      0.99696118
    888000  -359.78448      48.279028     -408.06351      257.0891      -895.98061      960.18531      0.99696118
    889000  -334.63142      49.618908     -384.25032      264.22405      1055.4917      960.18531      0.99696118
    890000  -317.08294      57.454574     -374.53751      305.9495      -1165.9329      960.18531      0.99696118
    891000  -344.63974      53.699644     -398.33938      285.95425     -2999.5315      960.18531      0.99696118
    892000  -366.55835      52.292738     -418.85109      278.46238     -3427.6186      960.18531      0.99696118
    893000  -338.13465      55.304931     -393.43958      294.50251     -594.82063      960.18531      0.99696118
    894000  -346.64095      64.443838     -411.08478      343.16781     -1335.3906      960.18531      0.99696118
    895000  -323.7771       54.266268     -378.04337      288.97156     -482.98044      960.18531      0.99696118
    896000  -343.51727      50.269445     -393.78671      267.68821     -1618.6197      960.18531      0.99696118
    897000  -341.63396      59.792024     -401.42598      318.39659     -4117.4058      960.18531      0.99696118
    898000  -329.29611      59.433527     -388.72964      316.48756      4505.0386      960.18531      0.99696118
    899000  -323.04841      58.995829     -382.04424      314.15679     -2565.2218      960.18531      0.99696118
    900000  -340.19312      46.197193     -386.39031      246.00319     -595.97694      960.18531      0.99696118
    901000  -345.68597      49.079726     -394.7657       261.35287      123.29633      960.18531      0.99696118
    902000  -348.23042      49.114351     -397.34477      261.53725     -3426.848       960.18531      0.99696118
    903000  -316.22139      59.899395     -376.12078      318.96835      1265.223       960.18531      0.99696118
    904000  -337.15127      56.212422     -393.36369      299.33496      432.70904      960.18531      0.99696118
    905000  -323.53481      58.846533     -382.38134      313.36178      1579.4111      960.18531      0.99696118
    906000  -351.17756      53.780516     -404.95808      286.3849      -2402.5599      960.18531      0.99696118
    907000  -349.60845      54.337024     -403.94547      289.34834      3019.7712      960.18531      0.99696118
    908000  -334.98611      61.544268     -396.53037      327.72741     -1156.4768      960.18531      0.99696118
    909000  -326.42841      62.952112     -389.38052      335.22427     -2669.4939      960.18531      0.99696118
    910000  -336.9734       52.47989      -389.45329      279.45898     -3567.3409      960.18531      0.99696118
    911000  -348.0737       54.192047     -402.26575      288.57633     -1212.1979      960.18531      0.99696118
    912000  -359.14451      53.624112     -412.76863      285.55204      3338.9874      960.18531      0.99696118
    913000  -352.40389      47.203858     -399.60775      251.36375      1826.7012      960.18531      0.99696118
    914000  -326.65217      60.908154     -387.56032      324.34006     -338.80028      960.18531      0.99696118
    915000  -341.51782      61.295665     -402.81349      326.40358      2526.272       960.18531      0.99696118
    916000  -345.20147      53.978564     -399.18004      287.43952     -654.75413      960.18531      0.99696118
    917000  -335.70689      56.761465     -392.46836      302.25865     -1661.2493      960.18531      0.99696118
    918000  -344.27397      59.181624     -403.45559      315.14617      255.63931      960.18531      0.99696118
    919000  -333.62337      54.647267     -388.27064      291.00041     -184.7574       960.18531      0.99696118
    920000  -329.88496      50.275529     -380.16049      267.72061      1458.3429      960.18531      0.99696118
    921000  -336.02833      56.62243      -392.65076      301.51828      892.38616      960.18531      0.99696118
    922000  -350.68484      57.728163     -408.413        307.40638     -4815.8826      960.18531      0.99696118
    923000  -332.33258      66.410194     -398.74277      353.63879      1095.1493      960.18531      0.99696118
    924000  -343.3657       59.096834     -402.46253      314.69465     -1536.6998      960.18531      0.99696118
    925000  -352.09747      51.937788     -404.03526      276.57225     -3945.2975      960.18531      0.99696118
    926000  -348.60467      52.244857     -400.84953      278.20741     -1080.2153      960.18531      0.99696118
    927000  -344.16626      51.943826     -396.11008      276.6044      -436.26834      960.18531      0.99696118
    928000  -334.51499      49.370442     -383.88543      262.90096      178.5172       960.18531      0.99696118
    929000  -321.68109      56.033558     -377.71464      298.3825       2242.3798      960.18531      0.99696118
    930000  -332.0869       61.98824      -394.07514      330.09159      3939.1092      960.18531      0.99696118
    931000  -349.55652      48.05135      -397.60787      255.8767       170.64254      960.18531      0.99696118
    932000  -336.25031      51.94592      -388.19623      276.61555      2974.4048      960.18531      0.99696118
    933000  -320.90375      67.272809     -388.17656      358.23227     -1343.9801      960.18531      0.99696118
    934000  -341.56182      54.142761     -395.70458      288.31388      634.58346      960.18531      0.99696118
    935000  -355.97561      54.604487     -410.5801       290.7726      -405.15148      960.18531      0.99696118
    936000  -338.05522      61.22453      -399.27975      326.02478      2366.4244      960.18531      0.99696118
    937000  -317.76337      66.754514     -384.51788      355.47232     -3986.0781      960.18531      0.99696118
    938000  -352.53861      46.219604     -398.75822      246.12253     -412.83563      960.18531      0.99696118
    939000  -333.89198      61.748101     -395.64008      328.81283     -1330.827       960.18531      0.99696118
    940000  -343.21311      53.565533     -396.77865      285.2401      -327.25355      960.18531      0.99696118
    941000  -324.29852      54.426885     -378.72541      289.82686      1258.3238      960.18531      0.99696118
    942000  -324.59899      63.860882     -388.45987      340.06353     -7946.4986      960.18531      0.99696118
    943000  -335.10684      58.149163     -393.256        309.64824      483.84278      960.18531      0.99696118
    944000  -333.19382      66.411578     -399.6054       353.64616     -2169.5532      960.18531      0.99696118
    945000  -328.72065      64.638066     -393.35871      344.20209     -306.95295      960.18531      0.99696118
    946000  -338.39102      52.67147      -391.06249      280.47916     -2424.7089      960.18531      0.99696118
    947000  -338.16546      59.001253     -397.16672      314.18568      1560.6937      960.18531      0.99696118
    948000  -328.71126      57.81812      -386.52938      307.88541     -3681.0778      960.18531      0.99696118
    949000  -335.74428      45.531462     -381.27574      242.45813     -1082.8298      960.18531      0.99696118
    950000  -334.6803       60.666803     -395.34711      323.05484     -418.71116      960.18531      0.99696118
    951000  -340.48393      55.120518     -395.60444      293.5205      -5755.2615      960.18531      0.99696118
    952000  -342.49544      57.918915     -400.41436      308.42215     -788.49205      960.18531      0.99696118
    953000  -334.79832      57.478035     -392.27635      306.07444      354.66958      960.18531      0.99696118
    954000  -340.22708      53.151729     -393.37881      283.03657     -1687.4452      960.18531      0.99696118
    955000  -320.4172       59.390789     -379.80798      316.25998      436.57685      960.18531      0.99696118
    956000  -328.56343      50.173702     -378.73713      267.17837     -5098.119       960.18531      0.99696118
    957000  -335.05548      58.973449     -394.02893      314.03762     -1301.517       960.18531      0.99696118
    958000  -338.92364      46.460421     -385.38406      247.4049      -852.45778      960.18531      0.99696118
    959000  -320.0605       63.816164     -383.87666      339.8254       45.27802       960.18531      0.99696118
    960000  -339.07897      56.725585     -395.80455      302.06759     -711.88234      960.18531      0.99696118
    961000  -334.70681      45.584442     -380.29125      242.74025     -207.51485      960.18531      0.99696118
    962000  -317.93751      75.616501     -393.55401      402.663       -4625.1346      960.18531      0.99696118
    963000  -334.37516      52.773794     -387.14896      281.02404     -1346.1487      960.18531      0.99696118
    964000  -328.87925      61.535414     -390.41466      327.68026     -2762.1974      960.18531      0.99696118
    965000  -333.52347      60.020925     -393.5444       319.6155      -3322.3236      960.18531      0.99696118
    966000  -347.67367      50.234013     -397.90769      267.49953     -1908.0633      960.18531      0.99696118
    967000  -341.32537      52.039755     -393.36512      277.11523     -1270.9667      960.18531      0.99696118
    968000  -330.96465      59.972366     -390.93701      319.35692      1248.9414      960.18531      0.99696118
    969000  -336.80625      56.463416     -393.26967      300.67152      3822.3019      960.18531      0.99696118
    970000  -321.82242      61.85464      -383.67706      329.38016     -518.18573      960.18531      0.99696118
    971000  -326.10931      70.673622     -396.78294      376.34184      1214.4098      960.18531      0.99696118
    972000  -309.02121      68.953619     -377.97483      367.1827      -716.11873      960.18531      0.99696118
    973000  -319.43044      60.147535     -379.57797      320.28971     -2238.1831      960.18531      0.99696118
    974000  -337.42425      51.095038     -388.51929      272.08455      316.50796      960.18531      0.99696118
    975000  -338.88173      48.282164     -387.1639       257.1058      -719.75158      960.18531      0.99696118
    976000  -318.55279      57.61302      -376.16581      306.79324     -2746.3371      960.18531      0.99696118
    977000  -330.43023      54.143845     -384.57407      288.31965     -2041.0113      960.18531      0.99696118
    978000  -353.78752      47.915296     -401.70282      255.15221     -1752.3857      960.18531      0.99696118
    979000  -328.04228      59.810593     -387.85287      318.49547     -165.86414      960.18531      0.99696118
    980000  -334.04244      63.461857     -397.50429      337.9387      -823.39298      960.18531      0.99696118
    981000  -341.89085      60.800777     -402.69163      323.76826     -1599.8304      960.18531      0.99696118
    982000  -340.25644      53.314839     -393.57128      283.90514     -3722.0887      960.18531      0.99696118
    983000  -321.55446      61.849972     -383.40443      329.3553      -1973.3887      960.18531      0.99696118
    984000  -307.39153      61.859409     -369.25094      329.40555     -2006.8622      960.18531      0.99696118
    985000  -332.3449       51.121965     -383.46687      272.22793     -2617.0882      960.18531      0.99696118
    986000  -338.1652       56.034974     -394.20017      298.39004     -650.30757      960.18531      0.99696118
    987000  -321.97408      53.155422     -375.1295       283.05623      502.1162       960.18531      0.99696118
    988000  -336.67621      54.115535     -390.79174      288.1689      -3114.6735      960.18531      0.99696118
    989000  -339.42946      57.774307     -397.20377      307.6521      -3276.8867      960.18531      0.99696118
    990000  -329.56507      59.629362     -389.19443      317.5304      -2127.9969      960.18531      0.99696118
    991000  -343.24191      54.65749      -397.8994       291.05485      160.59612      960.18531      0.99696118
    992000  -331.92073      62.844957     -394.76569      334.65366     -3866.3313      960.18531      0.99696118
    993000  -348.28765      47.242244     -395.5299       251.56816      1144.704       960.18531      0.99696118
    994000  -321.763        60.630152     -382.39315      322.85968      1079.1516      960.18531      0.99696118
    995000  -334.3821       43.254712     -377.63681      230.33428     -1268.4344      960.18531      0.99696118
    996000  -324.93467      55.184814     -380.11949      293.86288      804.24731      960.18531      0.99696118
    997000  -344.46305      52.867899     -397.33095      281.52515     -4295.6115      960.18531      0.99696118
    998000  -327.76314      55.265872     -383.02902      294.29452      2011.6791      960.18531      0.99696118
    999000  -332.28764      56.282217     -388.56986      299.70662     -2069.5271      960.18531      0.99696118
   1000000  -338.00824      50.243428     -388.25167      267.54966     -1723.7839      960.18531      0.99696118
Loop time of 430.582 on 1 procs for 1000000 steps with 96 atoms

Performance: 200.659 ns/day, 0.120 hours/ns, 2322.438 timesteps/s
99.7% CPU use with 1 MPI tasks x 1 OpenMP threads

MPI task timing breakdown:
Section |  min time  |  avg time  |  max time  |%varavg| %total
---------------------------------------------------------------
Pair    | 337.29     | 337.29     | 337.29     |   0.0 | 78.33
Bond    | 0.05044    | 0.05044    | 0.05044    |   0.0 |  0.01
Kspace  | 58.998     | 58.998     | 58.998     |   0.0 | 13.70
Neigh   | 14.931     | 14.931     | 14.931     |   0.0 |  3.47
Comm    | 11.627     | 11.627     | 11.627     |   0.0 |  2.70
Output  | 0.1598     | 0.1598     | 0.1598     |   0.0 |  0.04
Modify  | 5.8576     | 5.8576     | 5.8576     |   0.0 |  1.36
Other   |            | 1.668      |            |       |  0.39

Nlocal:             96 ave          96 max          96 min
Histogram: 1 0 0 0 0 0 0 0 0 0
Nghost:           3884 ave        3884 max        3884 min
Histogram: 1 0 0 0 0 0 0 0 0 0
Neighs:          34670 ave       34670 max       34670 min
Histogram: 1 0 0 0 0 0 0 0 0 0

Total # of neighbors = 34670
Ave neighs/atom = 361.14583
Ave special neighs/atom = 2
Neighbor list builds = 20870
Dangerous builds = 0
# write data file
write_data data.after_eq.lmp
System init for write_data ...
PPPM initialization ...
  using 12-bit tables for long-range coulomb (src/kspace.cpp:342)
  G vector (1/distance) = 0.30847861
  grid = 9 9 9
  stencil order = 5
  estimated absolute RMS force accuracy = 0.0027675926
  estimated relative force accuracy = 8.334523e-06
  using double precision FFTW3
  3d grid and FFT values/proc = 4096 729
Generated 1 of 1 mixed pair_coeff terms from geometric mixing rule

# clean up
undump dEQUI

# production
# 2 ns
dump dPROD all custom 1000 prod.lammpstrj id element xu yu zu
dump_modify dPROD element H O sort id
run 2000000
PPPM initialization ...
  using 12-bit tables for long-range coulomb (src/kspace.cpp:342)
  G vector (1/distance) = 0.30847861
  grid = 9 9 9
  stencil order = 5
  estimated absolute RMS force accuracy = 0.0027675926
  estimated relative force accuracy = 8.334523e-06
  using double precision FFTW3
  3d grid and FFT values/proc = 4096 729
Generated 1 of 1 mixed pair_coeff terms from geometric mixing rule
Per MPI rank memory allocation (min/avg/max) = 9.335 | 9.335 | 9.335 Mbytes
   Step         TotEng         KinEng         PotEng          Temp          Press          Volume        Density
   1000000  -338.00824      50.243428     -388.25167      267.54966     -1723.1296      960.18531      0.99696118
   1001000  -333.09363      63.269104     -396.36274      336.91227      2412.5746      960.18531      0.99696118
   1002000  -313.65671      57.250663     -370.90738      304.86367      1936.0093      960.18531      0.99696118
   1003000  -355.7549       44.581965     -400.33687      237.40199     -614.54045      960.18531      0.99696118
   1004000  -339.01957      53.382832     -392.4024       284.2672       590.59986      960.18531      0.99696118
   1005000  -334.78155      60.298037     -395.07959      321.09114     -1697.8398      960.18531      0.99696118
   1006000  -337.18854      46.159429     -383.34797      245.80209      4564.9597      960.18531      0.99696118
   1007000  -348.64603      55.002831     -403.64886      292.89381     -721.49868      960.18531      0.99696118
   1008000  -316.52702      52.806937     -369.33396      281.20052      3384.1374      960.18531      0.99696118
   1009000  -342.99834      53.015028     -396.01337      282.30862     -3640.9014      960.18531      0.99696118
   1010000  -341.65055      58.367264     -400.01781      310.80964     -10.997842      960.18531      0.99696118
   1011000  -344.33531      52.126546     -396.46186      277.5774      -1000.2258      960.18531      0.99696118
   1012000  -350.0106       53.534346     -403.54495      285.07403      1439.1872      960.18531      0.99696118
   1013000  -335.62593      50.608176     -386.23411      269.49198      926.22471      960.18531      0.99696118
   1014000  -343.34372      49.784834     -393.12856      265.10762      4068.8541      960.18531      0.99696118
   1015000  -327.27101      49.90427      -377.17528      265.74363     -43.352307      960.18531      0.99696118
   1016000  -326.25231      58.111296     -384.36361      309.4466      -2168.2622      960.18531      0.99696118
   1017000  -324.29636      55.796854     -380.09321      297.12204     -963.04883      960.18531      0.99696118
   1018000  -330.59632      58.347708     -388.94403      310.70551     -2003.2419      960.18531      0.99696118
   1019000  -318.14506      62.948293     -381.09335      335.20393      836.07459      960.18531      0.99696118
   1020000  -334.9366       46.652461     -381.58906      248.42752      1380.1527      960.18531      0.99696118
   1021000  -351.0466       45.515152     -396.56175      242.37127     -3508.302       960.18531      0.99696118
   1022000  -342.91813      54.953632     -397.87176      292.63182     -1150.0518      960.18531      0.99696118
   1023000  -325.05254      62.065869     -387.11841      330.50497     -1627.6845      960.18531      0.99696118
   1024000  -337.37242      44.430906     -381.80333      236.59759     -1184.1507      960.18531      0.99696118
   1025000  -328.40638      56.625038     -385.03141      301.53217     -265.32557      960.18531      0.99696118
   1026000  -326.94874      56.824252     -383.77299      302.593       -70.572323      960.18531      0.99696118
   1027000  -342.73406      53.352934     -396.08699      284.10799     -330.3843       960.18531      0.99696118
   1028000  -336.07692      57.548967     -393.62589      306.45216     -1148.3413      960.18531      0.99696118
   1029000  -333.44828      55.59793      -389.04621      296.06275     -1050.5863      960.18531      0.99696118
   1030000  -363.22906      51.298264     -414.52733      273.16674      268.33869      960.18531      0.99696118
   1031000  -319.97671      59.576113     -379.55282      317.24685     -2177.828       960.18531      0.99696118
   1032000  -346.12993      48.137923     -394.26785      256.33771     -2439.2729      960.18531      0.99696118
   1033000  -322.89616      61.557783     -384.45394      327.79937     -399.04639      960.18531      0.99696118
   1034000  -339.01841      56.383959     -395.40237      300.24841     -104.32613      960.18531      0.99696118
   1035000  -334.23199      56.439258     -390.67125      300.54288      3303.3046      960.18531      0.99696118
   1036000  -322.8298       53.822124     -376.65192      286.60646      1826.1564      960.18531      0.99696118
   1037000  -347.65372      54.722239     -402.37596      291.39964      3099.677       960.18531      0.99696118
   1038000  -317.95227      55.646191     -373.59846      296.31975     -516.10333      960.18531      0.99696118
   1039000  -344.152        52.956748     -397.10875      281.99828     -2425.311       960.18531      0.99696118
   1040000  -333.21803      55.297854     -388.51589      294.46483     -2872.736       960.18531      0.99696118
   1041000  -320.93521      52.699196     -373.6344       280.6268      -1552.3471      960.18531      0.99696118
   1042000  -312.24773      73.181596     -385.42932      389.69697     -2503.7297      960.18531      0.99696118
   1043000  -327.26662      54.536196     -381.80282      290.40895     -763.28261      960.18531      0.99696118
   1044000  -348.66459      46.859906     -395.5245       249.53218      929.41014      960.18531      0.99696118
   1045000  -331.89379      50.521512     -382.4153       269.03048      62.507042      960.18531      0.99696118
   1046000  -339.9071       63.624321     -403.53142      338.80383      131.35958      960.18531      0.99696118
   1047000  -346.7811       61.518254     -408.29935      327.58888     -1537.3068      960.18531      0.99696118
   1048000  -347.1603       45.868805     -393.02911      244.2545      -6075.1399      960.18531      0.99696118
   1049000  -332.38946      58.003809     -390.39327      308.87422      1671.5395      960.18531      0.99696118
   1050000  -319.79767      58.17543      -377.9731       309.78811      812.98814      960.18531      0.99696118
   1051000  -337.35251      57.661082     -395.01359      307.04917      1731.5314      960.18531      0.99696118
   1052000  -348.81022      51.29714      -400.10736      273.16075     -1987.3307      960.18531      0.99696118
   1053000  -345.25908      53.992591     -399.25167      287.51421      160.16196      960.18531      0.99696118
   1054000  -326.965        62.427825     -389.39283      332.4324      -1021.1509      960.18531      0.99696118
   1055000  -345.40025      56.700239     -402.10049      301.93262      1337.3468      960.18531      0.99696118
   1056000  -325.94277      62.62106      -388.56383      333.46139      146.05909      960.18531      0.99696118
   1057000  -337.66698      54.737276     -392.40426      291.47971     -678.69666      960.18531      0.99696118
   1058000  -339.51844      57.251099     -396.76954      304.86599     -594.21033      960.18531      0.99696118
   1059000  -333.23647      60.304743     -393.54121      321.12685     -2453.8635      960.18531      0.99696118
   1060000  -343.88285      58.751339     -402.63419      312.85487     -3929.2293      960.18531      0.99696118
   1061000  -355.18848      49.693449     -404.88193      264.62099     -965.69138      960.18531      0.99696118
   1062000  -337.31629      66.294665     -403.61095      353.02359     -279.2055       960.18531      0.99696118
   1063000  -336.74118      60.357563     -397.09874      321.40812     -182.10864      960.18531      0.99696118
   1064000  -339.92789      56.070446     -395.99834      298.57893     -4769.9061      960.18531      0.99696118
   1065000  -350.00602      51.091766     -401.09779      272.06712      806.93466      960.18531      0.99696118
   1066000  -342.07464      53.400776     -395.47541      284.36276     -704.99442      960.18531      0.99696118
   1067000  -338.5718       58.05044      -396.62224      309.12253      402.01662      960.18531      0.99696118
   1068000  -336.25964      46.459515     -382.71916      247.40007      2771.7733      960.18531      0.99696118
   1069000  -347.05308      48.899761     -395.95284      260.39455      378.33736      960.18531      0.99696118
   1070000  -345.67367      48.109277     -393.78295      256.18517     -3409.9991      960.18531      0.99696118
   1071000  -343.11823      56.478424     -399.59665      300.75144     -1602.1961      960.18531      0.99696118
   1072000  -327.8137       60.31732      -388.13102      321.19382     -6378.8514      960.18531      0.99696118
   1073000  -320.87594      52.765705     -373.64165      280.98096      964.11949      960.18531      0.99696118
   1074000  -344.03065      47.146749     -391.1774       251.05964     -2306.1267      960.18531      0.99696118
   1075000  -327.80522      58.587129     -386.39235      311.98044     -2960.903       960.18531      0.99696118
   1076000  -315.5402       61.806524     -377.34673      329.12394     -1856.503       960.18531      0.99696118
   1077000  -336.14505      53.289809     -389.43486      283.77185      137.34828      960.18531      0.99696118
   1078000  -316.81261      57.802961     -374.61557      307.80469     -351.0078       960.18531      0.99696118
   1079000  -336.19237      47.832752     -384.02512      254.71265     -1910.7099      960.18531      0.99696118
   1080000  -325.79064      59.217511     -385.00815      315.33727     -1593.4247      960.18531      0.99696118
   1081000  -341.65746      57.404329     -399.06179      305.68195      161.31537      960.18531      0.99696118
   1082000  -335.89527      58.177385     -394.07266      309.79852     -5150.0787      960.18531      0.99696118
   1083000  -335.1925       57.917156     -393.10966      308.41279     -451.3848       960.18531      0.99696118
   1084000  -337.82959      50.381965     -388.21156      268.28739     -1621.2501      960.18531      0.99696118
   1085000  -350.10179      53.825553     -403.92734      286.62472     -3374.839       960.18531      0.99696118
   1086000  -338.24674      56.391481     -394.63822      300.28846     -1975.793       960.18531      0.99696118
   1087000  -337.00466      57.264407     -394.26907      304.93686     -94.071404      960.18531      0.99696118
   1088000  -334.44923      61.609129     -396.05836      328.07279     -1086.4472      960.18531      0.99696118
   1089000  -310.29222      61.966402     -372.25862      329.9753       2353.0934      960.18531      0.99696118
   1090000  -321.92442      55.585652     -377.51007      295.99737     -2975.983       960.18531      0.99696118
   1091000  -326.37811      50.253887     -376.632        267.60536     -530.74521      960.18531      0.99696118
   1092000  -336.27928      54.931837     -391.21112      292.51576     -3183.4109      960.18531      0.99696118
   1093000  -351.57752      44.37702      -395.95454      236.31064     -2828.4706      960.18531      0.99696118
   1094000  -334.15182      59.880152     -394.03197      318.86587     -1439.9358      960.18531      0.99696118
   1095000  -337.39388      65.731991     -403.12587      350.02732     -5249.4992      960.18531      0.99696118
   1096000  -345.49428      49.69701      -395.19129      264.63995      2531.4023      960.18531      0.99696118
   1097000  -341.28834      50.170325     -391.45866      267.16039      1195.5144      960.18531      0.99696118
   1098000  -355.38218      47.531451     -402.91363      253.1082      -4824.6294      960.18531      0.99696118
   1099000  -344.96159      55.077639     -400.03923      293.29217      283.64373      960.18531      0.99696118
   1100000  -344.99784      51.297197     -396.29503      273.16106      576.46193      960.18531      0.99696118
   1101000  -353.60505      53.791642     -407.39669      286.44415      720.9157       960.18531      0.99696118
   1102000  -353.79969      53.302007     -407.1017       283.8368      -2741.7716      960.18531      0.99696118
   1103000  -347.14229      56.941983     -404.08427      303.21993     -1491.7282      960.18531      0.99696118
   1104000  -348.87264      49.472996     -398.34564      263.44706     -946.84922      960.18531      0.99696118
   1105000  -335.16366      62.609542     -397.77321      333.40006     -78.922043      960.18531      0.99696118
   1106000  -337.63471      59.046136     -396.68085      314.42468      2500.3929      960.18531      0.99696118
   1107000  -334.74933      57.150395     -391.89972      304.32973      3376.019       960.18531      0.99696118
   1108000  -334.92119      54.423264     -389.34446      289.80757     -124.86072      960.18531      0.99696118
   1109000  -344.58007      52.339695     -396.91977      278.71243      1076.4231      960.18531      0.99696118
   1110000  -340.23158      63.406645     -403.63823      337.64469     -1842.6376      960.18531      0.99696118
   1111000  -348.25773      46.914664     -395.17239      249.82377      2776.3374      960.18531      0.99696118
   1112000  -335.27721      65.252846     -400.53006      347.47584     -2087.291       960.18531      0.99696118
   1113000  -319.52946      59.913027     -379.44249      319.04094      25.321306      960.18531      0.99696118
   1114000  -338.58972      55.349179     -393.9389       294.73814      490.73859      960.18531      0.99696118
   1115000  -342.6006       58.235942     -400.83654      310.11034     -525.22431      960.18531      0.99696118
   1116000  -332.5605       51.228804     -383.7893       272.79686     -4106.5138      960.18531      0.99696118
   1117000  -323.91434      53.481309     -377.39565      284.7916      -424.60053      960.18531      0.99696118
   1118000  -311.98793      54.492609     -366.48054      290.17684      2407.3964      960.18531      0.99696118
   1119000  -331.59088      52.138231     -383.72911      277.63962     -3485.6839      960.18531      0.99696118
   1120000  -335.64177      55.839123     -391.48089      297.34712     -2392.0789      960.18531      0.99696118
   1121000  -323.60444      55.791729     -379.39617      297.09474      303.91228      960.18531      0.99696118
   1122000  -341.36687      51.370359     -392.73723      273.55065     -1854.1347      960.18531      0.99696118
   1123000  -313.41014      63.915343     -377.32548      340.35354      251.69065      960.18531      0.99696118
   1124000  -345.91917      51.847508     -397.76668      276.0915      -2795.0862      960.18531      0.99696118
   1125000  -326.63532      58.882246     -385.51757      313.55196     -762.68037      960.18531      0.99696118
   1126000  -322.78606      61.743414     -384.52947      328.78787     -3554.5088      960.18531      0.99696118
   1127000  -308.51892      63.434238     -371.95315      337.79163     -2051.0352      960.18531      0.99696118
   1128000  -333.37416      53.263539     -386.6377       283.63196     -1303.643       960.18531      0.99696118
   1129000  -316.68755      59.537109     -376.22466      317.03915     -1621.0018      960.18531      0.99696118
   1130000  -340.05981      48.344461     -388.40428      257.43754      1981.5372      960.18531      0.99696118
   1131000  -333.17756      59.82442      -393.00198      318.5691      -3162.7396      960.18531      0.99696118
   1132000  -341.09915      50.39881      -391.49796      268.37709      929.95185      960.18531      0.99696118
   1133000  -357.00067      47.727195     -404.72786      254.15055     -3878.9681      960.18531      0.99696118
   1134000  -352.08596      59.833045     -411.91901      318.61503     -2108.9934      960.18531      0.99696118
   1135000  -330.47256      59.920568     -390.39313      319.08109      4958.6658      960.18531      0.99696118
   1136000  -340.94855      59.041846     -399.99039      314.40184      498.72336      960.18531      0.99696118
   1137000  -348.69904      47.836914     -396.53596      254.73481     -1864.0534      960.18531      0.99696118
   1138000  -335.56669      46.271585     -381.83827      246.39933     -5326.6246      960.18531      0.99696118
   1139000  -331.06882      59.641884     -390.7107       317.59708     -2789.3206      960.18531      0.99696118
   1140000  -333.60214      57.075499     -390.67764      303.93091     -2412.3965      960.18531      0.99696118
   1141000  -311.4986       61.588468     -373.08707      327.96277     -421.93366      960.18531      0.99696118
   1142000  -331.8776       56.752903     -388.6305       302.21306      546.24891      960.18531      0.99696118
   1143000  -343.40126      48.153523     -391.55478      256.42078     -2575.1475      960.18531      0.99696118
   1144000  -331.52187      60.754015     -392.27589      323.51926     -3551.0488      960.18531      0.99696118
   1145000  -326.85919      56.683778     -383.54297      301.84497     -1979.3707      960.18531      0.99696118
   1146000  -348.34692      53.856784     -402.2037       286.79103     -1441.3086      960.18531      0.99696118
   1147000  -338.42316      50.50982      -388.93297      268.96822      1606.0609      960.18531      0.99696118
   1148000  -319.17429      56.613538     -375.78782      301.47093      477.2196       960.18531      0.99696118
   1149000  -322.07266      52.884626     -374.95729      281.61422     -864.7651       960.18531      0.99696118
   1150000  -329.04096      59.062886     -388.10384      314.51388      308.98796      960.18531      0.99696118
   1151000  -317.16729      62.946869     -380.11416      335.19635     -3883.1519      960.18531      0.99696118
   1152000  -332.40101      53.616583     -386.01759      285.51194      2530.4768      960.18531      0.99696118
   1153000  -318.5333       57.102645     -375.63594      304.07546     -2250.5159      960.18531      0.99696118
   1154000  -329.68756      55.920988     -385.60854      297.78306     -687.8605       960.18531      0.99696118
   1155000  -330.73869      53.137117     -383.87581      282.95876     -30.512479      960.18531      0.99696118
   1156000  -321.99404      59.275482     -381.26952      315.64597     -1032.7966      960.18531      0.99696118
   1157000  -328.36369      59.628795     -387.99248      317.52738     -785.82991      960.18531      0.99696118
   1158000  -334.53332      59.614853     -394.14818      317.45314     -2591.3475      960.18531      0.99696118
   1159000  -329.43582      61.367513     -390.80334      326.78617     -1793.2876      960.18531      0.99696118
   1160000  -323.2934       61.033875     -384.32728      325.00953     -6140.3934      960.18531      0.99696118
   1161000  -328.97249      59.088653     -388.06114      314.65109      1818.093       960.18531      0.99696118
   1162000  -334.11941      62.694072     -396.81348      333.85019     -1085.9434      960.18531      0.99696118
   1163000  -338.89853      52.250274     -391.14881      278.23626      362.47794      960.18531      0.99696118
   1164000  -328.61727      65.12125      -393.73852      346.77508     -3075.7816      960.18531      0.99696118
   1165000  -314.63552      71.84838      -386.4839       382.5975       4104.2555      960.18531      0.99696118
   1166000  -329.66184      53.447099     -383.10894      284.60943      735.28002      960.18531      0.99696118
   1167000  -331.41971      53.704834     -385.12455      285.98189      838.82678      960.18531      0.99696118
   1168000  -338.08853      53.54545      -391.63398      285.13315      133.56184      960.18531      0.99696118
   1169000  -323.98188      58.927571     -382.90945      313.79331     -3018.0826      960.18531      0.99696118
   1170000  -337.42693      57.50202      -394.92895      306.20216     -4592.4061      960.18531      0.99696118
   1171000  -327.07781      64.271371     -391.34918      342.24942     -928.33586      960.18531      0.99696118
   1172000  -334.9403       60.381919     -395.32222      321.53782     -267.81709      960.18531      0.99696118
   1173000  -325.23221      61.66089      -386.8931       328.34842      4876.6267      960.18531      0.99696118
   1174000  -325.55225      51.332758     -376.88501      273.35042     -2719.32        960.18531      0.99696118
   1175000  -337.68173      56.626773     -394.30851      301.54141      3451.7258      960.18531      0.99696118
   1176000  -332.33223      60.904145     -393.23637      324.3187      -1800.6674      960.18531      0.99696118
   1177000  -350.58752      55.55267      -406.14019      295.82174     -764.54354      960.18531      0.99696118
   1178000  -331.86565      63.338678     -395.20432      337.28276     -1264.6891      960.18531      0.99696118
   1179000  -348.66891      48.496454     -397.16537      258.24691      685.67404      960.18531      0.99696118
   1180000  -356.74374      49.710554     -406.4543       264.71207     -2567.9817      960.18531      0.99696118
   1181000  -333.58875      53.704978     -387.29373      285.98265      250.26457      960.18531      0.99696118
   1182000  -342.11998      53.598115     -395.71809      285.4136      -2375.5701      960.18531      0.99696118
   1183000  -342.19332      52.281956     -394.47527      278.40496     -2287.8109      960.18531      0.99696118
   1184000  -324.90186      53.834567     -378.73642      286.67273     -818.4701       960.18531      0.99696118
   1185000  -324.60206      57.963402     -382.56546      308.65905     -748.98512      960.18531      0.99696118
   1186000  -326.81574      51.201619     -378.01736      272.6521       728.02377      960.18531      0.99696118
   1187000  -328.28554      55.557653     -383.84319      295.84827      781.56105      960.18531      0.99696118
   1188000  -346.72298      60.974783     -407.69776      324.69486     -1016.2861      960.18531      0.99696118
   1189000  -344.88567      62.671198     -407.55687      333.72838      899.55678      960.18531      0.99696118
   1190000  -338.19315      51.175935     -389.36909      272.51533      1972.0295      960.18531      0.99696118
   1191000  -320.80631      63.023018     -383.82933      335.60185      452.13538      960.18531      0.99696118
   1192000  -343.85192      47.394615     -391.24653      252.37954     -1605.3712      960.18531      0.99696118
   1193000  -331.21377      57.130267     -388.34403      304.22255     -3275.8925      960.18531      0.99696118
   1194000  -329.86446      62.045641     -391.9101       330.39725     -4982.0962      960.18531      0.99696118
   1195000  -351.34982      44.916153     -396.26598      239.18157     -1073.7143      960.18531      0.99696118
   1196000  -333.94926      64.827745     -398.777        345.21214     -793.37337      960.18531      0.99696118
   1197000  -344.64852      55.855326     -400.50384      297.4334      -1462.8898      960.18531      0.99696118
   1198000  -320.88372      68.978962     -389.86268      367.31766      802.70743      960.18531      0.99696118
   1199000  -324.67694      73.079575     -397.75652      389.1537      -1590.4884      960.18531      0.99696118
   1200000  -340.1613       51.461675     -391.62298      274.03691     -927.82725      960.18531      0.99696118
   1201000  -355.5991       54.034773     -409.63388      287.73883     -6021.0205      960.18531      0.99696118
   1202000  -345.32913      53.232846     -398.56197      283.46852     -1161.9591      960.18531      0.99696118
   1203000  -333.32878      57.4932       -390.82198      306.15519     -1161.0433      960.18531      0.99696118
   1204000  -346.39009      51.931939     -398.32203      276.5411       1020.9322      960.18531      0.99696118
   1205000  -330.48512      59.200103     -389.68522      315.24457     -2364.1688      960.18531      0.99696118
   1206000  -319.89818      67.103716     -387.0019       357.33184      134.79784      960.18531      0.99696118
   1207000  -337.48592      52.752027     -390.23795      280.90813     -3552.2597      960.18531      0.99696118
   1208000  -334.91734      60.275159     -395.1925       320.96931      1644.8985      960.18531      0.99696118
   1209000  -347.40368      56.792732     -404.19641      302.42516     -1445.7112      960.18531      0.99696118
   1210000  -318.27127      60.854975     -379.12625      324.05687     -4397.8567      960.18531      0.99696118
   1211000  -332.29889      50.796459     -383.09535      270.49459      4270.8729      960.18531      0.99696118
   1212000  -346.49014      56.772234     -403.26237      302.316        4136.759       960.18531      0.99696118
   1213000  -352.82742      57.47375      -410.30117      306.05162     -893.50096      960.18531      0.99696118
   1214000  -335.20088      58.764134     -393.96501      312.923       -1175.3023      960.18531      0.99696118
   1215000  -317.39054      59.869985     -377.26052      318.81173     -853.79806      960.18531      0.99696118
   1216000  -329.97153      54.908324     -384.87985      292.39055     -293.82435      960.18531      0.99696118
   1217000  -341.12224      52.125532     -393.24777      277.57199     -411.30923      960.18531      0.99696118
   1218000  -329.7929       60.682847     -390.47575      323.14028     -1279.8905      960.18531      0.99696118
   1219000  -336.22622      56.366452     -392.59267      300.15518     -715.93891      960.18531      0.99696118
   1220000  -332.37582      55.497367     -387.87319      295.52725      1130.0442      960.18531      0.99696118
   1221000  -328.6438       65.67522      -394.31902      349.72501      833.06888      960.18531      0.99696118
   1222000  -348.984        52.019626     -401.00362      277.00804     -3679.8105      960.18531      0.99696118
   1223000  -340.39861      56.50712      -396.90573      300.90425     -2285.9732      960.18531      0.99696118
   1224000  -341.3686       48.682735     -390.05133      259.23887     -4927.2533      960.18531      0.99696118
   1225000  -341.73361      47.457143     -389.19075      252.71251     -3091.0569      960.18531      0.99696118
   1226000  -331.93493      63.234544     -395.16947      336.72824      1169.93        960.18531      0.99696118
   1227000  -341.43907      50.064395     -391.50347      266.5963       1044.0893      960.18531      0.99696118
   1228000  -340.40051      54.08259      -394.4831       287.99347      626.51875      960.18531      0.99696118
   1229000  -353.07075      58.093908     -411.16466      309.354        789.41501      960.18531      0.99696118
   1230000  -351.87446      55.922356     -407.79682      297.79034      217.11799      960.18531      0.99696118
   1231000  -338.95765      54.134515     -393.09216      288.26997     -969.77343      960.18531      0.99696118
   1232000  -344.72459      46.920996     -391.64559      249.85749      588.39067      960.18531      0.99696118
   1233000  -343.34007      58.39275      -401.73282      310.94536     -1233.9476      960.18531      0.99696118
   1234000  -351.5031       52.587429     -404.09053      280.03163      1530.5586      960.18531      0.99696118
   1235000  -336.28459      51.915241     -388.19983      276.45218     -1614.9527      960.18531      0.99696118
   1236000  -342.49563      59.376252     -401.87188      316.18257     -2688.2852      960.18531      0.99696118
   1237000  -337.06675      52.277528     -389.34428      278.38139     -245.46263      960.18531      0.99696118
   1238000  -347.53712      50.848567     -398.38568      270.77207     -2249.4937      960.18531      0.99696118
   1239000  -338.68621      51.771522     -390.45773      275.68687      1579.673       960.18531      0.99696118
   1240000  -354.50869      48.485727     -402.99442      258.18979      325.75881      960.18531      0.99696118
   1241000  -339.25505      56.315807     -395.57086      299.8855      -3367.3771      960.18531      0.99696118
   1242000  -352.22487      55.700329     -407.9252       296.60803      1063.2962      960.18531      0.99696118
   1243000  -331.45612      65.577228     -397.03335      349.20319     -1671.8469      960.18531      0.99696118
   1244000  -332.64704      50.409722     -383.05676      268.43519     -1788.1312      960.18531      0.99696118
   1245000  -335.36058      57.236068     -392.59665      304.78595     -47.776546      960.18531      0.99696118
   1246000  -327.02238      63.998526     -391.02091      340.7965      -5102.6015      960.18531      0.99696118
   1247000  -337.91948      55.461489     -393.38097      295.33619     -24.335389      960.18531      0.99696118
   1248000  -343.76836      49.034966     -392.80332      261.11452     -2164.0485      960.18531      0.99696118
   1249000  -340.9527       49.909259     -390.86196      265.77019     -2733.2933      960.18531      0.99696118
   1250000  -336.76338      54.703065     -391.46645      291.29754     -2134.4815      960.18531      0.99696118
   1251000  -323.77924      59.074307     -382.85355      314.57469      2300.7394      960.18531      0.99696118
   1252000  -321.3327       62.410597     -383.74329      332.34067     -385.14981      960.18531      0.99696118
   1253000  -323.78134      63.182145     -386.96349      336.44921      1477.3436      960.18531      0.99696118
   1254000  -328.06501      62.384736     -390.44975      332.20296     -2576.5957      960.18531      0.99696118
   1255000  -343.8373       47.453487     -391.29079      252.69304     -2833.0116      960.18531      0.99696118
   1256000  -340.02288      55.796423     -395.81931      297.11974      802.81825      960.18531      0.99696118
   1257000  -345.50716      50.924255     -396.43142      271.17512     -77.714814      960.18531      0.99696118
   1258000  -332.45543      63.58793      -396.04336      338.61004      768.18099      960.18531      0.99696118
   1259000  -334.49833      55.960218     -390.45855      297.99196      4525.8265      960.18531      0.99696118
   1260000  -339.94261      55.72316      -395.66577      296.72961     -2197.5311      960.18531      0.99696118
   1261000  -349.40101      45.091828     -394.49283      240.11705      2710.1785      960.18531      0.99696118
   1262000  -336.16187      54.059813     -390.22169      287.87218     -1056.1726      960.18531      0.99696118
   1263000  -346.4915       46.312731     -392.80423      246.61844      1912.3132      960.18531      0.99696118
   1264000  -341.6381       51.902409     -393.54051      276.38385     -4088.9589      960.18531      0.99696118
   1265000  -331.95247      52.174671     -384.12714      277.83367     -1657.5126      960.18531      0.99696118
   1266000  -344.17339      55.245175     -399.41856      294.18431     -2125.309       960.18531      0.99696118
   1267000  -314.05428      64.322211     -378.37649      342.52014      4145.5069      960.18531      0.99696118
   1268000  -336.48281      56.768417     -393.25123      302.29567     -1013.8794      960.18531      0.99696118
   1269000  -336.32645      53.17914      -389.50559      283.18253     -3009.0811      960.18531      0.99696118
   1270000  -324.37286      61.300958     -385.67382      326.43176      311.65958      960.18531      0.99696118
   1271000  -323.86162      58.130399     -381.99201      309.54832      1501.3942      960.18531      0.99696118
   1272000  -327.17611      60.372056     -387.54816      321.4853      -2088.0437      960.18531      0.99696118
   1273000  -313.21365      53.405075     -366.61872      284.38565     -25.950871      960.18531      0.99696118
   1274000  -328.23987      50.527008     -378.76687      269.05975     -6573.2703      960.18531      0.99696118
   1275000  -331.22546      52.978092     -384.20355      282.11194      114.04117      960.18531      0.99696118
   1276000  -354.68284      53.327791     -408.01063      283.97411     -1364.0891      960.18531      0.99696118
   1277000  -330.26756      51.828348     -382.09591      275.98947     -2771.1751      960.18531      0.99696118
   1278000  -338.71006      48.774211     -387.48427      259.72598      36.303877      960.18531      0.99696118
   1279000  -332.26702      60.354059     -392.62108      321.38946      4972.9136      960.18531      0.99696118
   1280000  -340.37492      50.608467     -390.98339      269.49352     -2344.8304      960.18531      0.99696118
   1281000  -343.11516      50.911549     -394.02671      271.10745     -2816.3191      960.18531      0.99696118
   1282000  -328.66957      65.206503     -393.87608      347.22905     -850.26911      960.18531      0.99696118
   1283000  -341.44065      56.0793       -397.51995      298.62608      213.48663      960.18531      0.99696118
   1284000  -335.78503      55.993065     -391.7781       298.16687      561.6069       960.18531      0.99696118
   1285000  -341.12555      50.402242     -391.52779      268.39536      1275.1814      960.18531      0.99696118
   1286000  -332.94672      50.097649     -383.04437      266.77338     -1900.5033      960.18531      0.99696118
   1287000  -339.89588      46.736554     -386.63243      248.87533     -44.199915      960.18531      0.99696118
   1288000  -320.80835      57.779582     -378.58793      307.6802      -3525.0354      960.18531      0.99696118
   1289000  -339.87189      51.45634      -391.32823      274.0085       1234.0863      960.18531      0.99696118
   1290000  -323.9562       44.54701      -368.50321      237.21585      109.22563      960.18531      0.99696118
   1291000  -322.38586      50.315885     -372.70174      267.9355       495.29984      960.18531      0.99696118
   1292000  -350.7437       53.096092     -403.8398       282.7403      -2972.8249      960.18531      0.99696118
   1293000  -344.98675      54.645919     -399.63267      290.99323     -607.12313      960.18531      0.99696118
   1294000  -334.76649      63.832601     -398.5991       339.91293      165.90826      960.18531      0.99696118
   1295000  -341.15185      46.092603     -387.24446      245.44624      2318.3919      960.18531      0.99696118
   1296000  -310.25419      56.274724     -366.52891      299.66673     -3527.4729      960.18531      0.99696118
   1297000  -339.38332      57.671202     -397.05453      307.10307      3556.7573      960.18531      0.99696118
   1298000  -335.95366      49.841587     -385.79525      265.40984      1754.6498      960.18531      0.99696118
   1299000  -335.06495      51.550869     -386.61582      274.51188     -266.41862      960.18531      0.99696118
   1300000  -349.01356      48.326682     -397.34024      257.34286     -2330.2817      960.18531      0.99696118
   1301000  -322.10151      53.56786      -375.66937      285.25249     -1951.5746      960.18531      0.99696118
   1302000  -336.41576      50.22782      -386.64358      267.46655     -2475.1585      960.18531      0.99696118
   1303000  -323.4423       57.022229     -380.46453      303.64724     -899.75125      960.18531      0.99696118
   1304000  -331.69187      70.53317      -402.22504      375.59392     -1185.0519      960.18531      0.99696118
   1305000  -332.79923      56.854413     -389.65365      302.75361      80.582849      960.18531      0.99696118
   1306000  -337.47396      52.440674     -389.91463      279.25015     -489.50294      960.18531      0.99696118
   1307000  -332.47115      56.767382     -389.23853      302.29016     -1253.1721      960.18531      0.99696118
   1308000  -353.31291      51.766848     -405.07976      275.66198     -3240.1626      960.18531      0.99696118
   1309000  -331.31134      65.882021     -397.19336      350.82624     -282.08337      960.18531      0.99696118
   1310000  -321.41113      57.656793     -379.06792      307.02634      2690.2824      960.18531      0.99696118
   1311000  -316.03954      64.304023     -380.34357      342.42329      1629.6858      960.18531      0.99696118
   1312000  -325.16543      62.358489     -387.52392      332.06319     -165.49229      960.18531      0.99696118
   1313000  -329.10971      57.651393     -386.7611       306.99758     -4169.2066      960.18531      0.99696118
   1314000  -337.19825      56.093374     -393.29162      298.70103      1513.7353      960.18531      0.99696118
   1315000  -341.82282      54.891724     -396.71455      292.30215      3377.7872      960.18531      0.99696118
   1316000  -330.21735      54.325714     -384.54306      289.28811     -1976.7553      960.18531      0.99696118
   1317000  -337.99894      62.266486     -400.26543      331.57327     -5722.0064      960.18531      0.99696118
   1318000  -342.66826      54.280889     -396.94915      289.04942     -4447.8242      960.18531      0.99696118
   1319000  -321.77408      54.713962     -376.48804      291.35556     -3270.743       960.18531      0.99696118
   1320000  -348.88492      53.69436      -402.57928      285.92611      5053.6611      960.18531      0.99696118
   1321000  -363.05615      54.685484     -417.74163      291.20391      3637.1281      960.18531      0.99696118
   1322000  -338.86985      55.649617     -394.51947      296.33799     -924.07043      960.18531      0.99696118
   1323000  -351.59899      53.360729     -404.95972      284.1495      -2590.6982      960.18531      0.99696118
   1324000  -314.71423      67.324813     -382.03904      358.5092       1217.425       960.18531      0.99696118
   1325000  -335.1622       49.348004     -384.51021      262.78147     -5414.5761      960.18531      0.99696118
   1326000  -347.75272      51.770884     -399.5236       275.68347     -2669.171       960.18531      0.99696118
   1327000  -337.49866      49.303119     -386.80178      262.54246      1150.2201      960.18531      0.99696118
   1328000  -332.6458       65.424652     -398.07045      348.39071     -2789.8639      960.18531      0.99696118
   1329000  -326.81837      63.957103     -390.77547      340.57592      2310.011       960.18531      0.99696118
   1330000  -311.47391      67.117625     -378.59154      357.40591     -1243.136       960.18531      0.99696118
   1331000  -333.3664       48.748903     -382.1153       259.59122      1676.7066      960.18531      0.99696118
   1332000  -332.83576      48.248237     -381.084        256.92514     -1935.1498      960.18531      0.99696118
   1333000  -319.45486      53.457628     -372.91249      284.6655       2861.8682      960.18531      0.99696118
   1334000  -338.61157      49.46014      -388.07171      263.3786      -3348.9408      960.18531      0.99696118
   1335000  -341.63437      54.570918     -396.20529      290.59384     -747.83495      960.18531      0.99696118
   1336000  -343.48624      53.307057     -396.7933       283.8637       27.982194      960.18531      0.99696118
   1337000  -315.50655      63.811898     -379.31845      339.80269     -2146.2281      960.18531      0.99696118
   1338000  -338.4012       49.933621     -388.33482      265.89992     -1647.9332      960.18531      0.99696118
   1339000  -319.13012      60.976779     -380.10689      324.70549     -5922.4406      960.18531      0.99696118
   1340000  -334.54478      58.757148     -393.30193      312.8858      -2321.4515      960.18531      0.99696118
   1341000  -354.62128      52.968592     -407.58987      282.06135     -462.89057      960.18531      0.99696118
   1342000  -351.34547      63.970946     -415.31641      340.64963      1483.694       960.18531      0.99696118
   1343000  -325.77014      68.661837     -394.43198      365.62895     -5145.1855      960.18531      0.99696118
   1344000  -355.02986      52.351913     -407.38177      278.77749     -2308.7739      960.18531      0.99696118
   1345000  -323.34939      65.153153     -388.50254      346.94496     -497.0653       960.18531      0.99696118
   1346000  -328.11643      56.009841     -384.12627      298.25621     -2689.2197      960.18531      0.99696118
   1347000  -347.12184      50.293781     -397.41562      267.8178       2449.206       960.18531      0.99696118
   1348000  -337.90383      55.783488     -393.68731      297.05086      3395.9877      960.18531      0.99696118
   1349000  -335.70644      55.126832     -390.83327      293.55412      2745.2674      960.18531      0.99696118
   1350000  -310.33632      68.970203     -379.30652      367.27101      4387.6882      960.18531      0.99696118
   1351000  -318.92725      63.723792     -382.65104      339.33352      343.15705      960.18531      0.99696118
   1352000  -338.88471      50.522422     -389.40713      269.03532      225.97964      960.18531      0.99696118
   1353000  -327.98419      47.936003     -375.92019      255.26247      5218.7969      960.18531      0.99696118
   1354000  -300.58774      63.800159     -364.3879       339.74018      2003.3164      960.18531      0.99696118
   1355000  -341.54452      53.324841     -394.86936      283.9584      -4693.1538      960.18531      0.99696118
   1356000  -356.10447      45.860328     -401.9648       244.20936     -2534.2133      960.18531      0.99696118
   1357000  -327.18547      53.059606     -380.24508      282.546       -6047.5633      960.18531      0.99696118
   1358000  -321.14009      55.836516     -376.97661      297.33324     -279.6206       960.18531      0.99696118
   1359000  -318.4343       77.109365     -395.54366      410.61261     -1514.9784      960.18531      0.99696118
   1360000  -352.01116      49.893921     -401.90508      265.68851     -3183.7304      960.18531      0.99696118
   1361000  -322.47596      59.705369     -382.18133      317.93515     -3773.1979      960.18531      0.99696118
   1362000  -313.64847      59.603799     -373.25227      317.39427     -3242.1056      960.18531      0.99696118
   1363000  -335.67592      58.114075     -393.79         309.4614       205.49711      960.18531      0.99696118
   1364000  -340.06648      56.747462     -396.81395      302.18409     -2328.078       960.18531      0.99696118
   1365000  -338.1048       60.432208     -398.53701      321.80561     -668.13552      960.18531      0.99696118
   1366000  -330.56149      58.754592     -389.31608      312.87219      2041.7444      960.18531      0.99696118
   1367000  -334.66301      51.776125     -386.43914      275.71138     -3607.7995      960.18531      0.99696118
   1368000  -323.45146      67.716051     -391.16751      360.59257      1130.2452      960.18531      0.99696118
   1369000  -329.06057      61.88175      -390.94232      329.52452      750.93671      960.18531      0.99696118
   1370000  -345.03327      48.383123     -393.41639      257.64342     -4252.5286      960.18531      0.99696118
   1371000  -337.7698       48.087283     -385.85709      256.06805     -1925.4174      960.18531      0.99696118
   1372000  -347.96346      44.080794     -392.04425      234.73322     -1881.8197      960.18531      0.99696118
   1373000  -317.83098      54.671125     -372.5021       291.12745     -1787.2967      960.18531      0.99696118
   1374000  -349.12759      51.391015     -400.51861      273.66065     -3435.9735      960.18531      0.99696118
   1375000  -343.00599      47.390441     -390.39644      252.35731     -2784.4471      960.18531      0.99696118
   1376000  -328.7191       56.538815     -385.25791      301.07303     -2494.7171      960.18531      0.99696118
   1377000  -322.84769      61.887234     -384.73492      329.55372      987.25735      960.18531      0.99696118
   1378000  -334.28504      52.11566      -386.4007       277.51943     -696.27631      960.18531      0.99696118
   1379000  -344.95183      46.16537      -391.1172       245.83373     -28.976617      960.18531      0.99696118
   1380000  -332.09123      56.227392     -388.31862      299.41468     -2499.6752      960.18531      0.99696118
   1381000  -325.38814      55.856629     -381.24477      297.44034     -1853.6745      960.18531      0.99696118
   1382000  -330.71124      64.052624     -394.76386      341.08457     -460.9004       960.18531      0.99696118
   1383000  -334.66746      55.638737     -390.30619      296.28005     -524.13987      960.18531      0.99696118
   1384000  -335.69848      51.061125     -386.75961      271.90396     -1997.3177      960.18531      0.99696118
   1385000  -335.31243      61.376212     -396.68864      326.83249     -5451.0999      960.18531      0.99696118
   1386000  -331.28786      65.575682     -396.86354      349.19496     -1452.7082      960.18531      0.99696118
   1387000  -349.75548      48.718025     -398.47351      259.42679      2399.7966      960.18531      0.99696118
   1388000  -335.98976      44.425116     -380.41487      236.56676      1182.483       960.18531      0.99696118
   1389000  -350.4828       53.500738     -403.98354      284.89506     -3357.8765      960.18531      0.99696118
   1390000  -344.75387      49.284881     -394.03875      262.44534      931.47451      960.18531      0.99696118
   1391000  -333.23803      53.416518     -386.65455      284.44658      5310.4752      960.18531      0.99696118
   1392000  -307.56116      67.552757     -375.11391      359.72301     -3116.2271      960.18531      0.99696118
   1393000  -349.96637      51.063248     -401.02962      271.91526      3460.238       960.18531      0.99696118
   1394000  -347.36667      51.290052     -398.65672      273.12301      271.03823      960.18531      0.99696118
   1395000  -343.50271      57.846957     -401.34966      308.03897      3563.5091      960.18531      0.99696118
   1396000  -324.36747      63.491469     -387.85894      338.09638      2113.1667      960.18531      0.99696118
   1397000  -345.15033      46.179148     -391.32948      245.9071      -547.50654      960.18531      0.99696118
   1398000  -325.9494       55.442006     -381.39141      295.23245      1787.2941      960.18531      0.99696118
   1399000  -342.04505      52.342698     -394.38775      278.72842      530.24312      960.18531      0.99696118
   1400000  -342.78828      46.683645     -389.47192      248.59358      3141.8875      960.18531      0.99696118
   1401000  -332.09676      55.758881     -387.85564      296.91983     -666.81022      960.18531      0.99696118
   1402000  -328.55196      58.382549     -386.93451      310.89104      247.31506      960.18531      0.99696118
   1403000  -338.91386      49.601263     -388.51512      264.13009     -4681.5545      960.18531      0.99696118
   1404000  -315.68355      62.594078     -378.27763      333.31772     -4932.3062      960.18531      0.99696118
   1405000  -350.83563      55.500213     -406.33584      295.5424       1205.5577      960.18531      0.99696118
   1406000  -325.44542      56.386935     -381.83236      300.26426      2310.9381      960.18531      0.99696118
   1407000  -331.23017      50.307284     -381.53745      267.8897      -129.72916      960.18531      0.99696118
   1408000  -345.77268      48.916247     -394.68893      260.48234     -2714.7362      960.18531      0.99696118
   1409000  -323.91939      50.467887     -374.38727      268.74492     -75.030092      960.18531      0.99696118
   1410000  -333.06576      54.231426     -387.29718      288.78603     -4820.4556      960.18531      0.99696118
   1411000  -327.67326      61.285232     -388.95849      326.34802     -606.08305      960.18531      0.99696118
   1412000  -320.33051      53.589901     -373.92041      285.36986      3500.2198      960.18531      0.99696118
   1413000  -339.25466      52.141341     -391.396        277.65618     -1827.7733      960.18531      0.99696118
   1414000  -346.30715      58.863286     -405.17044      313.45099     -3662.9432      960.18531      0.99696118
   1415000  -355.56386      51.612942     -407.1768       274.84242      1396.8405      960.18531      0.99696118
   1416000  -336.92622      53.438664     -390.36488      284.56451      2362.6378      960.18531      0.99696118
   1417000  -313.56665      56.022921     -369.58958      298.32586     -1979.0348      960.18531      0.99696118
   1418000  -301.984        67.074449     -369.05845      357.17599      2644.6849      960.18531      0.99696118
   1419000  -330.88577      49.654782     -380.54055      264.41508     -542.19778      960.18531      0.99696118
   1420000  -336.72987      52.258656     -388.98852      278.28089     -670.16098      960.18531      0.99696118
   1421000  -331.95464      56.892916     -388.84756      302.95864     -455.49659      960.18531      0.99696118
   1422000  -336.96878      45.339616     -382.30839      241.43654     -1324.4713      960.18531      0.99696118
   1423000  -344.14191      56.57995      -400.72186      301.29208      398.29004      960.18531      0.99696118
   1424000  -329.42942      63.443154     -392.87257      337.8391      -727.48926      960.18531      0.99696118
   1425000  -341.64406      48.442959     -390.08702      257.96204     -2376.8747      960.18531      0.99696118
   1426000  -327.14654      47.9592       -375.10574      255.386        3157.2969      960.18531      0.99696118
   1427000  -326.33182      66.101503     -392.43333      351.99499     -2567.9805      960.18531      0.99696118
   1428000  -342.99501      57.213817     -400.20883      304.66746     -3179.4543      960.18531      0.99696118
   1429000  -324.6083       59.786834     -384.39514      318.36895      265.8153       960.18531      0.99696118
   1430000  -344.19728      50.060398     -394.25767      266.57502      2360.3151      960.18531      0.99696118
   1431000  -348.04419      51.335452     -399.37964      273.36477      1676.2124      960.18531      0.99696118
   1432000  -310.32252      65.93732      -376.25984      351.12071      546.58646      960.18531      0.99696118
   1433000  -326.69837      60.064274     -386.76265      319.84634     -2298.7254      960.18531      0.99696118
   1434000  -313.72185      63.31935      -377.0412       337.17984      2556.9766      960.18531      0.99696118
   1435000  -346.53907      53.691857     -400.23093      285.91279     -2226.0101      960.18531      0.99696118
   1436000  -322.57278      67.025642     -389.59842      356.91609     -2039.6751      960.18531      0.99696118
   1437000  -338.82631      60.536735     -399.36304      322.36222     -1788.7772      960.18531      0.99696118
   1438000  -305.17159      66.956474     -372.12807      356.54777      892.37048      960.18531      0.99696118
   1439000  -340.05382      44.377752     -384.43157      236.31454     -616.21104      960.18531      0.99696118
   1440000  -326.34229      54.078177     -380.42047      287.96996     -702.61198      960.18531      0.99696118
   1441000  -313.0603       54.932219     -367.99252      292.5178      -499.86444      960.18531      0.99696118
   1442000  -331.61514      48.964501     -380.57965      260.73929      2377.6313      960.18531      0.99696118
   1443000  -310.19078      61.64868      -371.83946      328.28341     -4443.9759      960.18531      0.99696118
   1444000  -334.29891      54.420975     -388.71988      289.79539     -3169.5558      960.18531      0.99696118
   1445000  -342.24702      56.650424     -398.89744      301.66736     -1853.6306      960.18531      0.99696118
   1446000  -335.86283      57.45048      -393.31331      305.92771      223.22246      960.18531      0.99696118
   1447000  -339.04935      57.661479     -396.71083      307.05129     -3205.8495      960.18531      0.99696118
   1448000  -336.83899      56.616881     -393.45587      301.48873      2012.3247      960.18531      0.99696118
   1449000  -329.11259      53.011733     -382.12432      282.29108     -3972.6066      960.18531      0.99696118
   1450000  -343.34845      57.234999     -400.58345      304.78025      5849.8897      960.18531      0.99696118
   1451000  -327.72735      57.083531     -384.81088      303.97368      1976.5729      960.18531      0.99696118
   1452000  -334.71005      50.430046     -385.1401       268.54342      1017.7768      960.18531      0.99696118
   1453000  -323.90759      60.751261     -384.65885      323.50459     -1194.2036      960.18531      0.99696118
   1454000  -337.93457      47.588567     -385.52314      253.41235     -4170.6301      960.18531      0.99696118
   1455000  -342.61151      47.86742      -390.47893      254.89726     -2833.0974      960.18531      0.99696118
   1456000  -331.59356      61.63779      -393.23135      328.22542     -1852.9738      960.18531      0.99696118
   1457000  -343.8757       50.912138     -394.78784      271.11059     -5243.8797      960.18531      0.99696118
   1458000  -333.80698      52.819704     -386.62668      281.26851     -624.15907      960.18531      0.99696118
   1459000  -342.99391      58.338334     -401.33224      310.65559     -1933.7718      960.18531      0.99696118
   1460000  -341.56533      46.035849     -387.60118      245.14402      740.03404      960.18531      0.99696118
   1461000  -330.2112       63.174291     -393.38549      336.40739      342.20036      960.18531      0.99696118
   1462000  -340.11834      54.456599     -394.57494      289.98509     -3743.4684      960.18531      0.99696118
   1463000  -326.28348      56.5224       -382.80588      300.98562     -3532.747       960.18531      0.99696118
   1464000  -335.8062       57.066136     -392.87234      303.88105     -1687.107       960.18531      0.99696118
   1465000  -342.41554      56.056394     -398.47194      298.5041      -1678.3954      960.18531      0.99696118
   1466000  -345.17877      49.304834     -394.48361      262.55159      955.2835       960.18531      0.99696118
   1467000  -332.84045      54.395038     -387.23549      289.65727      2927.7321      960.18531      0.99696118
   1468000  -340.28353      55.435721     -395.71926      295.19898     -976.94499      960.18531      0.99696118
   1469000  -327.29852      53.773996     -381.07251      286.35018      3865.0893      960.18531      0.99696118
   1470000  -349.54288      53.533672     -403.07656      285.07044     -2166.0004      960.18531      0.99696118
   1471000  -331.57506      59.476595     -391.05165      316.7169      -4571.1304      960.18531      0.99696118
   1472000  -331.40319      51.950694     -383.35389      276.64097     -3220.7138      960.18531      0.99696118
   1473000  -339.49687      45.870009     -385.36688      244.26091     -5021.6345      960.18531      0.99696118
   1474000  -361.451        47.652701     -409.1037       253.75387      2756.5934      960.18531      0.99696118
   1475000  -345.67713      56.179236     -401.85637      299.15824     -2902.5303      960.18531      0.99696118
   1476000  -357.90065      52.743251     -410.6439       280.86139      1018.3314      960.18531      0.99696118
   1477000  -353.1985       53.255266     -406.45377      283.58791      2890.8129      960.18531      0.99696118
   1478000  -342.44667      54.134757     -396.58143      288.27126     -2487.1353      960.18531      0.99696118
   1479000  -348.55701      47.876594     -396.4336       254.94611     -694.71389      960.18531      0.99696118
   1480000  -327.44952      58.040403     -385.48992      309.06908     -2244.3506      960.18531      0.99696118
   1481000  -334.33275      50.438517     -384.77126      268.58853      1817.9023      960.18531      0.99696118
   1482000  -328.96474      61.207562     -390.1723       325.93442      109.39436      960.18531      0.99696118
   1483000  -352.26378      51.353163     -403.61694      273.45908      1703.3871      960.18531      0.99696118
   1484000  -333.54504      70.356069     -403.90111      374.65085      233.23647      960.18531      0.99696118
   1485000  -321.86978      59.831052     -381.70084      318.60441     -294.18631      960.18531      0.99696118
   1486000  -343.32423      47.0799       -390.40413      250.70366     -682.93436      960.18531      0.99696118
   1487000  -310.2274       55.119837     -365.34724      293.51687     -1058.7036      960.18531      0.99696118
   1488000  -332.88159      46.347629     -379.22922      246.80427     -1065.7263      960.18531      0.99696118
   1489000  -324.04202      57.378334     -381.42035      305.54352     -653.72943      960.18531      0.99696118
   1490000  -329.31102      50.794816     -380.10583      270.48584     -4070.633       960.18531      0.99696118
   1491000  -324.31274      65.982039     -390.29477      351.35884     -302.30286      960.18531      0.99696118
   1492000  -331.68165      61.73473      -393.41638      328.74163     -3297.7407      960.18531      0.99696118
   1493000  -312.51745      58.313379     -370.83083      310.5227       3227.7829      960.18531      0.99696118
   1494000  -357.12138      54.683969     -411.80535      291.19585      510.06464      960.18531      0.99696118
   1495000  -339.34745      58.663419     -398.01086      312.38669     -1709.5067      960.18531      0.99696118
   1496000  -352.59451      53.38218      -405.97669      284.26373     -776.07078      960.18531      0.99696118
   1497000  -341.75612      56.892154     -398.64828      302.95458     -2759.5136      960.18531      0.99696118
   1498000  -356.13625      51.849493     -407.98574      276.10207      1145.5884      960.18531      0.99696118
   1499000  -342.98332      50.951402     -393.93473      271.31967     -689.62542      960.18531      0.99696118
   1500000  -355.74864      56.695817     -412.44446      301.90908     -1600.713       960.18531      0.99696118
   1501000  -341.65597      56.877967     -398.53394      302.87903     -3834.3284      960.18531      0.99696118
   1502000  -332.61833      73.07868      -405.69701      389.14893      527.40386      960.18531      0.99696118
   1503000  -357.20602      51.536124     -408.74214      274.43336      867.85973      960.18531      0.99696118
   1504000  -356.33815      52.263579     -408.60173      278.30711      2214.4779      960.18531      0.99696118
   1505000  -356.0756       47.355258     -403.43086      252.16996      2625.9991      960.18531      0.99696118
   1506000  -349.63933      59.130862     -408.77019      314.87585      1431.7475      960.18531      0.99696118
   1507000  -327.634        65.61566      -393.24966      349.40784      3015.1075      960.18531      0.99696118
   1508000  -341.88657      52.887191     -394.77376      281.62788      2659.1888      960.18531      0.99696118
   1509000  -326.93555      60.907819     -387.84337      324.33827      4079.6211      960.18531      0.99696118
   1510000  -330.41577      53.743075     -384.15884      286.18552      743.2104       960.18531      0.99696118
   1511000  -339.10994      49.868655     -388.97859      265.55397     -877.22743      960.18531      0.99696118
   1512000  -346.12357      54.618706     -400.74227      290.84832      3917.6865      960.18531      0.99696118
   1513000  -321.26415      65.262098     -386.52625      347.5251      -1394.0324      960.18531      0.99696118
   1514000  -333.92327      56.538745     -390.46202      301.07266      4282.7655      960.18531      0.99696118
   1515000  -339.28984      51.876694     -391.16654      276.24692     -353.96957      960.18531      0.99696118
   1516000  -333.13049      58.390553     -391.52104      310.93366     -405.50058      960.18531      0.99696118
   1517000  -318.54639      65.921697     -384.46808      351.03751     -3521.1154      960.18531      0.99696118
   1518000  -340.28312      54.797924     -395.08104      291.80267     -1442.7365      960.18531      0.99696118
   1519000  -347.36327      53.78236      -401.14563      286.39472      2368.9663      960.18531      0.99696118
   1520000  -335.43021      56.964299     -392.39451      303.33876     -224.7919       960.18531      0.99696118
   1521000  -332.55539      50.815834     -383.37122      270.59777     -3273.652       960.18531      0.99696118
   1522000  -334.71189      56.93856      -391.65045      303.2017      -2887.3877      960.18531      0.99696118
   1523000  -328.66236      60.547701     -389.21007      322.42062     -3605.3145      960.18531      0.99696118
   1524000  -343.76916      59.773047     -403.54221      318.29553     -3970.48        960.18531      0.99696118
   1525000  -321.56618      53.123101     -374.68928      282.88412     -1786.7798      960.18531      0.99696118
   1526000  -348.18739      53.692658     -401.88005      285.91705     -2478.0651      960.18531      0.99696118
   1527000  -328.62061      59.55013      -388.17074      317.10848      683.59767      960.18531      0.99696118
   1528000  -325.99218      50.696452     -376.68864      269.96205      691.57702      960.18531      0.99696118
   1529000  -331.62015      53.64081      -385.26096      285.64096      2288.9929      960.18531      0.99696118
   1530000  -320.39218      66.502124     -386.89431      354.12832      3060.9031      960.18531      0.99696118
   1531000  -333.1457       66.110945     -399.25664      352.04527     -4997.4452      960.18531      0.99696118
   1532000  -317.48592      62.187609     -379.67353      331.15324      3606.4953      960.18531      0.99696118
   1533000  -332.83465      60.14082      -392.97547      320.25395     -1391.3067      960.18531      0.99696118
   1534000  -337.0344       53.117779     -390.15218      282.85578      1574.2568      960.18531      0.99696118
   1535000  -328.56203      55.124969     -383.687        293.5442       376.60808      960.18531      0.99696118
   1536000  -318.07124      53.507376     -371.57862      284.93041     -3624.1877      960.18531      0.99696118
   1537000  -342.42284      55.563102     -397.98594      295.87729      787.29509      960.18531      0.99696118
   1538000  -324.34036      56.984694     -381.32505      303.44736      267.53619      960.18531      0.99696118
   1539000  -336.677        49.701748     -386.37875      264.66518     -414.65272      960.18531      0.99696118
   1540000  -326.49793      55.047962     -381.54589      293.13413     -2057.2199      960.18531      0.99696118
   1541000  -339.75723      52.114059     -391.87129      277.5109      -4358.4822      960.18531      0.99696118
   1542000  -323.42866      48.352284     -371.78095      257.4792      -3292.4964      960.18531      0.99696118
   1543000  -331.43242      58.450185     -389.8826       311.2512      -272.39447      960.18531      0.99696118
   1544000  -341.12222      47.67643      -388.79865      253.88022      738.47028      960.18531      0.99696118
   1545000  -325.34228      57.251316     -382.59359      304.86715      508.50033      960.18531      0.99696118
   1546000  -332.10452      49.35545      -381.45997      262.82112     -1623.4697      960.18531      0.99696118
   1547000  -334.51425      53.124211     -387.63846      282.89003     -749.51507      960.18531      0.99696118
   1548000  -324.06765      61.914559     -385.98221      329.69923     -4409.803       960.18531      0.99696118
   1549000  -341.72511      54.243948     -395.96905      288.85271     -4076.7032      960.18531      0.99696118
   1550000  -331.29794      61.866079     -393.16402      329.44107      1295.4474      960.18531      0.99696118
   1551000  -341.55388      48.257096     -389.81098      256.97231      255.25474      960.18531      0.99696118
   1552000  -341.72362      50.877999     -392.60162      270.9288      -309.53857      960.18531      0.99696118
   1553000  -328.25571      56.238505     -384.49421      299.47386     -810.84908      960.18531      0.99696118
   1554000  -327.11761      59.477158     -386.59477      316.7199      -678.21049      960.18531      0.99696118
   1555000  -326.25639      49.275692     -375.53208      262.3964       414.14343      960.18531      0.99696118
   1556000  -329.34225      61.613962     -390.95621      328.09853      1090.3385      960.18531      0.99696118
   1557000  -318.29438      60.823821     -379.11821      323.89098     -3041.5257      960.18531      0.99696118
   1558000  -345.39625      53.819902     -399.21615      286.59463     -117.22611      960.18531      0.99696118
   1559000  -338.72559      54.138212     -392.8638       288.28966     -2919.7346      960.18531      0.99696118
   1560000  -340.85174      52.327872     -393.17961      278.64947      1400.6101      960.18531      0.99696118
   1561000  -346.85921      48.860507     -395.71972      260.18552      150.66287      960.18531      0.99696118
   1562000  -351.01484      55.179774     -406.19462      293.83604     -1106.2454      960.18531      0.99696118
   1563000  -340.96102      56.293162     -397.25418      299.76491     -3679.505       960.18531      0.99696118
   1564000  -345.86691      54.149218     -400.01613      288.34826     -2642.7217      960.18531      0.99696118
   1565000  -339.10881      49.593913     -388.70272      264.09095     -2859.0811      960.18531      0.99696118
   1566000  -336.21752      62.453384     -398.6709       332.56851     -3577.6036      960.18531      0.99696118
   1567000  -336.90002      55.864223     -392.76424      297.48078     -2688.7551      960.18531      0.99696118
   1568000  -338.73563      50.019036     -388.75467      266.35476     -3883.7115      960.18531      0.99696118
   1569000  -339.93871      57.011316     -396.95002      303.58913     -1351.3595      960.18531      0.99696118
   1570000  -350.18207      49.925065     -400.10714      265.85436     -313.41694      960.18531      0.99696118
   1571000  -341.7672       55.512757     -397.27996      295.6092       1912.4272      960.18531      0.99696118
   1572000  -333.88239      58.446809     -392.32919      311.23323     -694.80779      960.18531      0.99696118
   1573000  -312.70959      61.735924     -374.44552      328.74799      201.39417      960.18531      0.99696118
   1574000  -341.65991      59.055873     -400.71578      314.47653      353.8352       960.18531      0.99696118
   1575000  -347.37295      58.973153     -406.3461       314.03604     -117.51015      960.18531      0.99696118
   1576000  -353.61579      50.388199     -404.00399      268.32058      5409.9165      960.18531      0.99696118
   1577000  -342.41325      54.751943     -397.16519      291.55782      2243.647       960.18531      0.99696118
   1578000  -327.76332      61.46676      -389.23008      327.31467     -3810.6845      960.18531      0.99696118
   1579000  -333.3179       59.819805     -393.1377       318.54452      2230.0832      960.18531      0.99696118
   1580000  -325.21168      50.433904     -375.64559      268.56396      900.76211      960.18531      0.99696118
   1581000  -332.09277      59.850768     -391.94354      318.7094      -4456.3914      960.18531      0.99696118
   1582000  -324.75535      60.854488     -385.60983      324.05428      3616.034       960.18531      0.99696118
   1583000  -340.20565      48.350909     -388.55656      257.47187      1528.8576      960.18531      0.99696118
   1584000  -326.87995      55.935764     -382.81572      297.86174      856.49428      960.18531      0.99696118
   1585000  -318.86918      66.919588     -385.78877      356.35135      310.7267       960.18531      0.99696118
   1586000  -317.99844      59.666382     -377.66483      317.72753     -3246.9275      960.18531      0.99696118
   1587000  -328.40031      48.778002     -377.17831      259.74617      73.571261      960.18531      0.99696118
   1588000  -337.06565      55.338363     -392.40402      294.68054      997.87529      960.18531      0.99696118
   1589000  -334.43935      54.004867     -388.44421      287.57958     -1951.841       960.18531      0.99696118
   1590000  -356.37098      43.301037     -399.67201      230.58096     -4420.4775      960.18531      0.99696118
   1591000  -340.0267       51.526689     -391.55339      274.38312     -4804.9559      960.18531      0.99696118
   1592000  -331.34629      55.723373     -387.06967      296.73074     -3850.7465      960.18531      0.99696118
   1593000  -333.15014      59.198227     -392.34837      315.23458     -2357.6305      960.18531      0.99696118
   1594000  -343.692        63.230098     -406.9221       336.70457      1600.9415      960.18531      0.99696118
   1595000  -351.28074      45.148232     -396.42897      240.4174       1016.2595      960.18531      0.99696118
   1596000  -344.545        50.488859     -395.03386      268.8566      -948.65262      960.18531      0.99696118
   1597000  -319.59983      67.496536     -387.09637      359.42363     -396.61794      960.18531      0.99696118
   1598000  -333.05021      58.905741     -391.95595      313.67707     -1349.6914      960.18531      0.99696118
   1599000  -329.47643      62.60091      -392.07734      333.3541      -3112.6762      960.18531      0.99696118
   1600000  -328.3816       58.39945      -386.78105      310.98104     -1023.0245      960.18531      0.99696118
   1601000  -329.93684      58.298956     -388.23579      310.4459       2227.4707      960.18531      0.99696118
   1602000  -337.35635      55.436229     -392.79257      295.20168     -4164.7907      960.18531      0.99696118
   1603000  -329.51786      54.214742     -383.7326       288.69718     -1512.2536      960.18531      0.99696118
   1604000  -331.20227      57.275079     -388.47735      304.99369     -3012.1414      960.18531      0.99696118
   1605000  -336.77666      55.377543     -392.15421      294.88918     -290.64637      960.18531      0.99696118
   1606000  -317.73774      64.594447     -382.33218      343.96982      2886.5753      960.18531      0.99696118
   1607000  -341.84302      56.456478     -398.2995       300.63458      3240.4239      960.18531      0.99696118
   1608000  -351.05959      49.333505     -400.3931       262.70426      601.01746      960.18531      0.99696118
   1609000  -329.5704       60.03846      -389.60886      319.70888      3514.403       960.18531      0.99696118
   1610000  -332.46514      61.215599     -393.68074      325.97722      1037.5832      960.18531      0.99696118
   1611000  -323.7825       56.689484     -380.47199      301.87535     -275.46648      960.18531      0.99696118
   1612000  -342.14639      57.162594     -399.30899      304.39469     -2633.0774      960.18531      0.99696118
   1613000  -344.60523      54.472163     -399.0774       290.06797      1025.8002      960.18531      0.99696118
   1614000  -347.85141      51.625003     -399.47641      274.90665      456.20431      960.18531      0.99696118
   1615000  -326.01432      58.872999     -384.88732      313.50272     -215.24571      960.18531      0.99696118
   1616000  -344.35481      46.608761     -390.96357      248.19482     -2454.9094      960.18531      0.99696118
   1617000  -331.96358      53.341077     -385.30466      284.04486     -12.337352      960.18531      0.99696118
   1618000  -353.63373      52.409391     -406.04312      279.08357     -4363.1085      960.18531      0.99696118
   1619000  -328.46426      52.488639     -380.9529       279.50556     -1576.5954      960.18531      0.99696118
   1620000  -336.66458      56.911082     -393.57566      303.05538      2138.1794      960.18531      0.99696118
   1621000  -325.75176      55.744055     -381.49581      296.84088      1426.5385      960.18531      0.99696118
   1622000  -334.17343      58.552841     -392.72628      311.79785     -2669.9303      960.18531      0.99696118
   1623000  -348.76965      48.170467     -396.94011      256.51101     -1490.8465      960.18531      0.99696118
   1624000  -333.81722      63.090644     -396.90786      335.96196     -2570.9775      960.18531      0.99696118
   1625000  -332.96518      55.159269     -388.12445      293.72685     -2111.7622      960.18531      0.99696118
   1626000  -351.79093      51.80538      -403.59631      275.86717     -2819.1327      960.18531      0.99696118
   1627000  -336.04302      65.697675     -401.74069      349.84458     -2452.6323      960.18531      0.99696118
   1628000  -329.97296      67.291549     -397.26451      358.33207     -612.23777      960.18531      0.99696118
   1629000  -336.90462      54.3542       -391.25882      289.4398      -2992.5732      960.18531      0.99696118
   1630000  -317.64946      60.817654     -378.46712      323.85814     -3620.5069      960.18531      0.99696118
   1631000  -344.83583      52.32458      -397.16041      278.63194     -479.28764      960.18531      0.99696118
   1632000  -324.22854      63.373746     -387.60229      337.4695      -1308.394       960.18531      0.99696118
   1633000  -330.38432      55.330568     -385.71489      294.63903     -486.08232      960.18531      0.99696118
   1634000  -345.51281      51.287556     -396.80037      273.10972     -4138.6953      960.18531      0.99696118
   1635000  -336.75104      65.22963      -401.98067      347.35221     -302.68217      960.18531      0.99696118
   1636000  -333.93755      50.250412     -384.18796      267.58685      3401.1111      960.18531      0.99696118
   1637000  -331.84784      58.101848     -389.94968      309.39628      339.97326      960.18531      0.99696118
   1638000  -351.49143      52.146231     -403.63766      277.68222      347.52404      960.18531      0.99696118
   1639000  -354.83675      49.450861     -404.28762      263.32919      221.73347      960.18531      0.99696118
   1640000  -328.03184      53.207669     -381.23951      283.33445     -2118.3464      960.18531      0.99696118
   1641000  -341.55108      59.668457     -401.21954      317.73858     -2119.428       960.18531      0.99696118
   1642000  -312.9151       70.389092     -383.30419      374.82669     -339.87486      960.18531      0.99696118
   1643000  -337.23333      58.022847     -395.25618      308.9756      -650.51131      960.18531      0.99696118
   1644000  -335.09472      53.200953     -388.29567      283.29868     -4825.2864      960.18531      0.99696118
   1645000  -346.34439      52.056455     -398.40084      277.20415     -264.78317      960.18531      0.99696118
   1646000  -320.09627      55.918672     -376.01495      297.77073     -369.93109      960.18531      0.99696118
   1647000  -322.59688      61.529353     -384.12624      327.64798      852.95596      960.18531      0.99696118
   1648000  -333.65377      55.614696     -389.26847      296.15203     -1406.2647      960.18531      0.99696118
   1649000  -329.94029      59.664579     -389.60486      317.71793      1553.9861      960.18531      0.99696118
   1650000  -347.48188      50.538484     -398.02037      269.12086      279.41187      960.18531      0.99696118
   1651000  -347.29292      46.893622     -394.18654      249.71172      2258.841       960.18531      0.99696118
   1652000  -327.60058      56.64439      -384.24497      301.63522      761.80678      960.18531      0.99696118
   1653000  -339.53499      50.878072     -390.41306      270.92919     -472.52077      960.18531      0.99696118
   1654000  -314.02554      60.426122     -374.45166      321.7732      -611.02874      960.18531      0.99696118
   1655000  -342.83523      50.990103     -393.82533      271.52576     -1828.9743      960.18531      0.99696118
   1656000  -342.71841      46.915748     -389.63416      249.82954     -2912.8817      960.18531      0.99696118
   1657000  -322.27807      58.303899     -380.58197      310.47222     -637.64598      960.18531      0.99696118
   1658000  -342.2142       53.48709      -395.70129      284.82239     -4005.3766      960.18531      0.99696118
   1659000  -328.41697      50.889004     -379.30598      270.9874      -1672.685       960.18531      0.99696118
   1660000  -330.4936       54.802142     -385.29575      291.82513     -3196.0957      960.18531      0.99696118
   1661000  -314.60864      62.216357     -376.825        331.30633     -1254.3243      960.18531      0.99696118
   1662000  -326.41361      56.896869     -383.31048      302.97969      1144.7054      960.18531      0.99696118
   1663000  -338.88176      48.112645     -386.99441      256.2031      -2011.4402      960.18531      0.99696118
   1664000  -320.08484      60.765399     -380.85024      323.57987     -276.36585      960.18531      0.99696118
   1665000  -328.51808      55.191737     -383.70981      293.89975     -3391.2029      960.18531      0.99696118
   1666000  -334.93422      53.56099      -388.49521      285.21591     -3359.0118      960.18531      0.99696118
   1667000  -335.18111      53.498053     -388.67916      284.88077     -978.9331       960.18531      0.99696118
   1668000  -328.16318      63.719694     -391.88287      339.3117      -458.81557      960.18531      0.99696118
   1669000  -321.35148      55.528912     -376.8804       295.69523      3992.4099      960.18531      0.99696118
   1670000  -317.44562      66.779351     -384.22497      355.60458      2005.2906      960.18531      0.99696118
   1671000  -337.3276       49.125949     -386.45355      261.59901     -2771.3078      960.18531      0.99696118
   1672000  -352.67801      46.557557     -399.23556      247.92215     -1385.2304      960.18531      0.99696118
   1673000  -351.49569      56.986196     -408.48188      303.45536      55.937035      960.18531      0.99696118
   1674000  -337.43016      61.492883     -398.92305      327.45378     -1748.9999      960.18531      0.99696118
   1675000  -317.29206      55.36383      -372.65589      294.81615      1720.7696      960.18531      0.99696118
   1676000  -343.51378      50.768019     -394.2818       270.34315     -4697.7792      960.18531      0.99696118
   1677000  -350.48817      60.236272     -410.72444      320.76224     -1212.8748      960.18531      0.99696118
   1678000  -352.76761      55.851212     -408.61882      297.4115      -755.11373      960.18531      0.99696118
   1679000  -335.44814      59.984635     -395.43278      319.42225      2557.7699      960.18531      0.99696118
   1680000  -331.22084      56.37979      -387.60063      300.22621      1068.7098      960.18531      0.99696118
   1681000  -330.47526      56.424447     -386.89971      300.46401      4027.4052      960.18531      0.99696118
   1682000  -347.33442      51.824177     -399.15859      275.96726     -5360.3273      960.18531      0.99696118
   1683000  -336.43962      57.464198     -393.90381      306.00075      644.30715      960.18531      0.99696118
   1684000  -342.07667      51.82917      -393.90584      275.99385     -798.30221      960.18531      0.99696118
   1685000  -338.70048      57.628352     -396.32883      306.87488     -3821.9823      960.18531      0.99696118
   1686000  -341.21705      49.343911     -390.56096      262.75968     -1977.8414      960.18531      0.99696118
   1687000  -351.64187      52.645758     -404.28762      280.34223     -584.28474      960.18531      0.99696118
   1688000  -331.06754      60.189046     -391.25658      320.51075     -559.44334      960.18531      0.99696118
   1689000  -347.09723      50.299646     -397.39687      267.84903     -2266.1361      960.18531      0.99696118
   1690000  -343.07623      54.606901     -397.68313      290.78545      920.43642      960.18531      0.99696118
   1691000  -341.66915      63.405404     -405.07456      337.63808      1389.7101      960.18531      0.99696118
   1692000  -346.53092      56.551405     -403.08233      301.14007     -3123.748       960.18531      0.99696118
   1693000  -334.95073      62.122794     -397.07353      330.80809     -29.984827      960.18531      0.99696118
   1694000  -337.85097      45.604548     -383.45552      242.84731     -2895.566       960.18531      0.99696118
   1695000  -338.55638      60.099963     -398.65634      320.03638     -1978.6296      960.18531      0.99696118
   1696000  -344.31896      60.906736     -405.2257       324.3325      -2546.4539      960.18531      0.99696118
   1697000  -343.11344      58.866186     -401.97962      313.46644     -2242.7843      960.18531      0.99696118
   1698000  -330.97101      54.094739     -385.06575      288.05816      129.05132      960.18531      0.99696118
   1699000  -328.68592      59.86791      -388.55384      318.80069     -3752.2678      960.18531      0.99696118
   1700000  -324.96861      56.941569     -381.91018      303.21772     -4406.2153      960.18531      0.99696118
   1701000  -342.08249      49.041424     -391.12392      261.14891     -1324.6384      960.18531      0.99696118
   1702000  -330.67423      60.000665     -390.67489      319.50762      191.54714      960.18531      0.99696118
   1703000  -323.21146      62.922574     -386.13403      335.06698     -592.79012      960.18531      0.99696118
   1704000  -336.61378      56.392162     -393.00594      300.29209     -745.92789      960.18531      0.99696118
   1705000  -324.88694      61.661036     -386.54797      328.34921     -4544.3557      960.18531      0.99696118
   1706000  -330.11439      52.604855     -382.71924      280.12443      4360.8685      960.18531      0.99696118
   1707000  -341.29939      59.727365     -401.02676      318.05227     -2007.9797      960.18531      0.99696118
   1708000  -338.25861      54.505398     -392.76401      290.24495     -1817.159       960.18531      0.99696118
   1709000  -320.92454      66.015566     -386.94011      351.53737     -2075.8345      960.18531      0.99696118
   1710000  -352.26898      44.594989     -396.86397      237.47134     -4595.0934      960.18531      0.99696118
   1711000  -338.15736      57.743992     -395.90135      307.49068     -2266.2572      960.18531      0.99696118
   1712000  -337.27372      54.608653     -391.88237      290.79478     -1625.788       960.18531      0.99696118
   1713000  -327.93519      55.022552     -382.95775      292.99883      1836.0715      960.18531      0.99696118
   1714000  -323.90974      52.57696      -376.4867       279.97588      98.2629        960.18531      0.99696118
   1715000  -334.30397      53.827003     -388.13097      286.63245     -5191.3167      960.18531      0.99696118
   1716000  -343.42973      48.906249     -392.33598      260.4291      -1818.004       960.18531      0.99696118
   1717000  -331.92458      51.474373     -383.39895      274.10453      901.09588      960.18531      0.99696118
   1718000  -335.90352      63.405207     -399.30873      337.63703     -5174.2582      960.18531      0.99696118
   1719000  -338.40306      53.922958     -392.32602      287.14341     -2711.2343      960.18531      0.99696118
   1720000  -342.94278      55.002186     -397.94497      292.89038     -2373.9895      960.18531      0.99696118
   1721000  -347.85392      47.244925     -395.09884      251.58243      975.93722      960.18531      0.99696118
   1722000  -330.24997      67.008772     -397.25874      356.82626      1512.8166      960.18531      0.99696118
   1723000  -342.73562      50.380424     -393.11605      268.27918     -3462.7088      960.18531      0.99696118
   1724000  -346.36061      52.128681     -398.48929      277.58876     -41.305095      960.18531      0.99696118
   1725000  -337.61917      50.195415     -387.81459      267.29399     -3982.1294      960.18531      0.99696118
   1726000  -335.67435      48.257915     -383.93227      256.97668      5038.7241      960.18531      0.99696118
   1727000  -327.01339      66.342867     -393.35625      353.28027      1720.5333      960.18531      0.99696118
   1728000  -337.2016       57.619101     -394.82071      306.82562     -53.619408      960.18531      0.99696118
   1729000  -331.95177      46.273321     -378.22509      246.40858      1760.4079      960.18531      0.99696118
   1730000  -341.04622      50.583076     -391.6293       269.35831     -3881.8361      960.18531      0.99696118
   1731000  -321.52411      65.01526      -386.53937      346.21067     -1309.6711      960.18531      0.99696118
   1732000  -357.48776      44.597718     -402.08548      237.48587     -58.8977        960.18531      0.99696118
   1733000  -323.85829      57.892232     -381.75052      308.28007     -3504.5978      960.18531      0.99696118
   1734000  -334.65071      56.770688     -391.4214       302.30777     -4526.8931      960.18531      0.99696118
   1735000  -344.94839      48.217902     -393.16629      256.7636      -1932.8173      960.18531      0.99696118
   1736000  -338.72954      53.189592     -391.91913      283.23819     -3083.0266      960.18531      0.99696118
   1737000  -320.35319      58.943924     -379.29712      313.8804       1524.3872      960.18531      0.99696118
   1738000  -344.89267      54.519939     -399.41261      290.32238     -184.02018      960.18531      0.99696118
   1739000  -337.6145       56.289176     -393.90367      299.74368      20.033998      960.18531      0.99696118
   1740000  -335.7486       55.004539     -390.75314      292.9029      -1174.6946      960.18531      0.99696118
   1741000  -332.92585      59.557647     -392.4835       317.14851     -55.230112      960.18531      0.99696118
   1742000  -336.2724       60.751446     -397.02384      323.50558      535.74599      960.18531      0.99696118
   1743000  -341.03546      58.928999     -399.96446      313.80092      91.98006       960.18531      0.99696118
   1744000  -330.66523      54.83281      -385.49804      291.98844     -1370.7461      960.18531      0.99696118
   1745000  -338.49888      48.859599     -387.35848      260.18068     -3472.3689      960.18531      0.99696118
   1746000  -336.25337      49.999161     -386.25253      266.24893     -136.97578      960.18531      0.99696118
   1747000  -345.80622      42.027309     -387.83353      223.79828      741.545        960.18531      0.99696118
   1748000  -333.67928      57.987116     -391.6664       308.78533      872.48304      960.18531      0.99696118
   1749000  -350.08475      53.33826      -403.42301      284.02985     -6178.33        960.18531      0.99696118
   1750000  -334.99811      52.522819     -387.52093      279.68757      3670.2459      960.18531      0.99696118
   1751000  -339.57897      57.444437     -397.0234       305.89553     -2055.8808      960.18531      0.99696118
   1752000  -346.9818       53.216748     -400.19855      283.3828       2149.3937      960.18531      0.99696118
   1753000  -332.51584      47.66385      -380.17969      253.81324     -5515.8549      960.18531      0.99696118
   1754000  -323.01057      53.943063     -376.95363      287.25047     -5203.0577      960.18531      0.99696118
   1755000  -333.35147      52.849312     -386.20078      281.42617      717.96393      960.18531      0.99696118
   1756000  -332.1828       50.745882     -382.92868      270.22526     -3476.5729      960.18531      0.99696118
   1757000  -340.3369       55.537384     -395.87428      295.74034     -1574.8799      960.18531      0.99696118
   1758000  -357.50749      49.817302     -407.3248       265.28052     -1425.2203      960.18531      0.99696118
   1759000  -352.81225      52.571121     -405.38337      279.94479     -624.92338      960.18531      0.99696118
   1760000  -345.27677      54.735043     -400.01181      291.46782     -1464.4257      960.18531      0.99696118
   1761000  -330.84976      63.418793     -394.26855      337.70938      2404.3419      960.18531      0.99696118
   1762000  -339.52814      57.931941     -397.46008      308.49152     -239.91655      960.18531      0.99696118
   1763000  -349.14946      46.883702     -396.03317      249.65889      1424.6551      960.18531      0.99696118
   1764000  -325.90857      64.946442     -390.85501      345.84421      1419.6071      960.18531      0.99696118
   1765000  -356.01018      51.371613     -407.38179      273.55733      109.28732      960.18531      0.99696118
   1766000  -342.33242      51.411724     -393.74414      273.77092      2576.3502      960.18531      0.99696118
   1767000  -322.54192      59.746745     -382.28866      318.15547     -458.60957      960.18531      0.99696118
   1768000  -350.44158      50.276861     -400.71844      267.7277      -669.20826      960.18531      0.99696118
   1769000  -332.28779      59.125987     -391.41378      314.8499      -2479.2608      960.18531      0.99696118
   1770000  -352.02753      50.852816     -402.88035      270.7947      -382.52528      960.18531      0.99696118
   1771000  -317.90431      63.075368     -380.97968      335.88062     -3048.3033      960.18531      0.99696118
   1772000  -317.47493      55.967344     -373.44227      298.02991      1847.2718      960.18531      0.99696118
   1773000  -334.05296      58.517774     -392.57073      311.61112     -2551.7589      960.18531      0.99696118
   1774000  -341.66525      55.614896     -397.28014      296.15309     -1461.7317      960.18531      0.99696118
   1775000  -339.00296      49.673944     -388.67691      264.51712      2052.8467      960.18531      0.99696118
   1776000  -326.01117      58.093001     -384.10417      309.34917     -3142.1213      960.18531      0.99696118
   1777000  -334.26754      63.289255     -397.5568       337.01958     -344.07013      960.18531      0.99696118
   1778000  -353.9789       59.007673     -412.98657      314.21986     -2922.3932      960.18531      0.99696118
   1779000  -334.79432      50.926123     -385.72044      271.18506     -1906.185       960.18531      0.99696118
   1780000  -333.45609      57.654124     -391.11021      307.01212     -1969.1798      960.18531      0.99696118
   1781000  -332.52912      57.516747     -390.04586      306.28058     -2100.5674      960.18531      0.99696118
   1782000  -327.55744      53.313617     -380.87106      283.89863     -922.84548      960.18531      0.99696118
   1783000  -332.65454      60.901006     -393.55554      324.30199     -1472.5923      960.18531      0.99696118
   1784000  -329.45279      53.403329     -382.85612      284.37635     -1210.3135      960.18531      0.99696118
   1785000  -323.97468      59.319992     -383.29468      315.88299     -2707.1338      960.18531      0.99696118
   1786000  -330.92301      58.399185     -389.32219      310.97962     -437.17235      960.18531      0.99696118
   1787000  -322.21731      52.341004     -374.55831      278.7194      -2641.6545      960.18531      0.99696118
   1788000  -313.31696      65.139035     -378.45599      346.86978     -244.70205      960.18531      0.99696118
   1789000  -331.71855      57.454663     -389.17322      305.94998     -1656.4051      960.18531      0.99696118
   1790000  -335.05249      56.694902     -391.74739      301.9042      -805.92188      960.18531      0.99696118
   1791000  -337.5053       51.111036     -388.61634      272.16974      391.05015      960.18531      0.99696118
   1792000  -349.64749      47.566875     -397.21436      253.29684      1118.1618      960.18531      0.99696118
   1793000  -342.8424       57.805921     -400.64832      307.82045      1169.0966      960.18531      0.99696118
   1794000  -316.61458      62.075532     -378.69011      330.55642     -41.574269      960.18531      0.99696118
   1795000  -352.38413      51.642028     -404.02615      274.99731     -5354.9275      960.18531      0.99696118
   1796000  -332.92683      51.02292      -383.94974      271.70051      599.35186      960.18531      0.99696118
   1797000  -326.89534      59.644691     -386.54003      317.61203      354.69799      960.18531      0.99696118
   1798000  -346.29389      52.596402     -398.89029      280.07941      2591.2615      960.18531      0.99696118
   1799000  -336.57377      55.076253     -391.65002      293.28479     -474.10935      960.18531      0.99696118
   1800000  -340.0706       55.209975     -395.28057      293.99686      476.48788      960.18531      0.99696118
   1801000  -337.41166      53.768029     -391.17969      286.31841      612.4095       960.18531      0.99696118
   1802000  -327.42203      60.549946     -387.97198      322.43257     -1706.8099      960.18531      0.99696118
   1803000  -343.73277      53.321094     -397.05386      283.93845     -335.08803      960.18531      0.99696118
   1804000  -336.84293      59.971286     -396.81422      319.35117     -2427.3805      960.18531      0.99696118
   1805000  -341.25095      46.648374     -387.89932      248.40576      1253.7772      960.18531      0.99696118
   1806000  -327.89347      52.423941     -380.31741      279.16105     -1222.6945      960.18531      0.99696118
   1807000  -319.4139       60.413327     -379.82723      321.70507     -1320.9095      960.18531      0.99696118
   1808000  -314.45925      63.860108     -378.31936      340.05941     -3516.9015      960.18531      0.99696118
   1809000  -340.04334      56.115929     -396.15927      298.82113     -1765.8837      960.18531      0.99696118
   1810000  -330.4653       53.282109     -383.74741      283.73085     -540.79239      960.18531      0.99696118
   1811000  -331.8559       57.004772     -388.86067      303.55428      632.19279      960.18531      0.99696118
   1812000  -336.92533      57.780828     -394.70616      307.68683      1880.3344      960.18531      0.99696118
   1813000  -324.29808      62.382784     -386.68086      332.19256     -77.921191      960.18531      0.99696118
   1814000  -345.38261      54.406042     -399.78865      289.71587     -2927.6181      960.18531      0.99696118
   1815000  -332.83333      54.022198     -386.85553      287.67187     -6124.2178      960.18531      0.99696118
   1816000  -335.07721      52.235138     -387.31235      278.15566     -4041.7342      960.18531      0.99696118
   1817000  -334.84575      47.509349     -382.3551       252.99051      3338.0113      960.18531      0.99696118
   1818000  -328.1883       60.52651      -388.71481      322.30778     -1044.5709      960.18531      0.99696118
   1819000  -340.9178       52.157204     -393.075        277.74065     -1090.4956      960.18531      0.99696118
   1820000  -327.04188      69.25676      -396.29864      368.79695      2383.8976      960.18531      0.99696118
   1821000  -353.48265      45.235596     -398.71824      240.88262     -1281.1862      960.18531      0.99696118
   1822000  -338.19906      52.026924     -390.22599      277.0469       709.26922      960.18531      0.99696118
   1823000  -314.01487      58.457779     -372.47265      311.29164      1642.1908      960.18531      0.99696118
   1824000  -345.33207      51.380411     -396.71248      273.60418      615.94179      960.18531      0.99696118
   1825000  -368.05377      47.72654      -415.78031      254.14707     -505.12484      960.18531      0.99696118
   1826000  -326.57762      65.33319      -391.91081      347.90367      5446.1322      960.18531      0.99696118
   1827000  -327.25589      68.573677     -395.82957      365.15949     -2474.6301      960.18531      0.99696118
   1828000  -338.08644      50.988461     -389.0749       271.51702      1584.677       960.18531      0.99696118
   1829000  -320.46004      55.422306     -375.88235      295.12754     -247.91705      960.18531      0.99696118
   1830000  -340.47489      49.352696     -389.82758      262.80646     -611.55419      960.18531      0.99696118
   1831000  -329.23256      54.145488     -383.37805      288.3284      -4962.5149      960.18531      0.99696118
   1832000  -330.93257      60.462543     -391.39512      321.96715     -1421.4842      960.18531      0.99696118
   1833000  -338.65298      55.065693     -393.71868      293.22856     -1603.0752      960.18531      0.99696118
   1834000  -340.43498      43.531919     -383.9669       231.81043     -165.00986      960.18531      0.99696118
   1835000  -336.13559      49.87118      -386.00677      265.56742     -4959.1883      960.18531      0.99696118
   1836000  -329.36272      65.065425     -394.42814      346.47781      1056.5157      960.18531      0.99696118
   1837000  -339.96407      63.172333     -403.13641      336.39696     -1645.0244      960.18531      0.99696118
   1838000  -344.05784      54.741365     -398.7992       291.50149     -1419.373       960.18531      0.99696118
   1839000  -320.6972       55.017581     -375.71478      292.97235     -1575.1521      960.18531      0.99696118
   1840000  -318.27312      59.069037     -377.34215      314.54663     -931.31813      960.18531      0.99696118
   1841000  -328.39622      57.823437     -386.21966      307.91373     -1270.8634      960.18531      0.99696118
   1842000  -315.50933      54.595368     -370.1047       290.72404      1926.5185      960.18531      0.99696118
   1843000  -333.50032      53.602633     -387.10295      285.43766     -4990.6094      960.18531      0.99696118
   1844000  -344.21416      56.316525     -400.53069      299.88932     -485.35499      960.18531      0.99696118
   1845000  -347.06761      47.79616      -394.86377      254.5178      -1441.9315      960.18531      0.99696118
   1846000  -324.47727      66.360283     -390.83755      353.37301     -3894.1528      960.18531      0.99696118
   1847000  -323.77135      52.913762     -376.68512      281.76938     -1744.6922      960.18531      0.99696118
   1848000  -353.17459      51.908215     -405.08281      276.41477      1432.5494      960.18531      0.99696118
   1849000  -338.34232      53.068658     -391.41098      282.5942       2214.581       960.18531      0.99696118
   1850000  -326.12819      55.243084     -381.37128      294.17317      3053.4496      960.18531      0.99696118
   1851000  -336.94919      50.564646     -387.51383      269.26018     -3222.7611      960.18531      0.99696118
   1852000  -316.93592      66.970381     -383.9063       356.62182     -4596.94        960.18531      0.99696118
   1853000  -325.58207      54.142798     -379.72487      288.31408     -5522.3939      960.18531      0.99696118
   1854000  -322.13315      57.330523     -379.46367      305.28893     -253.44621      960.18531      0.99696118
   1855000  -311.67936      63.918616     -375.59798      340.37097      2259.1927      960.18531      0.99696118
   1856000  -336.48326      49.499877     -385.98313      263.5902       1049.8884      960.18531      0.99696118
   1857000  -346.42133      58.831779     -405.25311      313.28322     -2889.544       960.18531      0.99696118
   1858000  -331.2739       52.286965     -383.56086      278.43164     -1554.9742      960.18531      0.99696118
   1859000  -339.65406      52.332284     -391.98634      278.67296     -497.93164      960.18531      0.99696118
   1860000  -346.15273      55.955391     -402.10812      297.96626     -68.182238      960.18531      0.99696118
   1861000  -336.79699      51.206512     -388.0035       272.67815     -1604.8067      960.18531      0.99696118
   1862000  -322.72429      57.879495     -380.60379      308.21224     -1607.9674      960.18531      0.99696118
   1863000  -332.11262      53.183027     -385.29565      283.20323     -1457.2601      960.18531      0.99696118
   1864000  -324.0251       61.629625     -385.65472      328.18193      2084.1481      960.18531      0.99696118
   1865000  -351.78534      46.575441     -398.36078      248.01739     -1546.1519      960.18531      0.99696118
   1866000  -335.10135      51.609505     -386.71085      274.82412      406.54497      960.18531      0.99696118
   1867000  -335.87433      65.01989      -400.89422      346.23533      2570.1501      960.18531      0.99696118
   1868000  -334.48272      55.332853     -389.81558      294.6512       1490.8017      960.18531      0.99696118
   1869000  -343.54355      52.614531     -396.15809      280.17595     -2406.5637      960.18531      0.99696118
   1870000  -333.81862      58.652413     -392.47103      312.32808      1558.4119      960.18531      0.99696118
   1871000  -340.714        55.962514     -396.67651      298.00419      874.06237      960.18531      0.99696118
   1872000  -342.90842      58.000268     -400.90869      308.85537      1808.4946      960.18531      0.99696118
   1873000  -345.06319      59.819735     -404.88292      318.54415      4621.6414      960.18531      0.99696118
   1874000  -335.41412      53.463055     -388.87718      284.6944       1672.1536      960.18531      0.99696118
   1875000  -347.63661      55.038675     -402.67529      293.08468     -2182.604       960.18531      0.99696118
   1876000  -346.13148      44.643166     -390.77464      237.72789     -3664.1637      960.18531      0.99696118
   1877000  -344.17739      52.680577     -396.85796      280.52765     -2328.1411      960.18531      0.99696118
   1878000  -347.14127      50.027969     -397.16924      266.40233      463.97894      960.18531      0.99696118
   1879000  -332.88061      61.798057     -394.67867      329.07885     -263.66245      960.18531      0.99696118
   1880000  -337.20015      45.908664     -383.10881      244.46675     -2216.9724      960.18531      0.99696118
   1881000  -342.9718       52.955605     -395.9274       281.99219      1885.9262      960.18531      0.99696118
   1882000  -329.15511      56.140906     -385.29602      298.95414     -4110.7732      960.18531      0.99696118
   1883000  -338.28549      55.150463     -393.43595      293.67996     -1383.4347      960.18531      0.99696118
   1884000  -322.90189      55.222812     -378.1247       294.06522     -2647.3963      960.18531      0.99696118
   1885000  -324.15441      55.492234     -379.64665      295.49991     -3279.6354      960.18531      0.99696118
   1886000  -335.40319      54.826395     -390.22959      291.95428      2501.6398      960.18531      0.99696118
   1887000  -321.38945      62.061738     -383.45119      330.48297      1301.3005      960.18531      0.99696118
   1888000  -319.81424      68.153665     -387.9679       362.92289      415.38824      960.18531      0.99696118
   1889000  -329.46248      57.932307     -387.39478      308.49347      769.38616      960.18531      0.99696118
   1890000  -336.20099      46.990066     -383.19106      250.22529      3279.5631      960.18531      0.99696118
   1891000  -329.64392      58.866614     -388.51053      313.46872      2641.132       960.18531      0.99696118
   1892000  -331.61969      51.487728     -383.10741      274.17565      510.94089      960.18531      0.99696118
   1893000  -337.75065      51.357014     -389.10766      273.47958      196.08593      960.18531      0.99696118
   1894000  -350.56329      51.687822     -402.25111      275.24116      5152.0526      960.18531      0.99696118
   1895000  -336.99701      58.692839     -395.68985      312.54335     -3615.6141      960.18531      0.99696118
   1896000  -329.81463      60.128014     -389.94264      320.18575      2755.7449      960.18531      0.99696118
   1897000  -345.09596      55.721275     -400.81723      296.71957     -1059.1442      960.18531      0.99696118
   1898000  -322.21143      57.387552     -379.59898      305.59261     -1275.2759      960.18531      0.99696118
   1899000  -344.25825      43.405001     -387.66325      231.13458     -247.50669      960.18531      0.99696118
   1900000  -347.33295      54.806698     -402.13964      291.84938     -2854.0608      960.18531      0.99696118
   1901000  -329.01461      49.165368     -378.17998      261.80892      840.01056      960.18531      0.99696118
   1902000  -344.05503      55.872284     -399.92732      297.52371     -3540.7655      960.18531      0.99696118
   1903000  -313.56805      73.43189      -386.99994      391.0298      -618.07311      960.18531      0.99696118
   1904000  -332.03845      47.187845     -379.2263       251.27848     -2847.4906      960.18531      0.99696118
   1905000  -339.05007      53.269709     -392.31978      283.66482     -2666.9961      960.18531      0.99696118
   1906000  -322.99499      61.066161     -384.06115      325.18145      1718.175       960.18531      0.99696118
   1907000  -349.34752      59.600175     -408.94769      317.37498     -2190.0315      960.18531      0.99696118
   1908000  -330.19645      56.15138      -386.34783      299.00991      4684.0713      960.18531      0.99696118
   1909000  -333.9481       57.479491     -391.42759      306.08219     -2072.6946      960.18531      0.99696118
   1910000  -324.60581      56.734586     -381.34039      302.11552     -6742.711       960.18531      0.99696118
   1911000  -336.00381      46.112682     -382.1165       245.55316     -410.66178      960.18531      0.99696118
   1912000  -349.98188      55.380991     -405.36287      294.90753     -3374.1122      960.18531      0.99696118
   1913000  -342.61754      47.00973      -389.62727      250.33        -3459.8364      960.18531      0.99696118
   1914000  -335.75465      46.980576     -382.73523      250.17476     -2789.185       960.18531      0.99696118
   1915000  -324.98826      58.879109     -383.86736      313.53525      995.81241      960.18531      0.99696118
   1916000  -331.6477       54.102865     -385.75056      288.10143     -1051.3196      960.18531      0.99696118
   1917000  -326.02137      52.224936     -378.24631      278.10133     -1536.6749      960.18531      0.99696118
   1918000  -343.98555      48.698363     -392.68391      259.32209     -2834.0178      960.18531      0.99696118
   1919000  -338.76455      52.69834      -391.46289      280.62224      1955.4601      960.18531      0.99696118
   1920000  -328.62812      54.135977     -382.76409      288.27775      2213.4836      960.18531      0.99696118
   1921000  -337.40936      49.447188     -386.85655      263.30963     -2443.4732      960.18531      0.99696118
   1922000  -339.30768      52.068745     -391.37643      277.2696      -2672.9621      960.18531      0.99696118
   1923000  -347.45429      50.454279     -397.90857      268.67246      66.020199      960.18531      0.99696118
   1924000  -327.102        55.794748     -382.89674      297.11082      2849.2299      960.18531      0.99696118
   1925000  -326.35045      50.631025     -376.98147      269.61364      54.666531      960.18531      0.99696118
   1926000  -336.48282      53.607536     -390.09035      285.46377     -1157.1792      960.18531      0.99696118
   1927000  -338.98254      57.258676     -396.24122      304.90634     -2122.383       960.18531      0.99696118
   1928000  -343.8818       52.120319     -396.00212      277.54424     -3959.8507      960.18531      0.99696118
   1929000  -338.81435      50.359041     -389.17339      268.16531     -893.74804      960.18531      0.99696118
   1930000  -334.89413      59.450327     -394.34445      316.57703     -3468.5417      960.18531      0.99696118
   1931000  -333.51067      53.756695     -387.26737      286.25805      5297.962       960.18531      0.99696118
   1932000  -340.31105      49.162074     -389.47312      261.79138     -5516.975       960.18531      0.99696118
   1933000  -333.83934      60.709341     -394.54869      323.28136      877.76585      960.18531      0.99696118
   1934000  -336.24529      58.538181     -394.78347      311.71979      2044.5385      960.18531      0.99696118
   1935000  -341.34968      58.042259     -399.39194      309.07897     -4679.5598      960.18531      0.99696118
   1936000  -322.24737      59.023993     -381.27136      314.30677     -297.7313       960.18531      0.99696118
   1937000  -346.3908       48.421385     -394.81219      257.84716      1333.499       960.18531      0.99696118
   1938000  -322.64631      65.748533     -388.39484      350.1154       345.98221      960.18531      0.99696118
   1939000  -329.09084      62.307876     -391.39871      331.79367     -742.95442      960.18531      0.99696118
   1940000  -340.41229      60.262263     -400.67455      320.90064      465.00284      960.18531      0.99696118
   1941000  -309.8171       62.947329     -372.76443      335.1988      -1079.5551      960.18531      0.99696118
   1942000  -310.6653       58.601297     -369.2666       312.05589     -5050.7415      960.18531      0.99696118
   1943000  -320.68685      53.969198     -374.65605      287.38964     -2027.4598      960.18531      0.99696118
   1944000  -343.3233       50.910679     -394.23398      271.10282     -3945.4521      960.18531      0.99696118
   1945000  -329.22714      60.460828     -389.68797      321.95801     -2707.5938      960.18531      0.99696118
   1946000  -329.38778      49.179904     -378.56768      261.88633     -3556.2059      960.18531      0.99696118
   1947000  -341.56212      51.901121     -393.46324      276.37699     -98.373591      960.18531      0.99696118
   1948000  -311.44575      62.371611     -373.81736      332.13306      3025.3446      960.18531      0.99696118
   1949000  -335.73128      51.747078     -387.47835      275.5567      -1004.9261      960.18531      0.99696118
   1950000  -342.75746      47.051631     -389.80909      250.55313     -2353.2837      960.18531      0.99696118
   1951000  -338.36062      51.677082     -390.03771      275.18397     -2786.3426      960.18531      0.99696118
   1952000  -335.55227      55.849678     -391.40195      297.40332     -2540.1006      960.18531      0.99696118
   1953000  -325.48902      58.632374     -384.12139      312.22137     -3397.948       960.18531      0.99696118
   1954000  -345.37931      54.398297     -399.7776       289.67462     -3240.1321      960.18531      0.99696118
   1955000  -319.68982      71.916111     -391.60593      382.95817     -1649.2762      960.18531      0.99696118
   1956000  -311.76159      69.448071     -381.20966      369.81569      1607.8662      960.18531      0.99696118
   1957000  -332.43416      51.72015      -384.15431      275.41331      2825.4355      960.18531      0.99696118
   1958000  -328.41099      53.855505     -382.26649      286.78422      2207.9915      960.18531      0.99696118
   1959000  -326.20612      61.912574     -388.11869      329.68866      2081.8811      960.18531      0.99696118
   1960000  -346.89022      53.199185     -400.08941      283.28927     -140.15236      960.18531      0.99696118
   1961000  -334.19809      55.941279     -390.13936      297.89111      54.02812       960.18531      0.99696118
   1962000  -340.21994      62.700757     -402.9207       333.88579     -3783.9911      960.18531      0.99696118
   1963000  -331.80603      55.166003     -386.97204      293.76271     -4512.822       960.18531      0.99696118
   1964000  -350.84806      47.304699     -398.15276      251.90074     -953.87077      960.18531      0.99696118
   1965000  -332.4762       53.803008     -386.2792       286.50467      1691.9873      960.18531      0.99696118
   1966000  -324.82895      62.091055     -386.92         330.63908     -2790.6653      960.18531      0.99696118
   1967000  -333.02974      56.745115     -389.77486      302.17159     -2599.3322      960.18531      0.99696118
   1968000  -323.79022      60.6764       -384.46662      323.10595     -1325.4547      960.18531      0.99696118
   1969000  -325.36794      48.214857     -373.58279      256.74739     -683.40767      960.18531      0.99696118
   1970000  -342.78703      51.339972     -394.12701      273.38884      2576.4732      960.18531      0.99696118
   1971000  -343.58971      51.743724     -395.33343      275.53884      7.506199       960.18531      0.99696118
   1972000  -328.27934      64.270882     -392.55022      342.24681      700.19469      960.18531      0.99696118
   1973000  -319.20706      55.045597     -374.25266      293.12154     -507.97738      960.18531      0.99696118
   1974000  -336.59909      58.568778     -395.16786      311.88272      1297.984       960.18531      0.99696118
   1975000  -327.13985      65.629228     -392.76908      349.4801      -2165.1896      960.18531      0.99696118
   1976000  -349.13341      47.847599     -396.981        254.79171     -3570.1613      960.18531      0.99696118
   1977000  -347.30459      56.497573     -403.80216      300.85341     -1858.9397      960.18531      0.99696118
   1978000  -323.32382      61.010563     -384.33439      324.88539      761.00631      960.18531      0.99696118
   1979000  -335.56377      56.095056     -391.65883      298.70998     -1633.8104      960.18531      0.99696118
   1980000  -344.22424      55.509333     -399.73357      295.59097      3935.7392      960.18531      0.99696118
   1981000  -327.34271      60.794355     -388.13706      323.73407      522.60841      960.18531      0.99696118
   1982000  -342.14474      51.943894     -394.08863      276.60476     -4742.1437      960.18531      0.99696118
   1983000  -334.6391       55.881387     -390.52049      297.57218     -380.66758      960.18531      0.99696118
   1984000  -348.72247      55.423316     -404.14578      295.13292      1297.4055      960.18531      0.99696118
   1985000  -346.35009      55.001036     -401.35112      292.88425     -1294.5959      960.18531      0.99696118
   1986000  -330.62095      57.127291     -387.74825      304.2067      -1739.3668      960.18531      0.99696118
   1987000  -352.51223      51.36784      -403.88007      273.53723     -3881.1845      960.18531      0.99696118
   1988000  -334.26132      51.525859     -385.78718      274.3787      -2060.9842      960.18531      0.99696118
   1989000  -337.56042      51.383832     -388.94426      273.62239     -3303.8308      960.18531      0.99696118
   1990000  -315.35786      64.909517     -380.26738      345.64758      315.31103      960.18531      0.99696118
   1991000  -330.48045      58.165786     -388.64624      309.73676      3169.2416      960.18531      0.99696118
   1992000  -333.3985       51.989955     -385.38845      276.85004      264.33005      960.18531      0.99696118
   1993000  -322.88114      52.637984     -375.51912      280.30084      3232.9098      960.18531      0.99696118
   1994000  -318.8536       57.46553      -376.31913      306.00785     -3737.3498      960.18531      0.99696118
   1995000  -359.9952       40.226914     -400.22211      214.21105     -2491.93        960.18531      0.99696118
   1996000  -337.68907      55.406131     -393.0952       295.04141     -2284.6162      960.18531      0.99696118
   1997000  -312.4491       60.495292     -372.94439      322.14154     -2294.5596      960.18531      0.99696118
   1998000  -317.94888      61.553754     -379.50263      327.77792     -2771.8638      960.18531      0.99696118
   1999000  -339.4156       59.052566     -398.46817      314.45892     -121.80237      960.18531      0.99696118
   2000000  -331.09403      59.37301      -390.46704      316.16531     -246.22778      960.18531      0.99696118
   2001000  -341.18577      56.069282     -397.25506      298.57273     -2105.9393      960.18531      0.99696118
   2002000  -349.52162      43.159095     -392.68072      229.82511      5827.6111      960.18531      0.99696118
   2003000  -325.14896      58.216344     -383.3653       310.00598     -1428.7203      960.18531      0.99696118
   2004000  -332.98099      65.837886     -398.81887      350.59121     -810.5644       960.18531      0.99696118
   2005000  -333.03338      60.399146     -393.43253      321.62955      2564.9707      960.18531      0.99696118
   2006000  -324.64725      65.235297     -389.88254      347.38239      414.04048      960.18531      0.99696118
   2007000  -336.97038      52.763239     -389.73362      280.96783     -859.64955      960.18531      0.99696118
   2008000  -317.58406      60.643752     -378.22781      322.9321      -1029.9158      960.18531      0.99696118
   2009000  -320.19548      55.391924     -375.5874       294.96575      88.346561      960.18531      0.99696118
   2010000  -328.81346      59.957445     -388.7709       319.27747     -5477.6305      960.18531      0.99696118
   2011000  -335.30142      62.363071     -397.66449      332.08758      4990.0654      960.18531      0.99696118
   2012000  -346.40322      57.898951     -404.30217      308.31584     -1952.331       960.18531      0.99696118
   2013000  -325.13472      55.307619     -380.44234      294.51683     -629.95009      960.18531      0.99696118
   2014000  -316.33233      71.10422      -387.43655      378.6348       2383.1153      960.18531      0.99696118
   2015000  -327.2934       62.139057     -389.43245      330.8947      -3471.4667      960.18531      0.99696118
   2016000  -334.5468       56.615448     -391.16225      301.4811       443.79618      960.18531      0.99696118
   2017000  -325.79595      57.773083     -383.56903      307.64559     -1732.1562      960.18531      0.99696118
   2018000  -337.68211      57.163776     -394.84589      304.40099     -1411.5583      960.18531      0.99696118
   2019000  -350.88898      48.852788     -399.74177      260.14441      1268.094       960.18531      0.99696118
   2020000  -337.82101      53.781889     -391.6029       286.39221     -1645.4827      960.18531      0.99696118
   2021000  -338.55146      51.237123     -389.78858      272.84116      1424.7649      960.18531      0.99696118
   2022000  -334.09967      51.668433     -385.7681       275.13791     -686.17849      960.18531      0.99696118
   2023000  -337.53145      46.626435     -384.15788      248.28893      2151.8387      960.18531      0.99696118
   2024000  -338.29121      44.368722     -382.65993      236.26646     -2216.1834      960.18531      0.99696118
   2025000  -343.38744      52.647875     -396.03532      280.35351      52.9341        960.18531      0.99696118
   2026000  -336.32569      47.798121     -384.12381      254.52824      62.501231      960.18531      0.99696118
   2027000  -333.4097       62.525669     -395.93536      332.95343      1886.8814      960.18531      0.99696118
   2028000  -352.9139       53.369244     -406.28315      284.19485     -1134.6346      960.18531      0.99696118
   2029000  -344.60505      55.139242     -399.74429      293.62021     -605.63435      960.18531      0.99696118
   2030000  -351.499        44.732263     -396.23126      238.20234     -2424.8264      960.18531      0.99696118
   2031000  -330.60356      62.882575     -393.48613      334.85398      1067.1479      960.18531      0.99696118
   2032000  -342.55355      45.468835     -388.02239      242.12463      683.77763      960.18531      0.99696118
   2033000  -316.77897      64.769215     -381.54818      344.90046     -1448.0723      960.18531      0.99696118
   2034000  -343.43466      51.569865     -395.00453      274.61303      1279.9889      960.18531      0.99696118
   2035000  -339.89373      61.125965     -401.0197       325.49992     -1198.6884      960.18531      0.99696118
   2036000  -312.34229      61.110774     -373.45306      325.41902      3411.4815      960.18531      0.99696118
   2037000  -340.29289      44.667218     -384.96011      237.85597      1668.2765      960.18531      0.99696118
   2038000  -333.52519      51.218707     -384.7439       272.74309     -1899.4416      960.18531      0.99696118
   2039000  -321.4861       69.621045     -391.10715      370.73679     -5560.6498      960.18531      0.99696118
   2040000  -340.40813      58.089074     -398.49721      309.32826     -809.7168       960.18531      0.99696118
   2041000  -320.94147      58.613084     -379.55455      312.11865     -2787.6581      960.18531      0.99696118
   2042000  -323.88281      62.540383     -386.42319      333.03178      3070.0902      960.18531      0.99696118
   2043000  -338.45685      55.98689      -394.44374      298.13399     -1562.586       960.18531      0.99696118
   2044000  -353.33551      49.293091     -402.62861      262.48906     -1241.7453      960.18531      0.99696118
   2045000  -335.5403       50.277156     -385.81745      267.72927     -1886.3864      960.18531      0.99696118
   2046000  -333.98986      61.666662     -395.65652      328.37916      523.08948      960.18531      0.99696118
   2047000  -337.23557      55.296689     -392.53225      294.45862     -1536.9218      960.18531      0.99696118
   2048000  -340.73205      51.171605     -391.90365      272.49227     -4429.8348      960.18531      0.99696118
   2049000  -349.40144      50.522006     -399.92344      269.03311     -1488.0065      960.18531      0.99696118
   2050000  -331.59146      60.950727     -392.54218      324.56676      1318.4331      960.18531      0.99696118
   2051000  -349.86363      60.579339     -410.44297      322.5891       49.449602      960.18531      0.99696118
   2052000  -343.49441      46.70767      -390.20208      248.72151      909.7832       960.18531      0.99696118
   2053000  -324.81941      53.335996     -378.1554       284.0178      -237.35639      960.18531      0.99696118
   2054000  -332.38154      50.737797     -383.11934      270.18221     -394.35389      960.18531      0.99696118
   2055000  -349.75473      51.572008     -401.32674      274.62444     -954.24524      960.18531      0.99696118
   2056000  -354.75459      47.933567     -402.68815      255.2495       1899.8793      960.18531      0.99696118
   2057000  -331.75535      61.44248      -393.19783      327.18538      2431.1473      960.18531      0.99696118
   2058000  -345.09421      51.427337     -396.52155      273.85406      1543.8171      960.18531      0.99696118
   2059000  -341.02499      58.827601     -399.85259      313.26097     -3294.3742      960.18531      0.99696118
   2060000  -324.71656      60.940643     -385.65721      324.51306     -2434.9165      960.18531      0.99696118
   2061000  -329.386        63.839394     -393.22539      339.94911     -2164.6247      960.18531      0.99696118
   2062000  -337.02026      59.611523     -396.63178      317.43541      3742.336       960.18531      0.99696118
   2063000  -339.13684      63.451359     -402.5882       337.8828       68.714789      960.18531      0.99696118
   2064000  -323.76034      52.638164     -376.39851      280.3018      -3484.0842      960.18531      0.99696118
   2065000  -341.27688      52.305775     -393.58265      278.5318      -1063.8548      960.18531      0.99696118
   2066000  -330.29344      62.91328      -393.20672      335.01749     -2093.5417      960.18531      0.99696118
   2067000  -336.41939      53.208908     -389.6283       283.34105     -2260.6492      960.18531      0.99696118
   2068000  -348.51264      53.36355      -401.87619      284.16453     -3084.5917      960.18531      0.99696118
   2069000  -313.66829      57.608597     -371.27689      306.76969     -4073.1745      960.18531      0.99696118
   2070000  -327.32924      59.928117     -387.25735      319.12129     -1057.274       960.18531      0.99696118
   2071000  -334.6379       56.614827     -391.25272      301.4778      -2610.6781      960.18531      0.99696118
   2072000  -320.44172      56.826899     -377.26862      302.6071      -405.04466      960.18531      0.99696118
   2073000  -330.76984      63.024844     -393.79468      335.61157     -2576.0648      960.18531      0.99696118
   2074000  -342.05931      50.844308     -392.90361      270.74939     -4202.699       960.18531      0.99696118
   2075000  -325.87818      55.939063     -381.81724      297.87931      4376.3181      960.18531      0.99696118
   2076000  -337.1469       55.318528     -392.46543      294.57491      3323.5715      960.18531      0.99696118
   2077000  -318.58402      68.173239     -386.75726      363.02713     -1000.7917      960.18531      0.99696118
   2078000  -340.86343      57.24169      -398.10512      304.81588     -2950.9635      960.18531      0.99696118
   2079000  -320.59171      58.440758     -379.03247      311.201       -2595.9074      960.18531      0.99696118
   2080000  -335.18007      50.721298     -385.90137      270.09436      177.3849       960.18531      0.99696118
   2081000  -317.10578      58.986795     -376.09258      314.10869     -2643.0626      960.18531      0.99696118
   2082000  -320.71722      64.181735     -384.89896      341.77209     -161.13649      960.18531      0.99696118
   2083000  -329.27794      68.013322     -397.29127      362.17556      4859.1157      960.18531      0.99696118
   2084000  -339.76288      60.492269     -400.25515      322.12544      2267.601       960.18531      0.99696118
   2085000  -340.06797      51.934018     -392.00199      276.55217      2589.0447      960.18531      0.99696118
   2086000  -317.17526      57.53432      -374.70958      306.37416      1860.8791      960.18531      0.99696118
   2087000  -337.98224      49.120071     -387.10231      261.56771     -2447.4317      960.18531      0.99696118
   2088000  -336.8821       50.949743     -387.83184      271.31084      415.98787      960.18531      0.99696118
   2089000  -320.95493      52.814685     -373.76961      281.24178      4412.4531      960.18531      0.99696118
   2090000  -332.80955      61.691568     -394.50112      328.51179      2534.2191      960.18531      0.99696118
   2091000  -345.38564      48.324104     -393.70975      257.32914      3470.0613      960.18531      0.99696118
   2092000  -351.82483      44.684446     -396.50928      237.94771      8330.2338      960.18531      0.99696118
   2093000  -350.46717      54.661943     -405.12912      291.07856      1040.6223      960.18531      0.99696118
   2094000  -349.8005       48.615873     -398.41637      258.88282      1465.1913      960.18531      0.99696118
   2095000  -331.93322      48.196382     -380.1296       256.64901      1966.5894      960.18531      0.99696118
   2096000  -301.20503      64.10071      -365.30574      341.34063     -3654.4282      960.18531      0.99696118
   2097000  -319.67614      70.027031     -389.70318      372.8987       2454.7524      960.18531      0.99696118
   2098000  -330.14796      56.79275      -386.94071      302.42525      2207.2362      960.18531      0.99696118
   2099000  -329.77801      51.394992     -381.173        273.68182     -5539.2419      960.18531      0.99696118
   2100000  -326.80606      55.085961     -381.89202      293.33648      682.25864      960.18531      0.99696118
   2101000  -342.07371      52.537917     -394.61163      279.76797      113.55039      960.18531      0.99696118
   2102000  -341.67363      56.725218     -398.39884      302.06564      2699.5396      960.18531      0.99696118
   2103000  -326.7973       61.708155     -388.50546      328.60012      1662.9828      960.18531      0.99696118
   2104000  -329.23058      52.038901     -381.26948      277.11068      1071.1223      960.18531      0.99696118
   2105000  -329.75336      61.159508     -390.91287      325.67853     -1320.4248      960.18531      0.99696118
   2106000  -308.65001      62.473232     -371.12324      332.6742      -42.022813      960.18531      0.99696118
   2107000  -334.51418      52.627521     -387.1417       280.24512      1106.6154      960.18531      0.99696118
   2108000  -314.15004      51.458884     -365.60892      274.02205     -1016.9664      960.18531      0.99696118
   2109000  -356.23894      48.405221     -404.64416      257.76109      1340.4219      960.18531      0.99696118
   2110000  -326.36397      57.134003     -383.49797      304.24245     -363.13375      960.18531      0.99696118
   2111000  -320.14982      70.822218     -390.97204      377.13312     -1533.4404      960.18531      0.99696118
   2112000  -336.376        47.354653     -383.73065      252.16674      688.56623      960.18531      0.99696118
   2113000  -325.50123      56.287394     -381.78862      299.7342      -1610.6493      960.18531      0.99696118
   2114000  -333.30756      61.876368     -395.18393      329.49586     -2183.8832      960.18531      0.99696118
   2115000  -339.71048      52.060747     -391.77122      277.22701      632.51542      960.18531      0.99696118
   2116000  -332.19439      52.978654     -385.17304      282.11493     -3025.0083      960.18531      0.99696118
   2117000  -332.18907      59.924522     -392.11359      319.10215     -2824.5439      960.18531      0.99696118
   2118000  -331.48685      57.100178     -388.58702      304.06233     -6648.3382      960.18531      0.99696118
   2119000  -312.58181      66.755979     -379.33779      355.48012     -398.61389      960.18531      0.99696118
   2120000  -340.06115      56.355673     -396.41682      300.09778      1281.4513      960.18531      0.99696118
   2121000  -334.71459      50.037787     -384.75238      266.45461     -2090.3402      960.18531      0.99696118
   2122000  -323.33827      49.951321     -373.28959      265.99418      1528.3737      960.18531      0.99696118
   2123000  -318.60709      61.243058     -379.85015      326.12344     -783.07471      960.18531      0.99696118
   2124000  -333.54171      64.52655      -398.06826      343.60826     -1043.3773      960.18531      0.99696118
   2125000  -315.02279      63.65161      -378.6744       338.94915      4459.8116      960.18531      0.99696118
   2126000  -329.87663      58.316728     -388.19336      310.54054     -3607.2489      960.18531      0.99696118
   2127000  -318.14083      60.100963     -378.24179      320.04171     -612.05109      960.18531      0.99696118
   2128000  -346.47227      53.919955     -400.39223      287.12742      1697.3326      960.18531      0.99696118
   2129000  -351.81393      46.79651      -398.61044      249.19459      1804.4692      960.18531      0.99696118
   2130000  -316.65138      66.890255     -383.54163      356.19515     -1038.8031      960.18531      0.99696118
   2131000  -330.35854      59.195176     -389.55372      315.21833      1635.156       960.18531      0.99696118
   2132000  -329.58191      56.290673     -385.87259      299.75165      2473.2242      960.18531      0.99696118
   2133000  -341.94898      44.112153     -386.06113      234.90021      25.241041      960.18531      0.99696118
   2134000  -333.77974      60.300028     -394.07977      321.10174     -459.07871      960.18531      0.99696118
   2135000  -320.56402      54.680137     -375.24415      291.17544      1826.0761      960.18531      0.99696118
   2136000  -328.1269       59.740777     -387.86768      318.12369     -1636.0544      960.18531      0.99696118
   2137000  -355.1188       46.437553     -401.55635      247.28312     -4979.0284      960.18531      0.99696118
   2138000  -331.45908      57.053075     -388.51216      303.81149     -3791.4688      960.18531      0.99696118
   2139000  -331.45891      54.640728     -386.09964      290.96559     -2479.4931      960.18531      0.99696118
   2140000  -330.09905      53.048534     -383.14758      282.48704     -907.93365      960.18531      0.99696118
   2141000  -349.09275      48.047696     -397.14044      255.85724      1896.1921      960.18531      0.99696118
   2142000  -337.52529      48.664876     -386.19017      259.14377      1930.2121      960.18531      0.99696118
   2143000  -341.42065      48.356843     -389.77749      257.50347      1526.1559      960.18531      0.99696118
   2144000  -324.66807      57.412909     -382.08098      305.72764      745.31212      960.18531      0.99696118
   2145000  -341.14287      56.295746     -397.43861      299.77867      1989.9205      960.18531      0.99696118
   2146000  -323.15143      56.213272     -379.3647       299.33949      3725.6212      960.18531      0.99696118
   2147000  -338.75369      46.857533     -385.61123      249.51954      819.58902      960.18531      0.99696118
   2148000  -333.22429      48.647374     -381.87166      259.05057     -2361.0883      960.18531      0.99696118
   2149000  -325.07083      58.541025     -383.61186      311.73493      3626.7401      960.18531      0.99696118
   2150000  -331.74357      60.59097      -392.33454      322.65103      1182.5936      960.18531      0.99696118
   2151000  -336.98252      46.795248     -383.77777      249.18787     -2933.8647      960.18531      0.99696118
   2152000  -336.58114      49.956347     -386.53749      266.02094      199.69741      960.18531      0.99696118
   2153000  -327.666        46.851876     -374.51788      249.48942     -6449.3708      960.18531      0.99696118
   2154000  -342.46894      53.770144     -396.23908      286.32967     -2047.4994      960.18531      0.99696118
   2155000  -324.08118      59.095487     -383.17667      314.68748     -55.10462       960.18531      0.99696118
   2156000  -331.50562      58.368144     -389.87376      310.81433      585.4844       960.18531      0.99696118
   2157000  -325.65566      55.250717     -380.90638      294.21382      790.07734      960.18531      0.99696118
   2158000  -347.84381      45.099389     -392.9432       240.15731     -1395.7379      960.18531      0.99696118
   2159000  -340.32048      59.430458     -399.75094      316.47122     -4954.0058      960.18531      0.99696118
   2160000  -334.25798      54.341541     -388.59952      289.3724       2934.0522      960.18531      0.99696118
   2161000  -334.14771      58.052457     -392.20016      309.13327      5406.7975      960.18531      0.99696118
   2162000  -337.74239      59.493273     -397.23566      316.80572      320.89974      960.18531      0.99696118
   2163000  -341.23019      56.614642     -397.84483      301.47681     -3710.533       960.18531      0.99696118
   2164000  -320.00253      62.83391      -382.83644      334.59484     -2962.9796      960.18531      0.99696118
   2165000  -336.49504      57.240109     -393.73515      304.80747     -3398.8174      960.18531      0.99696118
   2166000  -306.64496      68.410182     -375.05514      364.28886     -4787.7452      960.18531      0.99696118
   2167000  -323.39547      58.929879     -382.32535      313.80561     -2315.1845      960.18531      0.99696118
   2168000  -319.90196      52.187013     -372.08897      277.89939     -1796.3276      960.18531      0.99696118
   2169000  -315.57442      56.007851     -371.58227      298.24561     -2693.0797      960.18531      0.99696118
   2170000  -323.00228      55.818252     -378.82053      297.23598     -435.27818      960.18531      0.99696118
   2171000  -347.93496      51.176264     -399.11123      272.51708      65.468096      960.18531      0.99696118
   2172000  -338.77887      62.984689     -401.76356      335.39775     -2559.0894      960.18531      0.99696118
   2173000  -340.47191      54.102246     -394.57415      288.09813     -2267.3751      960.18531      0.99696118
   2174000  -321.49294      53.652809     -375.14574      285.70485     -116.75689      960.18531      0.99696118
   2175000  -328.19348      58.403913     -386.5974       311.0048       3953.0139      960.18531      0.99696118
   2176000  -315.86164      62.137328     -377.99896      330.88549     -1062.3733      960.18531      0.99696118
   2177000  -337.24851      54.461396     -391.70991      290.01063      1697.115       960.18531      0.99696118
   2178000  -336.05785      48.118361     -384.17621      256.23354      3730.875       960.18531      0.99696118
   2179000  -334.21718      51.195712     -385.41289      272.62064     -3383.6157      960.18531      0.99696118
   2180000  -337.37481      61.806099     -399.18091      329.12167     -1056.2162      960.18531      0.99696118
   2181000  -341.52289      60.13432      -401.65721      320.21934      1719.2443      960.18531      0.99696118
   2182000  -341.06513      51.728326     -392.79346      275.45685     -1574.5661      960.18531      0.99696118
   2183000  -346.11708      51.929146     -398.04623      276.52623     -2086.9439      960.18531      0.99696118
   2184000  -348.58943      47.551429     -396.14086      253.21459     -1907.0773      960.18531      0.99696118
   2185000  -338.03509      59.02522      -397.06031      314.31331     -2910.8846      960.18531      0.99696118
   2186000  -352.26803      58.513563     -410.78159      311.5887       3354.3994      960.18531      0.99696118
   2187000  -326.96071      66.653947     -393.61465      354.93679     -1367.0467      960.18531      0.99696118
   2188000  -310.92333      58.199954     -369.12328      309.9187      -1485.7864      960.18531      0.99696118
   2189000  -333.8498       60.643608     -394.49341      322.93133     -200.53398      960.18531      0.99696118
   2190000  -344.05567      47.537603     -391.59328      253.14096      639.10697      960.18531      0.99696118
   2191000  -346.07716      49.891948     -395.96911      265.67801      1611.9054      960.18531      0.99696118
   2192000  -333.25748      57.744427     -391.0019       307.49299      1087.6455      960.18531      0.99696118
   2193000  -350.44527      51.671575     -402.11685      275.15464     -3448.0353      960.18531      0.99696118
   2194000  -321.07798      54.168441     -375.24642      288.45063     -723.95223      960.18531      0.99696118
   2195000  -329.16197      49.60241      -378.76438      264.1362       366.46552      960.18531      0.99696118
   2196000  -324.39241      60.069388     -384.46179      319.87357     -1051.8217      960.18531      0.99696118
   2197000  -325.0489       57.354311     -382.40321      305.4156      -1732.2824      960.18531      0.99696118
   2198000  -339.80135      62.28174      -402.08309      331.65449     -652.31961      960.18531      0.99696118
   2199000  -332.84712      50.382296     -383.22941      268.28915     -45.654312      960.18531      0.99696118
   2200000  -338.6919       51.026674     -389.71858      271.7205      -738.5271       960.18531      0.99696118
   2201000  -326.14816      70.990194     -397.13836      378.0276      -191.89895      960.18531      0.99696118
   2202000  -327.64797      58.608415     -386.25639      312.09379     -1239.3254      960.18531      0.99696118
   2203000  -333.97226      57.250372     -391.22263      304.86212     -1372.6288      960.18531      0.99696118
   2204000  -353.72341      49.507649     -403.23106      263.63159      657.98814      960.18531      0.99696118
   2205000  -327.09908      58.284756     -385.38383      310.37028     -3036.4381      960.18531      0.99696118
   2206000  -343.9081       56.070313     -399.97841      298.57822     -1025.1127      960.18531      0.99696118
   2207000  -343.58236      58.382661     -401.96502      310.89163      373.74509      960.18531      0.99696118
   2208000  -329.24874      59.119572     -388.36832      314.81573      2749.2202      960.18531      0.99696118
   2209000  -345.80036      60.725805     -406.52617      323.36903     -3205.8867      960.18531      0.99696118
   2210000  -335.40034      62.280323     -397.68066      331.64695     -3324.6302      960.18531      0.99696118
   2211000  -336.48184      58.626759     -395.1086       312.19147      1225.4415      960.18531      0.99696118
   2212000  -322.68361      67.038475     -389.72209      356.98443      1682.4894      960.18531      0.99696118
   2213000  -334.94808      65.722798     -400.67088      349.97836      3309.8917      960.18531      0.99696118
   2214000  -340.79424      50.851009     -391.64524      270.78507      999.04222      960.18531      0.99696118
   2215000  -327.07046      52.498109     -379.56857      279.55599     -841.27428      960.18531      0.99696118
   2216000  -333.91028      52.646951     -386.55723      280.34859     -518.01623      960.18531      0.99696118
   2217000  -347.48507      52.279096     -399.76416      278.38974      2779.0281      960.18531      0.99696118
   2218000  -326.92442      56.892334     -383.81675      302.95554     -3975.1582      960.18531      0.99696118
   2219000  -321.16534      51.922936     -373.08828      276.49316     -1282.4792      960.18531      0.99696118
   2220000  -331.20361      57.30948      -388.51309      305.17687     -2224.1624      960.18531      0.99696118
   2221000  -338.69326      55.089696     -393.78296      293.35637     -2847.5193      960.18531      0.99696118
   2222000  -337.24509      64.680602     -401.92569      344.4286       3975.6628      960.18531      0.99696118
   2223000  -350.26813      47.269918     -397.53805      251.71552      189.51867      960.18531      0.99696118
   2224000  -314.28026      70.584522     -384.86479      375.86737      2315.7605      960.18531      0.99696118
   2225000  -341.40858      57.779427     -399.18801      307.67937      1821.1945      960.18531      0.99696118
   2226000  -323.13104      53.474008     -376.60505      284.75272      2219.3736      960.18531      0.99696118
   2227000  -334.88452      62.56568      -397.4502       333.16649      906.18313      960.18531      0.99696118
   2228000  -348.8343       51.059608     -399.89391      271.89588      140.04372      960.18531      0.99696118
   2229000  -341.8694       54.461724     -396.33113      290.01238     -2007.9997      960.18531      0.99696118
   2230000  -335.21499      57.559103     -392.77409      306.50613     -156.23237      960.18531      0.99696118
   2231000  -341.17602      56.245855     -397.42187      299.513        6145.3436      960.18531      0.99696118
   2232000  -352.51539      54.669093     -407.18448      291.11663     -38.744619      960.18531      0.99696118
   2233000  -332.76856      58.526294     -391.29485      311.65649      302.29836      960.18531      0.99696118
   2234000  -346.483        52.69763      -399.18063      280.61846     -2854.0359      960.18531      0.99696118
   2235000  -319.40451      54.829996     -374.23451      291.97345     -3649.443       960.18531      0.99696118
   2236000  -319.85358      62.43829      -382.29187      332.48813     -1585.7589      960.18531      0.99696118
   2237000  -335.67188      57.306763     -392.97864      305.1624      -3550.2087      960.18531      0.99696118
   2238000  -330.63843      51.931576     -382.57         276.53917      289.42692      960.18531      0.99696118
   2239000  -343.46159      52.110346     -395.57194      277.49113      711.1718       960.18531      0.99696118
   2240000  -338.5422       49.377968     -387.92017      262.94103     -868.20376      960.18531      0.99696118
   2241000  -330.20524      46.029603     -376.23485      245.11076     -1739.2571      960.18531      0.99696118
   2242000  -326.92871      63.848733     -390.77744      339.99884      369.08091      960.18531      0.99696118
   2243000  -322.76504      54.40767      -377.17271      289.72453      1926.3101      960.18531      0.99696118
   2244000  -328.3165       57.468558     -385.78506      306.02397      77.249189      960.18531      0.99696118
   2245000  -356.65564      46.679444     -403.33508      248.57121     -1987.1838      960.18531      0.99696118
   2246000  -343.70961      51.202481     -394.91209      272.65668     -1999.6962      960.18531      0.99696118
   2247000  -347.47025      53.340979     -400.81123      284.04434     -624.31081      960.18531      0.99696118
   2248000  -331.61098      62.880417     -394.4914       334.84249     -2336.5554      960.18531      0.99696118
   2249000  -346.70941      45.252619     -391.96203      240.97327     -2294.7873      960.18531      0.99696118
   2250000  -340.2194       53.74134      -393.96074      286.17628      200.62024      960.18531      0.99696118
   2251000  -308.45588      66.243644     -374.69952      352.7519      -2683.6537      960.18531      0.99696118
   2252000  -338.01306      60.55613      -398.56919      322.4655      -3063.3225      960.18531      0.99696118
   2253000  -315.53596      67.083681     -382.61964      357.22515     -2481.9047      960.18531      0.99696118
   2254000  -327.90943      55.554027     -383.46346      295.82897     -336.27549      960.18531      0.99696118
   2255000  -314.52501      64.844627     -379.36964      345.30204     -547.00111      960.18531      0.99696118
   2256000  -335.80251      53.596441     -389.39895      285.40469     -1066.012       960.18531      0.99696118
   2257000  -343.96996      58.59466      -402.56462      312.02054      254.26379      960.18531      0.99696118
   2258000  -315.92359      62.929114     -378.8527       335.10181     -127.22296      960.18531      0.99696118
   2259000  -327.62078      55.442392     -383.06317      295.2345      -505.37709      960.18531      0.99696118
   2260000  -340.24539      57.615104     -397.86049      306.80434      1457.6638      960.18531      0.99696118
   2261000  -331.53345      57.846535     -389.37998      308.03672      1607.8376      960.18531      0.99696118
   2262000  -310.86691      60.71742      -371.58433      323.32438      2797.7268      960.18531      0.99696118
   2263000  -350.91157      51.714648     -402.62621      275.38401     -2574.5188      960.18531      0.99696118
   2264000  -334.58728      56.526621     -391.1139       301.0081       4471.9808      960.18531      0.99696118
   2265000  -357.90827      44.366151     -402.27442      236.25276      1517.1148      960.18531      0.99696118
   2266000  -327.56339      56.769516     -384.3329       302.30152     -435.9327       960.18531      0.99696118
   2267000  -342.02389      55.727513     -397.7514       296.75279      2052.579       960.18531      0.99696118
   2268000  -346.3234       53.614245     -399.93765      285.4995      -538.14969      960.18531      0.99696118
   2269000  -352.66291      53.662574     -406.32549      285.75685      160.05102      960.18531      0.99696118
   2270000  -328.79913      40.718841     -369.51797      216.83059      1627.6609      960.18531      0.99696118
   2271000  -323.65405      60.430054     -384.08411      321.79414     -2591.3636      960.18531      0.99696118
   2272000  -322.25884      62.092605     -384.35145      330.64734      2310.7701      960.18531      0.99696118
   2273000  -344.97998      51.548608     -396.52859      274.49984     -2748.5538      960.18531      0.99696118
   2274000  -332.017        50.300561     -382.31756      267.8539      -295.09467      960.18531      0.99696118
   2275000  -316.25547      61.198196     -377.45367      325.88455     -1953.4453      960.18531      0.99696118
   2276000  -330.72178      58.121218     -388.84299      309.49943      154.33505      960.18531      0.99696118
   2277000  -337.48458      53.565782     -391.05036      285.24142      1532.8205      960.18531      0.99696118
   2278000  -339.07082      59.694651     -398.76547      317.87807     -2144.7558      960.18531      0.99696118
   2279000  -337.31913      54.610003     -391.92914      290.80197     -1393.7857      960.18531      0.99696118
   2280000  -352.7604       47.149161     -399.90956      251.07248     -3368.0081      960.18531      0.99696118
   2281000  -344.53349      55.398977     -399.93247      295.00331     -4806.6813      960.18531      0.99696118
   2282000  -345.97793      47.827439     -393.80537      254.68436     -2260.5518      960.18531      0.99696118
   2283000  -321.07484      62.006468     -383.08131      330.18865     -3029.1086      960.18531      0.99696118
   2284000  -347.46105      53.555189     -401.01624      285.18502     -1052.5405      960.18531      0.99696118
   2285000  -327.59666      54.736767     -382.33343      291.477       -4775.1993      960.18531      0.99696118
   2286000  -344.08171      58.836133     -402.91784      313.3064       14.538085      960.18531      0.99696118
   2287000  -328.37333      65.431005     -393.80434      348.42455      743.02242      960.18531      0.99696118
   2288000  -339.23529      47.195742     -386.43103      251.32053     -5272.4315      960.18531      0.99696118
   2289000  -334.60949      57.942968     -392.55245      308.55024     -4883.4694      960.18531      0.99696118
   2290000  -328.9694       57.0516       -386.021        303.80364     -750.96908      960.18531      0.99696118
   2291000  -323.7251       59.206147     -382.93124      315.27675     -2803.3562      960.18531      0.99696118
   2292000  -341.42022      45.898106     -387.31832      244.41053     -614.75475      960.18531      0.99696118
   2293000  -339.55456      50.702823     -390.25738      269.99598     -1475.286       960.18531      0.99696118
   2294000  -334.90885      64.814383     -399.72323      345.14099     -2697.9322      960.18531      0.99696118
   2295000  -319.11956      53.236973     -372.35654      283.4905       1320.3313      960.18531      0.99696118
   2296000  -322.11928      54.216357     -376.33564      288.70578      2716.3678      960.18531      0.99696118
   2297000  -331.79176      61.693792     -393.48555      328.52363      6859.8381      960.18531      0.99696118
   2298000  -357.24494      41.843654     -399.08859      222.8203       92.921285      960.18531      0.99696118
   2299000  -320.25227      57.893318     -378.14559      308.28585      3476.5101      960.18531      0.99696118
   2300000  -340.70936      53.247777     -393.95714      283.54803      1678.1657      960.18531      0.99696118
   2301000  -339.05015      50.580328     -389.63048      269.34368      524.5153       960.18531      0.99696118
   2302000  -312.80489      56.946069     -369.75096      303.24168     -1016.9382      960.18531      0.99696118
   2303000  -318.43066      61.935635     -380.3663       329.81146     -2288.4938      960.18531      0.99696118
   2304000  -333.22607      57.989934     -391.216        308.80033     -1892.4198      960.18531      0.99696118
   2305000  -331.00744      48.290166     -379.2976       257.14841     -1471.5865      960.18531      0.99696118
   2306000  -326.34         66.472297     -392.8123       353.9695       875.19786      960.18531      0.99696118
   2307000  -338.13769      51.389049     -389.52674      273.65017     -2930.8814      960.18531      0.99696118
   2308000  -331.7509       61.748964     -393.49987      328.81742      5854.8611      960.18531      0.99696118
   2309000  -344.52951      46.837001     -391.36651      249.41021     -911.52752      960.18531      0.99696118
   2310000  -357.83356      49.54358      -407.37714      263.82292      1048.793       960.18531      0.99696118
   2311000  -337.86903      56.935102     -394.80413      303.18328     -718.11819      960.18531      0.99696118
   2312000  -321.0721       64.357527     -385.42963      342.7082       2110.431       960.18531      0.99696118
   2313000  -335.5434       63.465946     -399.00935      337.96047      572.92596      960.18531      0.99696118
   2314000  -336.3012       50.897845     -387.19905      271.03448      3774.5907      960.18531      0.99696118
   2315000  -342.29609      54.440711     -396.7368       289.90048     -1650.1756      960.18531      0.99696118
   2316000  -344.95557      62.791983     -407.74755      334.37157     -975.34162      960.18531      0.99696118
   2317000  -357.80568      45.954308     -403.75999      244.70981     -2113.0534      960.18531      0.99696118
   2318000  -348.58548      66.234914     -414.82039      352.70541      1650.6551      960.18531      0.99696118
   2319000  -355.00709      50.430422     -405.43752      268.54542     -2822.9983      960.18531      0.99696118
   2320000  -344.10925      55.034011     -399.14326      293.05985      300.54712      960.18531      0.99696118
   2321000  -359.28763      51.140954     -410.42859      272.32905      1521.5559      960.18531      0.99696118
   2322000  -346.11557      56.002391     -402.11796      298.21653      1074.6883      960.18531      0.99696118
   2323000  -330.58601      68.788919     -399.37493      366.30566      226.01695      960.18531      0.99696118
   2324000  -318.47571      63.761382     -382.23709      339.53369     -175.12938      960.18531      0.99696118
   2325000  -331.7016       60.918297     -392.61989      324.39407      3716.7196      960.18531      0.99696118
   2326000  -343.50823      55.13548      -398.64371      293.60017      2422.6489      960.18531      0.99696118
   2327000  -335.73076      67.000403     -402.73117      356.7817       1339.5596      960.18531      0.99696118
   2328000  -322.5699       57.431923     -380.00182      305.82889      1164.9091      960.18531      0.99696118
   2329000  -323.44249      57.974276     -381.41676      308.71696     -3414.7477      960.18531      0.99696118
   2330000  -335.51866      59.697709     -395.21636      317.89435      1409.587       960.18531      0.99696118
   2331000  -322.50807      69.808496     -392.31656      371.73498     -1327.0054      960.18531      0.99696118
   2332000  -334.10817      54.071978     -388.18015      287.93695     -4526.1252      960.18531      0.99696118
   2333000  -327.11965      54.768795     -381.88844      291.64755     -4481.6466      960.18531      0.99696118
   2334000  -343.35074      55.407103     -398.75784      295.04658      154.61482      960.18531      0.99696118
   2335000  -317.5397       60.12418      -377.66388      320.16534      664.38003      960.18531      0.99696118
   2336000  -317.43896      57.223026     -374.66198      304.7165      -1852.542       960.18531      0.99696118
   2337000  -323.48219      57.69253      -381.17472      307.21664     -729.99602      960.18531      0.99696118
   2338000  -334.11823      58.479339     -392.59757      311.40645     -1817.8025      960.18531      0.99696118
   2339000  -317.20651      57.125158     -374.33167      304.19534      508.31318      960.18531      0.99696118
   2340000  -332.48909      59.078052     -391.56714      314.59464     -2264.66        960.18531      0.99696118
   2341000  -330.45861      55.028179     -385.48679      293.02879     -1474.3561      960.18531      0.99696118
   2342000  -350.83678      52.845904     -403.68268      281.40803      1300.6263      960.18531      0.99696118
   2343000  -314.00205      65.475225     -379.47728      348.66002     -2709.6729      960.18531      0.99696118
   2344000  -336.39109      57.730836     -394.12192      307.42062      1964.8124      960.18531      0.99696118
   2345000  -322.40139      56.909939     -379.31133      303.04929     -2267.809       960.18531      0.99696118
   2346000  -329.86927      60.198031     -390.0673       320.5586       2839.444       960.18531      0.99696118
   2347000  -316.88781      64.187883     -381.07569      341.80484      604.44438      960.18531      0.99696118
   2348000  -328.05182      58.789452     -386.84128      313.05782      1283.5762      960.18531      0.99696118
   2349000  -342.17013      58.46242      -400.63255      311.31636     -461.99741      960.18531      0.99696118
   2350000  -349.02884      54.220019     -403.24885      288.72528     -1241.7554      960.18531      0.99696118
   2351000  -328.97799      56.906609     -385.8846       303.03156     -3574.4053      960.18531      0.99696118
   2352000  -327.04531      53.866007     -380.91132      286.84014     -548.26944      960.18531      0.99696118
   2353000  -326.07841      58.890398     -384.96881      313.59537     -2352.9648      960.18531      0.99696118
   2354000  -327.24745      66.306243     -393.55369      353.08525      519.63407      960.18531      0.99696118
   2355000  -330.41156      56.07353      -386.48509      298.59535     -2829.5745      960.18531      0.99696118
   2356000  -343.15535      50.321881     -393.47723      267.96743      1330.1553      960.18531      0.99696118
   2357000  -343.27418      63.504815     -406.779        338.16745      314.56659      960.18531      0.99696118
   2358000  -339.98512      54.201477     -394.18659      288.62654     -1778.202       960.18531      0.99696118
   2359000  -335.37325      55.717316     -391.09056      296.69849      1070.6931      960.18531      0.99696118
   2360000  -360.31926      42.571465     -402.89072      226.69594      903.10161      960.18531      0.99696118
   2361000  -348.96744      58.447519     -407.41496      311.23701      1439.1046      960.18531      0.99696118
   2362000  -354.95627      59.183926     -414.14019      315.15842     -1874.8167      960.18531      0.99696118
   2363000  -351.18578      55.965813     -407.15159      298.02175     -1300.7335      960.18531      0.99696118
   2364000  -356.61191      52.349096     -408.96101      278.76249     -144.88035      960.18531      0.99696118
   2365000  -353.29532      53.902696     -407.19801      287.03551     -925.7725       960.18531      0.99696118
   2366000  -349.05311      53.851895     -402.90501      286.76499      3298.563       960.18531      0.99696118
   2367000  -348.2834       55.174596     -403.45799      293.80847     -1475.9659      960.18531      0.99696118
   2368000  -346.83139      43.011646     -389.84304      229.03993      687.52538      960.18531      0.99696118
   2369000  -354.22596      48.957689     -403.18365      260.70302     -676.1389       960.18531      0.99696118
   2370000  -339.87662      63.377756     -403.25437      337.49085      2950.045       960.18531      0.99696118
   2371000  -324.13548      60.815761     -384.95124      323.84806     -2194.1075      960.18531      0.99696118
   2372000  -334.09974      48.926767     -383.02651      260.53836     -1785.1237      960.18531      0.99696118
   2373000  -327.32786      57.434629     -384.76248      305.8433       958.79415      960.18531      0.99696118
   2374000  -357.73461      44.575423     -402.31003      237.36716     -1888.415       960.18531      0.99696118
   2375000  -329.47417      64.445809     -393.91998      343.17831      2364.8266      960.18531      0.99696118
   2376000  -332.77532      50.685167     -383.46049      269.90196      2587.3121      960.18531      0.99696118
   2377000  -337.20946      49.138599     -386.34806      261.66638     -1023.9571      960.18531      0.99696118
   2378000  -343.65356      47.66254      -391.3161       253.80626     -5103.1555      960.18531      0.99696118
   2379000  -325.04169      58.156369     -383.19806      309.68661      2015.7898      960.18531      0.99696118
   2380000  -344.95141      54.438418     -399.38983      289.88827      271.89882      960.18531      0.99696118
   2381000  -335.08898      58.184844     -393.27382      309.83825     -1300.6639      960.18531      0.99696118
   2382000  -328.58423      58.383945     -386.96817      310.89847      890.16247      960.18531      0.99696118
   2383000  -310.50605      58.503456     -369.00951      311.53487     -3935.5083      960.18531      0.99696118
   2384000  -319.84356      64.47009      -384.31365      343.30761     -1396.5556      960.18531      0.99696118
   2385000  -318.60452      53.770796     -372.37531      286.33314     -945.61969      960.18531      0.99696118
   2386000  -313.54841      68.062355     -381.61077      362.43666     -3678.8242      960.18531      0.99696118
   2387000  -328.44322      50.860904     -379.30413      270.83777      457.35253      960.18531      0.99696118
   2388000  -332.1477       48.895255     -381.04296      260.37055      150.28853      960.18531      0.99696118
   2389000  -332.1144       58.253493     -390.3679       310.2038      -5298.4897      960.18531      0.99696118
   2390000  -342.21989      48.31609      -390.53598      257.28646     -4503.7014      960.18531      0.99696118
   2391000  -334.55918      51.78518      -386.34436      275.7596      -4865.4143      960.18531      0.99696118
   2392000  -330.93196      55.829097     -386.76106      297.29373      302.38954      960.18531      0.99696118
   2393000  -328.72378      60.190886     -388.91467      320.52056     -2138.1933      960.18531      0.99696118
   2394000  -346.90823      53.989758     -400.89799      287.49913     -1713.1728      960.18531      0.99696118
   2395000  -342.5059       54.54362      -397.04952      290.44848      1218.7578      960.18531      0.99696118
   2396000  -328.36813      52.337989     -380.70612      278.70335     -3791.9522      960.18531      0.99696118
   2397000  -323.81047      57.260079     -381.07055      304.91381     -2471.4391      960.18531      0.99696118
   2398000  -337.83246      57.70154      -395.534        307.26462     -814.61527      960.18531      0.99696118
   2399000  -340.0852       54.434829     -394.52002      289.86916     -2004.5557      960.18531      0.99696118
   2400000  -329.25288      69.182885     -398.43576      368.40356     -4307.8405      960.18531      0.99696118
   2401000  -336.2912       53.215318     -389.50652      283.37518     -185.59341      960.18531      0.99696118
   2402000  -342.12941      60.177881     -402.30729      320.4513      -1561.9422      960.18531      0.99696118
   2403000  -327.19807      56.209691     -383.40776      299.32042      1419.9694      960.18531      0.99696118
   2404000  -332.43015      56.81545      -389.2456       302.54613     -2757.4844      960.18531      0.99696118
   2405000  -314.82793      59.824707     -374.65264      318.57063      926.10052      960.18531      0.99696118
   2406000  -327.52435      49.81236      -377.33671      265.2542      -2095.3171      960.18531      0.99696118
   2407000  -323.22899      45.626771     -368.85576      242.96565      1241.114       960.18531      0.99696118
   2408000  -310.54277      58.370184     -368.91296      310.82519     -2088.9621      960.18531      0.99696118
   2409000  -321.5165       56.147077     -377.66358      298.987       -1732.59        960.18531      0.99696118
   2410000  -328.98558      60.398552     -389.38414      321.62639     -2847.4793      960.18531      0.99696118
   2411000  -327.4191       49.416554     -376.83565      263.14651      1127.59        960.18531      0.99696118
   2412000  -324.43944      53.250514     -377.68995      283.5626      -1230.8601      960.18531      0.99696118
   2413000  -309.03959      56.257669     -365.29726      299.5759       732.39053      960.18531      0.99696118
   2414000  -342.79767      47.732845     -390.53051      254.18064      1885.5796      960.18531      0.99696118
   2415000  -342.55766      46.497873     -389.05554      247.60433     -2114.3672      960.18531      0.99696118
   2416000  -323.56341      51.836458     -375.39987      276.03266     -3365.2537      960.18531      0.99696118
   2417000  -341.82054      51.516316     -393.33685      274.32788     -4102.8976      960.18531      0.99696118
   2418000  -326.38339      54.464591     -380.84798      290.02765     -3551.42        960.18531      0.99696118
   2419000  -330.54107      59.004906     -389.54597      314.20513     -2516.7201      960.18531      0.99696118
   2420000  -346.92245      51.686286     -398.60873      275.23298     -1032.5603      960.18531      0.99696118
   2421000  -327.73946      51.332177     -379.07163      273.34733     -772.4851       960.18531      0.99696118
   2422000  -330.18911      59.256486     -389.4456       315.54481     -564.05649      960.18531      0.99696118
   2423000  -339.4888       50.384042     -389.87284      268.29844      4088.2545      960.18531      0.99696118
   2424000  -327.51696      54.024492     -381.54145      287.68409     -1639.7641      960.18531      0.99696118
   2425000  -339.24035      51.731824     -390.97217      275.47547     -6844.7181      960.18531      0.99696118
   2426000  -308.18318      58.746281     -366.92946      312.82793      2113.3014      960.18531      0.99696118
   2427000  -342.07889      44.875099     -386.95399      238.96295     -1326.9651      960.18531      0.99696118
   2428000  -328.5223       57.726319     -386.24862      307.39657     -5611.0472      960.18531      0.99696118
   2429000  -348.6094       46.405408     -395.01481      247.11195      647.01327      960.18531      0.99696118
   2430000  -312.76595      58.485289     -371.25124      311.43814     -1306.3213      960.18531      0.99696118
   2431000  -337.25214      51.96173      -389.21387      276.69974      1019.6878      960.18531      0.99696118
   2432000  -309.62758      67.31921      -376.94679      358.47937     -2135.6061      960.18531      0.99696118
   2433000  -326.16742      59.368637     -385.53606      316.14202     -1580.2539      960.18531      0.99696118
   2434000  -320.82072      60.702587     -381.52331      323.2454      -163.43598      960.18531      0.99696118
   2435000  -353.32182      54.376956     -407.69877      289.56098     -3163.6492      960.18531      0.99696118
   2436000  -315.80307      66.179621     -381.98269      352.41097     -2950.1704      960.18531      0.99696118
   2437000  -334.63921      54.958252     -389.59746      292.65642     -1668.6301      960.18531      0.99696118
   2438000  -338.88104      56.260216     -395.14126      299.58947     -3845.0234      960.18531      0.99696118
   2439000  -321.04259      63.146007     -384.1886       336.25677      2465.568       960.18531      0.99696118
   2440000  -346.8462       47.284396     -394.13059      251.79262     -1879.7286      960.18531      0.99696118
   2441000  -349.6557       49.050634     -398.70633      261.19796     -1865.8087      960.18531      0.99696118
   2442000  -339.981        54.03874      -394.01974      287.75996      160.92124      960.18531      0.99696118
   2443000  -334.42022      53.986045     -388.40626      287.47936     -184.4124       960.18531      0.99696118
   2444000  -331.14176      51.597369     -382.73913      274.75949     -2816.5194      960.18531      0.99696118
   2445000  -337.21048      50.663062     -387.87355      269.78424      386.9429       960.18531      0.99696118
   2446000  -335.8396       61.572034     -397.41164      327.87526      253.84367      960.18531      0.99696118
   2447000  -346.52617      54.862885     -401.38906      292.14859      1568.0225      960.18531      0.99696118
   2448000  -340.27658      54.545619     -394.8222       290.45912      104.84068      960.18531      0.99696118
   2449000  -329.89614      59.598266     -389.4944       317.36481      162.13849      960.18531      0.99696118
   2450000  -323.94518      62.389467     -386.33465      332.22815     -2816.3035      960.18531      0.99696118
   2451000  -333.52526      58.497885     -392.02314      311.50521      472.5524       960.18531      0.99696118
   2452000  -342.68349      55.580302     -398.26379      295.96888     -938.56104      960.18531      0.99696118
   2453000  -323.59972      61.403479     -385.0032       326.97769      1338.8334      960.18531      0.99696118
   2454000  -329.1102       57.146801     -386.25701      304.3106       1115.2064      960.18531      0.99696118
   2455000  -334.90741      55.214441     -390.12185      294.02065     -3937.6764      960.18531      0.99696118
   2456000  -336.43157      55.424244     -391.85582      295.13786     -2288.5407      960.18531      0.99696118
   2457000  -333.12243      53.528356     -386.65079      285.04213      1411.9772      960.18531      0.99696118
   2458000  -331.48854      53.157572     -384.64612      283.06768     -174.77414      960.18531      0.99696118
   2459000  -344.45807      51.114254     -395.57233      272.18687     -418.51103      960.18531      0.99696118
   2460000  -335.74583      62.317008     -398.06284      331.8423       431.53268      960.18531      0.99696118
   2461000  -356.37678      51.621897     -407.99868      274.89011      1294.6803      960.18531      0.99696118
   2462000  -345.29972      54.288637     -399.58835      289.09068      751.40556      960.18531      0.99696118
   2463000  -323.22353      60.410423     -383.63396      321.6896       772.57492      960.18531      0.99696118
   2464000  -332.03203      64.007834     -396.03987      340.84606     -2341.9665      960.18531      0.99696118
   2465000  -348.82471      50.666077     -399.49079      269.8003       1275.6211      960.18531      0.99696118
   2466000  -345.59439      50.267897     -395.86229      267.67997      249.04188      960.18531      0.99696118
   2467000  -341.04424      61.261031     -402.30527      326.21915     -147.95018      960.18531      0.99696118
   2468000  -342.49308      57.382861     -399.87594      305.56763      3742.5972      960.18531      0.99696118
   2469000  -351.6081       52.224154     -403.83226      278.09716     -4636.5891      960.18531      0.99696118
   2470000  -347.86047      55.805612     -403.66608      297.16867      1595.3862      960.18531      0.99696118
   2471000  -334.27287      62.53157      -396.80444      332.98485     -1200.497       960.18531      0.99696118
   2472000  -357.92947      55.934324     -413.8638       297.85407     -30.37163       960.18531      0.99696118
   2473000  -334.57685      52.63404      -387.21089      280.27984     -2291.0984      960.18531      0.99696118
   2474000  -318.65231      68.750131     -387.40245      366.09911      1191.6168      960.18531      0.99696118
   2475000  -348.15328      54.405586     -402.55887      289.71344     -3154.2341      960.18531      0.99696118
   2476000  -350.63554      49.196558     -399.8321       261.97501     -1547.5471      960.18531      0.99696118
   2477000  -350.61922      52.943268     -403.56249      281.9265      -3271.8685      960.18531      0.99696118
   2478000  -341.05572      48.284954     -389.34067      257.12066      982.17626      960.18531      0.99696118
   2479000  -328.85108      58.259908     -387.11099      310.23796     -4168.1372      960.18531      0.99696118
   2480000  -336.73933      55.094491     -391.83382      293.3819      -2187.7274      960.18531      0.99696118
   2481000  -326.18366      62.038607     -388.22226      330.35979     -954.36984      960.18531      0.99696118
   2482000  -326.80115      50.753205     -377.55435      270.26426      2051.0938      960.18531      0.99696118
   2483000  -314.31317      57.331591     -371.64476      305.29462     -2302.3449      960.18531      0.99696118
   2484000  -331.86906      56.709899     -388.57896      301.98406     -206.16319      960.18531      0.99696118
   2485000  -346.39909      44.283365     -390.68245      235.81192     -1769.9042      960.18531      0.99696118
   2486000  -328.80489      57.555773     -386.36067      306.4884      -1092.6106      960.18531      0.99696118
   2487000  -328.41612      58.783315     -387.19943      313.02514      3189.769       960.18531      0.99696118
   2488000  -345.15131      59.523593     -404.6749       316.96718      387.493        960.18531      0.99696118
   2489000  -332.91193      59.83562      -392.74755      318.62874     -1094.3613      960.18531      0.99696118
   2490000  -359.17339      45.212282     -404.38567      240.75847      1226.8793      960.18531      0.99696118
   2491000  -328.59886      61.987218     -390.58607      330.08614      1001.207       960.18531      0.99696118
   2492000  -331.38285      64.227289     -395.61014      342.01467     -1573.9726      960.18531      0.99696118
   2493000  -332.60067      55.865828     -388.4665       297.48933     -4154.1655      960.18531      0.99696118
   2494000  -351.27839      46.718543     -397.99693      248.77941     -2543.7365      960.18531      0.99696118
   2495000  -329.71214      58.03461      -387.74675      309.03824      1085.0842      960.18531      0.99696118
   2496000  -350.85873      52.499671     -403.3584       279.56431     -2445.6411      960.18531      0.99696118
   2497000  -329.48692      58.552035     -388.03895      311.79356     -2357.5091      960.18531      0.99696118
   2498000  -338.75193      51.551055     -390.30298      274.51287     -2726.0697      960.18531      0.99696118
   2499000  -345.02807      46.320233     -391.34831      246.65838     -891.21407      960.18531      0.99696118
   2500000  -330.95749      53.324247     -384.28174      283.95524     -1955.1625      960.18531      0.99696118
   2501000  -324.73245      62.886969     -387.61942      334.87738      3998.3843      960.18531      0.99696118
   2502000  -330.29385      54.068957     -384.3628       287.92087     -848.91902      960.18531      0.99696118
   2503000  -336.73056      57.588257     -394.31882      306.66138     -2518.3177      960.18531      0.99696118
   2504000  -366.48         45.551523     -412.03152      242.56495     -232.19216      960.18531      0.99696118
   2505000  -339.36635      63.304652     -402.671        337.10157     -2371.3054      960.18531      0.99696118
   2506000  -336.65048      56.428039     -393.07852      300.48314      90.227935      960.18531      0.99696118
   2507000  -349.06722      54.352902     -403.42012      289.43289     -1215.3439      960.18531      0.99696118
   2508000  -332.7747       58.82791      -391.60261      313.26262     -3322.732       960.18531      0.99696118
   2509000  -325.56595      53.915104     -379.48105      287.10159     -3050.7231      960.18531      0.99696118
   2510000  -339.59839      55.934206     -395.5326       297.85344      1282.5614      960.18531      0.99696118
   2511000  -311.6979       53.181685     -364.87959      283.19608     -164.74178      960.18531      0.99696118
   2512000  -333.99085      55.766052     -389.7569       296.95801      1056.2622      960.18531      0.99696118
   2513000  -345.98647      44.727077     -390.71355      238.17472     -2681.8501      960.18531      0.99696118
   2514000  -321.20016      57.326825     -378.52699      305.26924     -297.9971       960.18531      0.99696118
   2515000  -353.87031      47.240533     -401.11084      251.55905     -2343.6294      960.18531      0.99696118
   2516000  -350.57146      53.83794      -404.4094       286.69069      2301.1982      960.18531      0.99696118
   2517000  -321.09796      60.31885      -381.41681      321.20197     -542.1333       960.18531      0.99696118
   2518000  -332.3743       64.071269     -396.44557      341.18386     -1743.5156      960.18531      0.99696118
   2519000  -348.72604      57.230519     -405.95656      304.7564      -2535.5545      960.18531      0.99696118
   2520000  -360.20151      49.963442     -410.16495      266.05872     -106.47422      960.18531      0.99696118
   2521000  -343.13373      50.909746     -394.04347      271.09785     -261.90414      960.18531      0.99696118
   2522000  -329.59266      65.081673     -394.67433      346.56433      614.16739      960.18531      0.99696118
   2523000  -328.6236       61.90706      -390.53066      329.6593      -983.68124      960.18531      0.99696118
   2524000  -338.78952      49.752825     -388.54235      264.93717      2019.1181      960.18531      0.99696118
   2525000  -345.28655      57.386606     -402.67316      305.58757     -620.16861      960.18531      0.99696118
   2526000  -325.17528      48.483205     -373.65849      258.17636     -2720.6007      960.18531      0.99696118
   2527000  -336.32581      60.570335     -396.89614      322.54115      112.44805      960.18531      0.99696118
   2528000  -332.28355      55.760854     -388.04441      296.93033     -3080.5725      960.18531      0.99696118
   2529000  -342.21722      53.614296     -395.83152      285.49977      836.52287      960.18531      0.99696118
   2530000  -346.86384      43.758379     -390.62222      233.01634     -459.0442       960.18531      0.99696118
   2531000  -322.26025      66.689134     -388.94938      355.12417     -566.67642      960.18531      0.99696118
   2532000  -338.79874      59.623735     -398.42247      317.50043      5235.1078      960.18531      0.99696118
   2533000  -328.34319      56.762202     -385.10539      302.26258      206.63413      960.18531      0.99696118
   2534000  -329.26204      57.969384     -387.23142      308.69091     -3239.5174      960.18531      0.99696118
   2535000  -313.06657      61.194408     -374.26097      325.86438      4133.925       960.18531      0.99696118
   2536000  -337.70385      49.475797     -387.17965      263.46198      354.26407      960.18531      0.99696118
   2537000  -337.87516      47.411921     -385.28708      252.4717      -313.65525      960.18531      0.99696118
   2538000  -327.94992      60.330526     -388.28044      321.26414     -3919.2066      960.18531      0.99696118
   2539000  -354.27359      47.542912     -401.81651      253.16924      2179.0427      960.18531      0.99696118
   2540000  -323.2776       62.096921     -385.37452      330.67032     -2436.2708      960.18531      0.99696118
   2541000  -323.60833      56.51534      -380.12367      300.94802     -2834.7166      960.18531      0.99696118
   2542000  -347.92962      59.408582     -407.3382       316.35473     -2716.383       960.18531      0.99696118
   2543000  -322.39127      63.732051     -386.12333      339.3775       847.42464      960.18531      0.99696118
   2544000  -335.21128      54.916203     -390.12748      292.43251     -3575.77        960.18531      0.99696118
   2545000  -348.19074      51.306983     -399.49772      273.21317     -409.82638      960.18531      0.99696118
   2546000  -330.15661      51.981167     -382.13778      276.80324     -1275.8377      960.18531      0.99696118
   2547000  -340.5107       51.627917     -392.13862      274.92216      4536.5911      960.18531      0.99696118
   2548000  -320.88682      65.042127     -385.92895      346.35374     -815.55594      960.18531      0.99696118
   2549000  -338.05544      54.58089      -392.63633      290.64694     -2356.8375      960.18531      0.99696118
   2550000  -336.62102      50.699904     -387.32093      269.98043     -116.56855      960.18531      0.99696118
   2551000  -334.5544       52.990465     -387.54486      282.17783     -2497.1474      960.18531      0.99696118
   2552000  -350.67338      49.880598     -400.55398      265.61757      267.26743      960.18531      0.99696118
   2553000  -337.63278      53.360278     -390.99306      284.14711     -441.78795      960.18531      0.99696118
   2554000  -323.94686      53.066698     -377.01356      282.58377     -353.55853      960.18531      0.99696118
   2555000  -331.92392      51.588079     -383.512        274.71002     -3569.7066      960.18531      0.99696118
   2556000  -323.2309       60.046609     -383.27751      319.75227     -906.05421      960.18531      0.99696118
   2557000  -334.27687      52.971791     -387.24866      282.07838     -1626.4262      960.18531      0.99696118
   2558000  -345.72668      56.551627     -402.2783       301.14125      2007.9059      960.18531      0.99696118
   2559000  -326.25926      71.233641     -397.4929       379.32398      1265.6176      960.18531      0.99696118
   2560000  -348.84361      59.617951     -408.46156      317.46964      2251.6774      960.18531      0.99696118
   2561000  -350.30883      54.82266      -405.13149      291.93439     -3910.2058      960.18531      0.99696118
   2562000  -336.68379      54.926233     -391.61003      292.48592      4552.7517      960.18531      0.99696118
   2563000  -341.17531      49.103091     -390.2784       261.47729     -2586.5989      960.18531      0.99696118
   2564000  -331.71406      51.121111     -382.83517      272.22339     -1155.4624      960.18531      0.99696118
   2565000  -338.55311      61.066532     -399.61964      325.18343     -2528.8701      960.18531      0.99696118
   2566000  -339.41492      52.607417     -392.02233      280.13806     -3402.0189      960.18531      0.99696118
   2567000  -321.96292      58.494626     -380.45755      311.48786     -4331.6078      960.18531      0.99696118
   2568000  -331.77772      54.651008     -386.42873      291.02033     -3268.5868      960.18531      0.99696118
   2569000  -341.67287      48.870761     -390.54363      260.24012      1627.9441      960.18531      0.99696118
   2570000  -336.30207      45.364885     -381.66696      241.57109      3253.3833      960.18531      0.99696118
   2571000  -325.52471      54.236062     -379.76077      288.81071     -4518.4877      960.18531      0.99696118
   2572000  -348.22516      54.103622     -402.32878      288.10546     -1491.4033      960.18531      0.99696118
   2573000  -335.76164      53.302224     -389.06387      283.83796     -461.513        960.18531      0.99696118
   2574000  -330.34411      53.985352     -384.32946      287.47566     -1475.7738      960.18531      0.99696118
   2575000  -324.31393      55.555101     -379.86903      295.83468     -62.051874      960.18531      0.99696118
   2576000  -346.25391      51.41536      -397.66927      273.79028      704.9052       960.18531      0.99696118
   2577000  -338.45121      49.182068     -387.63328      261.89785     -1081.2298      960.18531      0.99696118
   2578000  -324.3204       49.010566     -373.33097      260.98459      3252.2824      960.18531      0.99696118
   2579000  -336.67807      58.012738     -394.69081      308.92177     -4142.3763      960.18531      0.99696118
   2580000  -346.38264      48.950459     -395.3331       260.66452     -2951.6409      960.18531      0.99696118
   2581000  -325.8337       56.338667     -382.17236      300.00723     -2074.4146      960.18531      0.99696118
   2582000  -334.52693      52.822342     -387.34927      281.28256     -28.138663      960.18531      0.99696118
   2583000  -332.10606      51.279307     -383.38537      273.06579     -1764.7716      960.18531      0.99696118
   2584000  -318.75737      55.290842     -374.04821      294.42749     -461.36314      960.18531      0.99696118
   2585000  -336.29974      49.711173     -386.01091      264.71537     -1682.0365      960.18531      0.99696118
   2586000  -337.29012      57.507339     -394.79746      306.23048     -1765.2379      960.18531      0.99696118
   2587000  -334.48598      54.498774     -388.98475      290.20967     -2286.2064      960.18531      0.99696118
   2588000  -345.54413      54.487083     -400.03121      290.14741     -603.81748      960.18531      0.99696118
   2589000  -338.31657      56.925019     -395.24159      303.12959      1777.4266      960.18531      0.99696118
   2590000  -322.02263      58.337192     -380.35982      310.64951      447.60536      960.18531      0.99696118
   2591000  -343.58458      54.291836     -397.87642      289.10771     -667.49453      960.18531      0.99696118
   2592000  -321.20804      61.949894     -383.15793      329.88739     -1101.6976      960.18531      0.99696118
   2593000  -336.99776      44.831934     -381.82969      238.73309      2313.6322      960.18531      0.99696118
   2594000  -324.36199      58.799079     -383.16107      313.10909     -1147.3809      960.18531      0.99696118
   2595000  -354.87748      44.397675     -399.27516      236.42063      276.61592      960.18531      0.99696118
   2596000  -342.30882      48.917071     -391.22589      260.48672      308.942        960.18531      0.99696118
   2597000  -346.99667      55.66866      -402.66533      296.43939     -2146.7478      960.18531      0.99696118
   2598000  -326.04826      64.497488     -390.54575      343.4535      -909.92625      960.18531      0.99696118
   2599000  -323.16159      59.051409     -382.213        314.45276      1370.2877      960.18531      0.99696118
   2600000  -327.51348      52.790284     -380.30376      281.11184     -3354.0253      960.18531      0.99696118
   2601000  -312.83166      60.894832     -373.72649      324.26911      1407.6516      960.18531      0.99696118
   2602000  -336.64366      54.444584     -391.08825      289.92111     -804.36343      960.18531      0.99696118
   2603000  -323.75792      49.267431     -373.02535      262.35241      606.52296      960.18531      0.99696118
   2604000  -338.85533      57.469379     -396.3247       306.02835     -1774.5681      960.18531      0.99696118
   2605000  -337.36751      55.417028     -392.78454      295.09944      9.8751297      960.18531      0.99696118
   2606000  -339.01882      57.395803     -396.41462      305.63655      489.22491      960.18531      0.99696118
   2607000  -316.76204      63.80626      -380.5683       339.77266      3020.1914      960.18531      0.99696118
   2608000  -311.04835      51.001384     -362.04973      271.58583      1795.5111      960.18531      0.99696118
   2609000  -333.75412      59.690298     -393.44441      317.85489     -39.392541      960.18531      0.99696118
   2610000  -329.65506      63.545833     -393.20089      338.38588      554.75038      960.18531      0.99696118
   2611000  -348.8342       48.637027     -397.47123      258.99547     -4984.9079      960.18531      0.99696118
   2612000  -322.34265      58.011117     -380.35376      308.91313     -4309.9015      960.18531      0.99696118
   2613000  -338.59399      51.582761     -390.17675      274.6817      -705.40167      960.18531      0.99696118
   2614000  -317.1387       60.906034     -378.04473      324.32877     -85.694821      960.18531      0.99696118
   2615000  -331.19345      53.02839      -384.22184      282.37978     -2093.2244      960.18531      0.99696118
   2616000  -328.10925      65.947221     -394.05647      351.17343     -1417.9988      960.18531      0.99696118
   2617000  -331.26677      56.839881     -388.10665      302.67622     -729.60649      960.18531      0.99696118
   2618000  -337.26273      52.562381     -389.82511      279.89825     -2640.3886      960.18531      0.99696118
   2619000  -330.98808      60.040482     -391.02856      319.71964      790.73826      960.18531      0.99696118
   2620000  -350.40677      58.30226      -408.70903      310.46349     -1114.6949      960.18531      0.99696118
   2621000  -346.24868      57.176271     -403.42495      304.46753     -2896.2117      960.18531      0.99696118
   2622000  -347.40455      59.390186     -406.79474      316.25677     -1979.7437      960.18531      0.99696118
   2623000  -327.57498      64.345678     -391.92065      342.6451      -1872.2965      960.18531      0.99696118
   2624000  -338.87629      61.456771     -400.33306      327.26148     -1335.9447      960.18531      0.99696118
   2625000  -347.04366      57.123892     -404.16756      304.1886       2398.5845      960.18531      0.99696118
   2626000  -364.49856      52.059487     -416.55805      277.2203      -775.72006      960.18531      0.99696118
   2627000  -340.63688      53.595014     -394.2319       285.39709      4227.7173      960.18531      0.99696118
   2628000  -339.62043      54.647102     -394.26753      290.99953     -6351.6507      960.18531      0.99696118
   2629000  -324.08201      60.12099      -384.203        320.14835     -1963.995       960.18531      0.99696118
   2630000  -328.42244      42.723164     -371.1456       227.50375     -2760.927       960.18531      0.99696118
   2631000  -336.51278      59.65731      -396.17009      317.67923     -623.85252      960.18531      0.99696118
   2632000  -317.53853      64.593441     -382.13198      343.96446     -2306.4583      960.18531      0.99696118
   2633000  -331.29062      61.296251     -392.58688      326.4067      -1646.1715      960.18531      0.99696118
   2634000  -342.91091      47.852772     -390.76368      254.81926     -1183.1055      960.18531      0.99696118
   2635000  -344.65194      52.352773     -397.00471      278.78207     -1900.9151      960.18531      0.99696118
   2636000  -344.32914      48.433717     -392.76285      257.91283     -1590.3201      960.18531      0.99696118
   2637000  -340.37997      51.447382     -391.82735      273.9608      -1478.9058      960.18531      0.99696118
   2638000  -329.30608      54.80782      -384.1139       291.85536     -3268.6077      960.18531      0.99696118
   2639000  -350.54061      48.548924     -399.08954      258.52631     -4048.0309      960.18531      0.99696118
   2640000  -329.19426      63.259661     -392.45392      336.86199     -2783.3853      960.18531      0.99696118
   2641000  -330.09504      50.196769     -380.29181      267.3012      -4670.744       960.18531      0.99696118
   2642000  -330.00146      58.414501     -388.41596      311.06118      3878.9613      960.18531      0.99696118
   2643000  -326.32147      57.761328     -384.0828       307.58299      347.20702      960.18531      0.99696118
   2644000  -332.1904       56.423879     -388.61428      300.46099      649.1416       960.18531      0.99696118
   2645000  -327.14349      55.033949     -382.17744      293.05952     -1307.0457      960.18531      0.99696118
   2646000  -341.48918      54.738715     -396.2279       291.48737      1443.1914      960.18531      0.99696118
   2647000  -319.29239      56.85194      -376.14433      302.74044      1814.7779      960.18531      0.99696118
   2648000  -342.04723      56.749633     -398.79686      302.19565      272.94973      960.18531      0.99696118
   2649000  -323.3805       70.195723     -393.57622      373.79699      3635.2286      960.18531      0.99696118
   2650000  -338.49305      51.685848     -390.17889      275.23065     -434.32944      960.18531      0.99696118
   2651000  -351.84267      51.335636     -403.17831      273.36575     -474.9722       960.18531      0.99696118
   2652000  -320.38185      66.867153     -387.249        356.07213     -1137.9681      960.18531      0.99696118
   2653000  -346.1532       57.306996     -403.46019      305.16364     -1594.5727      960.18531      0.99696118
   2654000  -319.75549      64.367543     -384.12303      342.76154      7.8493959      960.18531      0.99696118
   2655000  -345.47722      50.67663      -396.15385      269.8565      -1330.5155      960.18531      0.99696118
   2656000  -326.8421       62.084359     -388.92646      330.60343     -2192.4227      960.18531      0.99696118
   2657000  -334.72796      50.024106     -384.75207      266.38176     -258.67355      960.18531      0.99696118
   2658000  -325.41962      63.704217     -389.12384      339.22928     -4186.9812      960.18531      0.99696118
   2659000  -342.12882      56.052044     -398.18086      298.48094     -1217.8379      960.18531      0.99696118
   2660000  -317.72137      69.69044      -387.41181      371.10632      224.11347      960.18531      0.99696118
   2661000  -332.83487      65.699333     -398.5342       349.85341      2345.7446      960.18531      0.99696118
   2662000  -326.3923       54.664173     -381.05647      291.09043      2956.1781      960.18531      0.99696118
   2663000  -325.64414      50.187062     -375.8312       267.24951      2925.8636      960.18531      0.99696118
   2664000  -313.48515      69.31074      -382.79589      369.0844       2249.9538      960.18531      0.99696118
   2665000  -336.50449      50.566451     -387.07094      269.26978      1489.5388      960.18531      0.99696118
   2666000  -348.19349      50.636377     -398.82987      269.64214     -5378.1522      960.18531      0.99696118
   2667000  -344.75438      46.681068     -391.43544      248.57986     -77.016009      960.18531      0.99696118
   2668000  -330.63269      54.349818     -384.98251      289.41647      538.17476      960.18531      0.99696118
   2669000  -339.01984      51.988766     -391.0086       276.84371      1545.3487      960.18531      0.99696118
   2670000  -340.87772      53.937914     -394.81564      287.22306     -465.82618      960.18531      0.99696118
   2671000  -336.61608      56.92702      -393.5431       303.14025     -2293.1561      960.18531      0.99696118
   2672000  -317.30372      55.52645      -372.83017      295.68212      2973.137       960.18531      0.99696118
   2673000  -348.86623      51.651574     -400.51781      275.04814     -1003.6872      960.18531      0.99696118
   2674000  -325.37271      58.143546     -383.51626      309.61833     -3611.3129      960.18531      0.99696118
   2675000  -340.07369      50.602065     -390.67576      269.45943     -2024.5325      960.18531      0.99696118
   2676000  -332.11814      56.521824     -388.63996      300.98255     -1376.6333      960.18531      0.99696118
   2677000  -332.96454      53.226614     -386.19116      283.43533     -1126.3502      960.18531      0.99696118
   2678000  -345.98013      48.109194     -394.08932      256.18472     -2020.0233      960.18531      0.99696118
   2679000  -334.24604      56.854278     -391.10032      302.75289     -105.91774      960.18531      0.99696118
   2680000  -336.97447      62.213367     -399.18783      331.2904       1791.2725      960.18531      0.99696118
   2681000  -339.6584       61.142607     -400.80101      325.58853      837.79754      960.18531      0.99696118
   2682000  -327.83473      57.483249     -385.31798      306.1022       1521.3261      960.18531      0.99696118
   2683000  -309.40763      62.964002     -372.37163      335.28758     -1921.9494      960.18531      0.99696118
   2684000  -317.36571      56.295976     -373.66168      299.77989      1545.782       960.18531      0.99696118
   2685000  -347.12737      53.068458     -400.19583      282.59314     -2592.8122      960.18531      0.99696118
   2686000  -327.13947      58.11652      -385.25599      309.47442     -3384.1997      960.18531      0.99696118
   2687000  -344.6212       49.353531     -393.97473      262.81091      120.19283      960.18531      0.99696118
   2688000  -324.62332      65.227915     -389.85123      347.34308     -2758.48        960.18531      0.99696118
   2689000  -339.78004      52.116496     -391.89654      277.52388     -4127.0522      960.18531      0.99696118
   2690000  -339.87956      55.069289     -394.94885      293.2477       2610.0196      960.18531      0.99696118
   2691000  -335.85019      58.071868     -393.92206      309.23664      2045.312       960.18531      0.99696118
   2692000  -341.13567      53.691761     -394.82743      285.91227      1587.2677      960.18531      0.99696118
   2693000  -335.91857      57.843139     -393.76171      308.01864      516.84198      960.18531      0.99696118
   2694000  -344.98889      48.816554     -393.80545      259.95146      354.16396      960.18531      0.99696118
   2695000  -352.70055      51.649006     -404.34956      275.03446     -1880.4426      960.18531      0.99696118
   2696000  -335.02036      54.275048     -389.29541      289.01831      329.10807      960.18531      0.99696118
   2697000  -345.63769      49.589922     -395.22761      264.0697       1120.9619      960.18531      0.99696118
   2698000  -357.63752      45.417078     -403.0546       241.84902     -569.75904      960.18531      0.99696118
   2699000  -346.71448      46.450711     -393.16519      247.35319     -16.547926      960.18531      0.99696118
   2700000  -335.40657      48.313852     -383.72042      257.27454     -1348.9002      960.18531      0.99696118
   2701000  -342.54275      56.412968     -398.95571      300.40288     -601.00573      960.18531      0.99696118
   2702000  -353.7813       51.424952     -405.20625      273.84136     -962.93325      960.18531      0.99696118
   2703000  -347.68641      55.417527     -403.10393      295.10209      1349.2576      960.18531      0.99696118
   2704000  -332.59095      57.118408     -389.70935      304.1594      -3764.5148      960.18531      0.99696118
   2705000  -325.61524      56.31721      -381.93245      299.89297      1490.5785      960.18531      0.99696118
   2706000  -342.48831      51.685958     -394.17427      275.23123      3617.6127      960.18531      0.99696118
   2707000  -328.34574      62.752283     -391.09802      334.16017     -538.51821      960.18531      0.99696118
   2708000  -343.97039      49.841638     -393.81203      265.41011     -3574.6725      960.18531      0.99696118
   2709000  -321.69574      58.07687      -379.77261      309.26328     -1795.1976      960.18531      0.99696118
   2710000  -319.15397      60.080897     -379.23487      319.93485     -1004.0003      960.18531      0.99696118
   2711000  -332.65332      54.618348     -387.27166      290.84641      3130.6588      960.18531      0.99696118
   2712000  -331.63468      54.312161     -385.94684      289.21594     -1560.2414      960.18531      0.99696118
   2713000  -310.63789      66.836855     -377.47474      355.91079     -3759.649       960.18531      0.99696118
   2714000  -327.47594      57.879251     -385.35519      308.21094      5038.2301      960.18531      0.99696118
   2715000  -343.855        54.607752     -398.46275      290.78999     -2171.9735      960.18531      0.99696118
   2716000  -335.43109      60.85532      -396.28641      324.05871     -612.26047      960.18531      0.99696118
   2717000  -339.0655       59.396992     -398.4625       316.29302      2259.7467      960.18531      0.99696118
   2718000  -323.22921      53.748797     -376.978        286.21599     -48.298711      960.18531      0.99696118
   2719000  -335.57536      50.84789      -386.42325      270.76847     -3873.9635      960.18531      0.99696118
   2720000  -353.69938      41.111683     -394.81106      218.9225       824.24907      960.18531      0.99696118
   2721000  -344.24338      54.636529     -398.87991      290.94323     -2724.471       960.18531      0.99696118
   2722000  -341.89532      47.761689     -389.65701      254.33424      566.23789      960.18531      0.99696118
   2723000  -333.45772      57.436358     -390.89408      305.85251     -469.80308      960.18531      0.99696118
   2724000  -340.03197      52.172037     -392.204        277.81964     -2622.0527      960.18531      0.99696118
   2725000  -324.96673      51.540204     -376.50693      274.45508     -1095.1256      960.18531      0.99696118
   2726000  -347.79636      47.549815     -395.34618      253.20599      1115.9896      960.18531      0.99696118
   2727000  -333.87508      53.234572     -387.10965      283.47771     -1900.4362      960.18531      0.99696118
   2728000  -325.78264      62.837473     -388.62011      334.61381     -1722.8267      960.18531      0.99696118
   2729000  -336.64925      52.739195     -389.38845      280.83979     -328.09072      960.18531      0.99696118
   2730000  -346.09455      56.999635     -403.09419      303.52692      362.08356      960.18531      0.99696118
   2731000  -327.67019      62.301761     -389.97195      331.76111     -2453.1546      960.18531      0.99696118
   2732000  -335.08654      53.550664     -388.6372       285.16092      372.46049      960.18531      0.99696118
   2733000  -334.49436      60.32328      -394.81764      321.22556      794.8638       960.18531      0.99696118
   2734000  -330.57473      64.224537     -394.79926      342.00002     -501.16234      960.18531      0.99696118
   2735000  -326.9403       51.368757     -378.30906      273.54212      3963.7283      960.18531      0.99696118
   2736000  -333.34746      54.460598     -387.80806      290.00638      2070.836       960.18531      0.99696118
   2737000  -329.38082      54.171578     -383.5524       288.46733     -1522.7552      960.18531      0.99696118
   2738000  -329.81317      52.075957     -381.88912      277.30801     -1667.9232      960.18531      0.99696118
   2739000  -331.09803      53.174884     -384.27291      283.15987      1448.576       960.18531      0.99696118
   2740000  -338.03194      53.209345     -391.24129      283.34337     -1988.283       960.18531      0.99696118
   2741000  -327.59702      63.772028     -391.36905      339.59038     -4940.343       960.18531      0.99696118
   2742000  -346.47032      50.575159     -397.04548      269.31615     -2866.2747      960.18531      0.99696118
   2743000  -335.8795       58.96346      -394.84296      313.98443     -375.0747       960.18531      0.99696118
   2744000  -343.60266      55.486302     -399.08896      295.46833     -1970.301       960.18531      0.99696118
   2745000  -326.50609      57.522161     -384.02825      306.30941     -5515.232       960.18531      0.99696118
   2746000  -343.02423      63.862332     -406.88656      340.07125     -559.06426      960.18531      0.99696118
   2747000  -325.2063       66.67316      -391.87946      355.0391      -647.49418      960.18531      0.99696118
   2748000  -355.01903      52.052245     -407.07127      277.18174     -5845.4108      960.18531      0.99696118
   2749000  -333.70346      61.707605     -395.41106      328.59718      1564.4703      960.18531      0.99696118
   2750000  -336.43495      52.23796      -388.67291      278.17069      3585.9272      960.18531      0.99696118
   2751000  -344.3094       59.015205     -403.3246       314.25997      1354.2104      960.18531      0.99696118
   2752000  -328.78721      56.553756     -385.34096      301.15259     -149.42078      960.18531      0.99696118
   2753000  -334.73095      62.191197     -396.92214      331.17235     -4187.8172      960.18531      0.99696118
   2754000  -348.60183      55.631461     -404.23329      296.2413       6469.8712      960.18531      0.99696118
   2755000  -327.44817      61.451076     -388.89924      327.23115     -1705.9345      960.18531      0.99696118
   2756000  -330.27273      56.122387     -386.39512      298.85552     -2496.3275      960.18531      0.99696118
   2757000  -322.74027      60.994823     -383.73509      324.80157     -57.020454      960.18531      0.99696118
   2758000  -324.52715      59.972613     -384.49977      319.35824     -1270.7457      960.18531      0.99696118
   2759000  -336.71911      60.362641     -397.08175      321.43516     -3388.8211      960.18531      0.99696118
   2760000  -345.67481      50.34623      -396.02104      268.09709     -576.07055      960.18531      0.99696118
   2761000  -337.90081      54.357385     -392.25819      289.45676     -3178.0336      960.18531      0.99696118
   2762000  -360.11495      49.031679     -409.14663      261.09702      3590.7081      960.18531      0.99696118
   2763000  -357.85862      56.156452     -414.01507      299.03692      513.99619      960.18531      0.99696118
   2764000  -333.92986      60.162292     -394.09215      320.36829     -3100.1626      960.18531      0.99696118
   2765000  -329.08173      61.901315     -390.98304      329.6287      -1056.6049      960.18531      0.99696118
   2766000  -346.37092      57.911043     -404.28196      308.38024      1623.0569      960.18531      0.99696118
   2767000  -345.58836      58.731546     -404.31991      312.74947     -2486.418       960.18531      0.99696118
   2768000  -337.27577      49.434943     -386.71071      263.24443     -2495.6008      960.18531      0.99696118
   2769000  -335.20661      49.284189     -384.4908       262.44165     -1902.7193      960.18531      0.99696118
   2770000  -338.59446      52.563906     -391.15837      279.90637     -1341.6562      960.18531      0.99696118
   2771000  -331.78688      48.811275     -380.59815      259.92335      2582.5292      960.18531      0.99696118
   2772000  -355.06176      56.295628     -411.35739      299.77804     -2655.6357      960.18531      0.99696118
   2773000  -348.94575      61.640774     -410.58652      328.24131      103.08392      960.18531      0.99696118
   2774000  -349.38246      51.419721     -400.80218      273.8135      -2199.4521      960.18531      0.99696118
   2775000  -345.88778      59.26096      -405.14874      315.56863     -1643.3892      960.18531      0.99696118
   2776000  -360.2049       53.186922     -413.39182      283.22397     -1825.6139      960.18531      0.99696118
   2777000  -339.40552      56.061188     -395.46671      298.52963     -3856.0867      960.18531      0.99696118
   2778000  -334.93496      66.520249     -401.45521      354.22484      2788.0324      960.18531      0.99696118
   2779000  -332.84031      55.529047     -388.36936      295.69595      2966.7051      960.18531      0.99696118
   2780000  -340.46827      52.03444      -392.5027       277.08692     -1105.6277      960.18531      0.99696118
   2781000  -335.04783      53.10678      -388.15461      282.79721     -2736.488       960.18531      0.99696118
   2782000  -322.11209      52.522475     -374.63457      279.68574      1226.845       960.18531      0.99696118
   2783000  -339.00281      53.444412     -392.44722      284.59512     -703.6179       960.18531      0.99696118
   2784000  -331.47151      55.496983     -386.9685       295.5252       73.932007      960.18531      0.99696118
   2785000  -338.88474      52.780753     -391.66549      281.06109     -1568.9739      960.18531      0.99696118
   2786000  -338.25488      50.876789     -389.13167      270.92235     -1281.1095      960.18531      0.99696118
   2787000  -346.09692      54.434454     -400.53138      289.86716     -5251.2778      960.18531      0.99696118
   2788000  -341.11461      62.817342     -403.93195      334.50661      24.391096      960.18531      0.99696118
   2789000  -329.42997      67.32413      -396.7541       358.50556      1976.2612      960.18531      0.99696118
   2790000  -337.81294      61.487874     -399.30081      327.4271      -2449.1865      960.18531      0.99696118
   2791000  -348.686        50.925435     -399.61144      271.1814       2414.183       960.18531      0.99696118
   2792000  -332.72003      51.035665     -383.7557       271.76838      1008.0481      960.18531      0.99696118
   2793000  -343.91883      57.970147     -401.88898      308.69497     -301.09831      960.18531      0.99696118
   2794000  -322.71407      56.821531     -379.5356       302.57851      787.14716      960.18531      0.99696118
   2795000  -319.67548      57.495122     -377.1706       306.16543     -1953.2307      960.18531      0.99696118
   2796000  -322.87561      59.951979     -382.82759      319.24836      1626.6096      960.18531      0.99696118
   2797000  -324.50796      52.746332     -377.2543       280.8778      -1928.5554      960.18531      0.99696118
   2798000  -314.19239      54.906104     -369.09849      292.37873      1522.1254      960.18531      0.99696118
   2799000  -338.0342       51.973839     -390.00804      276.76422     -1265.3064      960.18531      0.99696118
   2800000  -342.70509      59.264724     -401.96981      315.58868      72.805857      960.18531      0.99696118
   2801000  -330.32798      48.964693     -379.29267      260.74032     -4627.859       960.18531      0.99696118
   2802000  -351.73999      50.818469     -402.55846      270.6118      -2838.9697      960.18531      0.99696118
   2803000  -337.82147      58.426582     -396.24806      311.12552     -4525.2918      960.18531      0.99696118
   2804000  -315.67881      63.556267     -379.23507      338.44144      151.11264      960.18531      0.99696118
   2805000  -343.79874      52.398786     -396.19753      279.02709      333.19016      960.18531      0.99696118
   2806000  -354.3052       49.981153     -404.28636      266.15303      241.53317      960.18531      0.99696118
   2807000  -352.50939      49.478916     -401.9883       263.47859     -5634.941       960.18531      0.99696118
   2808000  -329.36183      67.18379      -396.54562      357.75824      1077.3115      960.18531      0.99696118
   2809000  -344.46773      51.928157     -396.39589      276.52096      1158.8563      960.18531      0.99696118
   2810000  -340.45984      54.847021     -395.30686      292.06411      2728.1459      960.18531      0.99696118
   2811000  -317.8627       62.431236     -380.29394      332.45057      1437.6823      960.18531      0.99696118
   2812000  -340.62406      54.58414      -395.2082       290.66425     -2015.5075      960.18531      0.99696118
   2813000  -344.01114      48.824869     -392.83601      259.99574      636.95233      960.18531      0.99696118
   2814000  -327.5198       62.728571     -390.24837      334.0339       1348.4049      960.18531      0.99696118
   2815000  -345.97524      57.062284     -403.03752      303.86053     -140.6402       960.18531      0.99696118
   2816000  -321.28222      61.239942     -382.52216      326.10685      2453.146       960.18531      0.99696118
   2817000  -321.77315      60.034719     -381.80787      319.68895     -1029.8681      960.18531      0.99696118
   2818000  -313.16773      66.504008     -379.67174      354.13836     -2872.6541      960.18531      0.99696118
   2819000  -337.13009      41.807934     -378.93802      222.63009     -4646.6183      960.18531      0.99696118
   2820000  -325.91697      47.859776     -373.77675      254.85656     -3854.991       960.18531      0.99696118
   2821000  -335.86484      43.984547     -379.84938      234.2207      -4025.8098      960.18531      0.99696118
   2822000  -331.41616      50.261765     -381.67793      267.64731     -5063.0448      960.18531      0.99696118
   2823000  -326.61063      65.486225     -392.09686      348.71859     -1282.5581      960.18531      0.99696118
   2824000  -335.36236      60.146082     -395.50844      320.28197      2317.5166      960.18531      0.99696118
   2825000  -304.15674      58.741051     -362.89779      312.80009     -561.39826      960.18531      0.99696118
   2826000  -331.09372      51.670523     -382.76424      275.14904     -3359.1651      960.18531      0.99696118
   2827000  -333.91671      53.054997     -386.9717       282.52146      1395.5439      960.18531      0.99696118
   2828000  -332.51159      46.225452     -378.73705      246.15367     -724.00608      960.18531      0.99696118
   2829000  -329.21458      55.114276     -384.32885      293.48726     -1088.9028      960.18531      0.99696118
   2830000  -340.12129      58.8942       -399.01549      313.61561     -2431.8662      960.18531      0.99696118
   2831000  -343.61286      51.887238     -395.5001       276.30306     -373.03017      960.18531      0.99696118
   2832000  -324.76777      57.307323     -382.07509      305.16538     -1639.23        960.18531      0.99696118
   2833000  -341.28931      54.873559     -396.16287      292.20543      2901.9389      960.18531      0.99696118
   2834000  -323.89463      54.209786     -378.10441      288.67079      4189.638       960.18531      0.99696118
   2835000  -332.48295      46.908733     -379.39168      249.79219     -969.5404       960.18531      0.99696118
   2836000  -341.15184      49.165755     -390.3176       261.81099     -3267.4703      960.18531      0.99696118
   2837000  -337.25819      50.61254      -387.87073      269.51521      237.09377      960.18531      0.99696118
   2838000  -322.52691      52.006646     -374.53356      276.93892      1798.876       960.18531      0.99696118
   2839000  -324.0297       55.996585     -380.02629      298.18562     -713.27365      960.18531      0.99696118
   2840000  -342.80082      61.459987     -404.26081      327.2786      -2754.306       960.18531      0.99696118
   2841000  -345.78753      57.146884     -402.93442      304.31104      1358.8856      960.18531      0.99696118
   2842000  -357.93067      55.867151     -413.79783      297.49637     -2129.748       960.18531      0.99696118
   2843000  -333.19535      58.631839     -391.82719      312.21852     -1841.7326      960.18531      0.99696118
   2844000  -335.89677      60.973959     -396.87073      324.69047     -2546.1751      960.18531      0.99696118
   2845000  -347.91762      49.602674     -397.52029      264.13761     -1250.3516      960.18531      0.99696118
   2846000  -340.14452      57.487966     -397.63249      306.12732      600.20036      960.18531      0.99696118
   2847000  -346.38626      55.648375     -402.03463      296.33138      976.07139      960.18531      0.99696118
   2848000  -331.95348      43.961062     -375.91455      234.09564     -4542.7528      960.18531      0.99696118
   2849000  -337.75521      50.171065     -387.92627      267.16433     -3446.8195      960.18531      0.99696118
   2850000  -334.1216       46.979883     -381.10149      250.17106     -875.76732      960.18531      0.99696118
   2851000  -338.2682       54.415685     -392.68389      289.76722      2337.3914      960.18531      0.99696118
   2852000  -323.0187       56.709107     -379.72781      301.97985      982.49938      960.18531      0.99696118
   2853000  -314.67726      63.239326     -377.91658      336.7537      -4184.7719      960.18531      0.99696118
   2854000  -332.95855      57.720274     -390.67882      307.36438     -2326.8675      960.18531      0.99696118
   2855000  -326.28877      53.832518     -380.12129      286.66181     -1609.2369      960.18531      0.99696118
   2856000  -332.94607      60.046516     -392.99259      319.75178     -1453.2428      960.18531      0.99696118
   2857000  -339.39531      59.015659     -398.41097      314.26239      250.08721      960.18531      0.99696118
   2858000  -346.68403      47.585291     -394.26932      253.3949      -1917.7569      960.18531      0.99696118
   2859000  -330.52447      57.676457     -388.20093      307.13105      3566.7209      960.18531      0.99696118
   2860000  -338.48179      58.793837     -397.27562      313.08117      553.61419      960.18531      0.99696118
   2861000  -343.04833      53.934407     -396.98274      287.20438      1947.427       960.18531      0.99696118
   2862000  -338.79617      63.360547     -402.15672      337.39921      416.14162      960.18531      0.99696118
   2863000  -342.17626      50.358161     -392.53442      268.16062     -1841.9952      960.18531      0.99696118
   2864000  -346.47078      48.354547     -394.82533      257.49125     -186.89324      960.18531      0.99696118
   2865000  -331.02701      62.215188     -393.2422       331.3001      -3049.6407      960.18531      0.99696118
   2866000  -348.75221      49.917984     -398.67019      265.81665     -277.20708      960.18531      0.99696118
   2867000  -333.76806      60.399319     -394.16738      321.63048     -841.78431      960.18531      0.99696118
   2868000  -356.26181      53.663706     -409.92551      285.76288     -2093.2637      960.18531      0.99696118
   2869000  -331.82838      54.394268     -386.22265      289.65317      1449.6356      960.18531      0.99696118
   2870000  -328.87565      58.974143     -387.8498       314.04132     -1077.2244      960.18531      0.99696118
   2871000  -322.76495      58.544955     -381.3099       311.75586      189.30082      960.18531      0.99696118
   2872000  -343.98806      53.239485     -397.22754      283.50387     -4229.6752      960.18531      0.99696118
   2873000  -344.22976      53.569881     -397.79965      285.26325     -1109.2175      960.18531      0.99696118
   2874000  -337.00472      58.180121     -395.18484      309.8131      -2116.6279      960.18531      0.99696118
   2875000  -346.02219      52.57283      -398.59502      279.95389     -482.43699      960.18531      0.99696118
   2876000  -333.59498      58.391526     -391.9865       310.93884     -1856.7379      960.18531      0.99696118
   2877000  -346.65353      56.496526     -403.15006      300.84784     -2572.3472      960.18531      0.99696118
   2878000  -345.7531       56.217039     -401.97014      299.35955      2619.2468      960.18531      0.99696118
   2879000  -323.50802      61.148197     -384.65622      325.6183      -850.4748       960.18531      0.99696118
   2880000  -333.20702      54.867463     -388.07448      292.17297      1748.2765      960.18531      0.99696118
   2881000  -328.36645      57.943988     -386.31044      308.55567     -16.070693      960.18531      0.99696118
   2882000  -318.62268      61.16643      -379.78911      325.71539     -3600.4623      960.18531      0.99696118
   2883000  -334.3133       52.833535     -387.14683      281.34216     -809.1937       960.18531      0.99696118
   2884000  -332.6305       52.577668     -385.20817      279.97965     -1949.9762      960.18531      0.99696118
   2885000  -334.76178      52.965821     -387.7276       282.04659     -2171.3214      960.18531      0.99696118
   2886000  -327.36131      54.232997     -381.59431      288.79439     -1780.9911      960.18531      0.99696118
   2887000  -331.29028      46.706173     -377.99645      248.71354     -1578.947       960.18531      0.99696118
   2888000  -327.15242      56.809762     -383.96218      302.51584      5498.8336      960.18531      0.99696118
   2889000  -339.5479       52.180953     -391.72885      277.86711      3441.6956      960.18531      0.99696118
   2890000  -326.02024      57.557575     -383.57782      306.498        3225.3448      960.18531      0.99696118
   2891000  -320.26369      63.331788     -383.59548      337.24607     -1564.9622      960.18531      0.99696118
   2892000  -332.82832      57.153156     -389.98148      304.34444     -1219.2109      960.18531      0.99696118
   2893000  -315.95992      59.374871     -375.33479      316.17522      3738.8966      960.18531      0.99696118
   2894000  -315.92065      59.213015     -375.13366      315.31332     -919.28155      960.18531      0.99696118
   2895000  -308.44307      62.273129     -370.71619      331.60864     -1646.9705      960.18531      0.99696118
   2896000  -312.87083      73.093241     -385.96407      389.22647     -3645.49        960.18531      0.99696118
   2897000  -335.35926      54.389026     -389.74828      289.62525      4901.186       960.18531      0.99696118
   2898000  -322.4462       61.85604      -384.30224      329.38761     -310.34109      960.18531      0.99696118
   2899000  -344.47846      52.521985     -397.00044      279.68313     -5471.3417      960.18531      0.99696118
   2900000  -333.27971      51.112862     -384.39257      272.17946     -1551.386       960.18531      0.99696118
   2901000  -333.06819      60.683278     -393.75146      323.14257     -559.64993      960.18531      0.99696118
   2902000  -314.88131      57.305082     -372.18639      305.15345      1425.5743      960.18531      0.99696118
   2903000  -336.26139      55.681691     -391.94309      296.50879     -266.28739      960.18531      0.99696118
   2904000  -325.13019      59.773217     -384.90341      318.29644     -2333.7035      960.18531      0.99696118
   2905000  -331.5184       69.270949     -400.78935      368.87251     -784.65227      960.18531      0.99696118
   2906000  -344.36481      55.627266     -399.99207      296.21897     -2512.9704      960.18531      0.99696118
   2907000  -331.21369      53.366152     -384.57984      284.17838     -5019.9248      960.18531      0.99696118
   2908000  -346.52963      49.439028     -395.96865      263.26618     -1091.4807      960.18531      0.99696118
   2909000  -334.63357      60.128289     -394.76186      320.18722      1518.2379      960.18531      0.99696118
   2910000  -326.67701      64.51285      -391.18985      343.5353       3759.9443      960.18531      0.99696118
   2911000  -353.47927      53.259216     -406.73849      283.60894      1854.9507      960.18531      0.99696118
   2912000  -335.09486      63.464817     -398.55968      337.95446      3421.7699      960.18531      0.99696118
   2913000  -334.002        61.402823     -395.40482      326.9742      -3879.415       960.18531      0.99696118
   2914000  -354.4898       51.303664     -405.79346      273.19549      943.40509      960.18531      0.99696118
   2915000  -340.07291      59.335922     -399.40883      315.96781     -5174.0235      960.18531      0.99696118
   2916000  -329.94407      59.510262     -389.45433      316.89618      1167.6436      960.18531      0.99696118
   2917000  -340.1109       46.898679     -387.00958      249.73865      640.09731      960.18531      0.99696118
   2918000  -316.77749      63.101839     -379.87933      336.02158      1730.7134      960.18531      0.99696118
   2919000  -333.94613      50.961465     -384.9076       271.37326     -1481.4583      960.18531      0.99696118
   2920000  -343.29734      57.699225     -400.99656      307.25229      530.96511      960.18531      0.99696118
   2921000  -331.34629      59.203701     -390.54999      315.26373     -2151.5344      960.18531      0.99696118
   2922000  -327.27318      51.183911     -378.45709      272.5578       2238.7493      960.18531      0.99696118
   2923000  -327.25526      46.817842     -374.0731       249.30819      6.4421377      960.18531      0.99696118
   2924000  -329.01199      54.464838     -383.47682      290.02896     -2832.2506      960.18531      0.99696118
   2925000  -338.76526      49.529634     -388.2949       263.74866     -846.46011      960.18531      0.99696118
   2926000  -341.54295      50.725812     -392.26877      270.11839      791.74103      960.18531      0.99696118
   2927000  -333.3782       60.59694      -393.97514      322.68282      2045.4318      960.18531      0.99696118
   2928000  -328.46782      58.002784     -386.4706       308.86876     -2485.3821      960.18531      0.99696118
   2929000  -329.92047      61.310322     -391.23079      326.48163      1933.9256      960.18531      0.99696118
   2930000  -342.76419      52.86741      -395.6316       281.52255     -985.09859      960.18531      0.99696118
   2931000  -327.59069      65.224028     -392.81471      347.32238      1813.0589      960.18531      0.99696118
   2932000  -340.48278      48.603981     -389.08676      258.8195      -4030.0428      960.18531      0.99696118
   2933000  -334.98661      47.397497     -382.38411      252.39489     -1131.383       960.18531      0.99696118
   2934000  -339.3216       57.442475     -396.76407      305.88508      1385.9321      960.18531      0.99696118
   2935000  -312.19151      70.144877     -382.33638      373.52623     -3541.8163      960.18531      0.99696118
   2936000  -340.17909      50.781328     -390.96042      270.41402     -30.229033      960.18531      0.99696118
   2937000  -339.48822      53.363543     -392.85176      284.16449     -1478.163       960.18531      0.99696118
   2938000  -350.49105      48.423162     -398.91421      257.85663     -1594.6889      960.18531      0.99696118
   2939000  -331.80077      57.528971     -389.32974      306.34567     -1042.7032      960.18531      0.99696118
   2940000  -343.40593      53.632753     -397.03869      285.59805      25.142091      960.18531      0.99696118
   2941000  -336.78536      52.612391     -389.39776      280.16455      1227.6001      960.18531      0.99696118
   2942000  -336.65165      56.863994     -393.51564      302.80463     -2204.4858      960.18531      0.99696118
   2943000  -319.03849      57.627115     -376.66561      306.8683       1667.0355      960.18531      0.99696118
   2944000  -342.23533      57.428946     -399.66427      305.81303     -2224.5898      960.18531      0.99696118
   2945000  -324.21938      61.812662     -386.03204      329.15662      1056.9517      960.18531      0.99696118
   2946000  -343.33968      56.250307     -399.58999      299.5367      -1870.4494      960.18531      0.99696118
   2947000  -328.01455      51.850694     -379.86525      276.10846      2529.4021      960.18531      0.99696118
   2948000  -341.5352       52.91513      -394.45033      281.77666     -3243.3358      960.18531      0.99696118
   2949000  -335.17514      53.990122     -389.16526      287.50107     -765.56157      960.18531      0.99696118
   2950000  -334.96419      46.497404     -381.46159      247.60183     -596.90151      960.18531      0.99696118
   2951000  -328.49886      63.147943     -391.64681      336.26708     -1026.4586      960.18531      0.99696118
   2952000  -323.03988      75.513323     -398.55321      402.11357     -3053.8232      960.18531      0.99696118
   2953000  -343.70202      61.496785     -405.1988       327.47456     -1826.983       960.18531      0.99696118
   2954000  -327.61044      59.506251     -387.11669      316.87482     -2306.9134      960.18531      0.99696118
   2955000  -316.61339      53.448756     -370.06214      284.61825      3218.6573      960.18531      0.99696118
   2956000  -331.7574       55.318351     -387.07575      294.57397     -466.59713      960.18531      0.99696118
   2957000  -334.25322      50.051147     -384.30437      266.52576      1500.6556      960.18531      0.99696118
   2958000  -331.20737      58.30079      -389.50816      310.45567     -2403.8912      960.18531      0.99696118
   2959000  -342.56253      53.909419     -396.47195      287.07132      1341.0119      960.18531      0.99696118
   2960000  -345.54646      52.479813     -398.02628      279.45857      1367.2655      960.18531      0.99696118
   2961000  -342.93371      51.007741     -393.94145      271.61969     -1234.3471      960.18531      0.99696118
   2962000  -336.61026      60.33753      -396.94779      321.30145     -3120.1901      960.18531      0.99696118
   2963000  -320.22047      62.477934     -382.6984       332.69924      748.0611       960.18531      0.99696118
   2964000  -346.07388      57.521694     -403.59557      306.30693     -457.20028      960.18531      0.99696118
   2965000  -328.87168      63.166566     -392.03824      336.36625     -3579.3661      960.18531      0.99696118
   2966000  -327.03047      57.417304     -384.44777      305.75104      271.54265      960.18531      0.99696118
   2967000  -324.57046      55.839346     -380.4098       297.34831     -2371.8672      960.18531      0.99696118
   2968000  -331.93822      55.550274     -387.4885       295.80898     -3289.6194      960.18531      0.99696118
   2969000  -334.34717      51.30965      -385.65682      273.22737     -2772.2058      960.18531      0.99696118
   2970000  -346.72121      53.804123     -400.52533      286.51061     -3838.5797      960.18531      0.99696118
   2971000  -335.81355      58.601336     -394.41488      312.05609     -5045.7742      960.18531      0.99696118
   2972000  -353.95501      47.212529     -401.16754      251.40992      459.89388      960.18531      0.99696118
   2973000  -346.23122      57.711157     -403.94238      307.31583     -450.38657      960.18531      0.99696118
   2974000  -353.76899      45.936941     -399.70593      244.61733     -933.35546      960.18531      0.99696118
   2975000  -338.43287      44.627394     -383.06027      237.6439      -36.509552      960.18531      0.99696118
   2976000  -351.06559      56.731508     -407.7971       302.09913     -2476.2521      960.18531      0.99696118
   2977000  -334.27669      53.725449     -388.00213      286.09166     -4123.5596      960.18531      0.99696118
   2978000  -336.10761      53.940331     -390.04795      287.23593     -120.39588      960.18531      0.99696118
   2979000  -332.53797      57.654124     -390.19209      307.01212     -2104.9087      960.18531      0.99696118
   2980000  -350.0497       54.287349     -404.33705      289.08382      1241.6777      960.18531      0.99696118
   2981000  -331.90332      60.651202     -392.55452      322.97177      711.81782      960.18531      0.99696118
   2982000  -346.11339      52.143823     -398.25721      277.6694       2171.5272      960.18531      0.99696118
   2983000  -333.90084      53.116008     -387.01685      282.84635      2431.59        960.18531      0.99696118
   2984000  -332.06879      51.873269     -383.94206      276.22868      819.51794      960.18531      0.99696118
   2985000  -336.28789      53.613848     -389.90174      285.49738     -1659.4136      960.18531      0.99696118
   2986000  -348.87773      52.721615     -401.59935      280.74618     -767.21835      960.18531      0.99696118
   2987000  -336.7478       51.862058     -388.60986      276.16898      535.83909      960.18531      0.99696118
   2988000  -349.07678      63.207825     -412.2846       336.58596     -2975.3951      960.18531      0.99696118
   2989000  -343.84665      52.365911     -396.21256      278.85203      2681.9754      960.18531      0.99696118
   2990000  -329.59025      45.527241     -375.11749      242.43565      2923.3545      960.18531      0.99696118
   2991000  -323.01436      51.775095     -374.78946      275.7059       143.78158      960.18531      0.99696118
   2992000  -334.54744      59.765187     -394.31263      318.25368     -3670.0752      960.18531      0.99696118
   2993000  -317.77179      58.036627     -375.80842      309.04898     -218.30505      960.18531      0.99696118
   2994000  -323.92253      65.935641     -389.85818      351.11176      412.05621      960.18531      0.99696118
   2995000  -349.56667      51.889657     -401.45633      276.31595     -2939.0397      960.18531      0.99696118
   2996000  -339.74211      50.022674     -389.76478      266.37413      606.8771       960.18531      0.99696118
   2997000  -336.34745      50.548127     -386.89558      269.17221     -1273.8593      960.18531      0.99696118
   2998000  -328.75386      56.358272     -385.11214      300.11162     -735.81337      960.18531      0.99696118
   2999000  -322.0278       59.416554     -381.44435      316.39718     -2875.0186      960.18531      0.99696118
   3000000  -336.40547      52.772368     -389.17784      281.01644     -3675.1154      960.18531      0.99696118
Loop time of 859.84 on 1 procs for 2000000 steps with 96 atoms

Performance: 200.968 ns/day, 0.119 hours/ns, 2326.013 timesteps/s
99.7% CPU use with 1 MPI tasks x 1 OpenMP threads

MPI task timing breakdown:
Section |  min time  |  avg time  |  max time  |%varavg| %total
---------------------------------------------------------------
Pair    | 673.11     | 673.11     | 673.11     |   0.0 | 78.28
Bond    | 0.10079    | 0.10079    | 0.10079    |   0.0 |  0.01
Kspace  | 118.26     | 118.26     | 118.26     |   0.0 | 13.75
Neigh   | 29.823     | 29.823     | 29.823     |   0.0 |  3.47
Comm    | 23.236     | 23.236     | 23.236     |   0.0 |  2.70
Output  | 0.26722    | 0.26722    | 0.26722    |   0.0 |  0.03
Modify  | 11.712     | 11.712     | 11.712     |   0.0 |  1.36
Other   |            | 3.333      |            |       |  0.39

Nlocal:             96 ave          96 max          96 min
Histogram: 1 0 0 0 0 0 0 0 0 0
Nghost:           3688 ave        3688 max        3688 min
Histogram: 1 0 0 0 0 0 0 0 0 0
Neighs:          34743 ave       34743 max       34743 min
Histogram: 1 0 0 0 0 0 0 0 0 0

Total # of neighbors = 34743
Ave neighs/atom = 361.90625
Ave special neighs/atom = 2
Neighbor list builds = 41766
Dangerous builds = 0

# write data file
write_data data.after_prod.lmp
System init for write_data ...
PPPM initialization ...
  using 12-bit tables for long-range coulomb (src/kspace.cpp:342)
  G vector (1/distance) = 0.30847861
  grid = 9 9 9
  stencil order = 5
  estimated absolute RMS force accuracy = 0.0027675926
  estimated relative force accuracy = 8.334523e-06
  using double precision FFTW3
  3d grid and FFT values/proc = 4096 729
Generated 1 of 1 mixed pair_coeff terms from geometric mixing rule

# clean up
undump dPROD
unfix fTHERMO
unfix fMOM
unfix fSHAKE
Total wall time: 0:21:30
