LAMMPS (23 Jun 2022 - Update 4)
  using 1 OpenMP thread(s) per MPI task
# created by fftool

# System settings
units real
boundary p p p  # Periodic boundary conditions

# definition of atoms, bonds, angles
atom_style full
bond_style harmonic
angle_style harmonic

# definition of pair potentials
special_bonds lj/coul 0.0 0.0 0.5
pair_style lj/cut/coul/long 10.0 10.0
pair_modify mix geometric tail yes
kspace_style pppm 1.0e-5

# read data file
read_data data.lmp
Reading data file ...
  orthogonal box = (0 0 0) to (12.42973 12.42973 12.42973)
  1 by 1 by 1 MPI processor grid
  reading atoms ...
  192 atoms
  scanning bonds ...
  1 = max bonds/atom
  scanning angles ...
  1 = max angles/atom
  reading bonds ...
  128 bonds
  reading angles ...
  64 angles
Finding 1-2 1-3 1-4 neighbors ...
  special bond factors lj:    0        0        0.5
  special bond factors coul:  0        0        0.5
     2 = max # of 1-2 neighbors
     1 = max # of 1-3 neighbors
     1 = max # of 1-4 neighbors
     2 = max # of special neighbors
  special bonds CPU = 0.000 seconds
  read_data CPU = 0.005 seconds

# definition of LJ parameters
pair_coeff    1    1     0.000000     0.000000  # Hw Hw
pair_coeff    2    2     0.162876     3.153970  # Ow-Ow

############################################

# remove energy hotspots
minimize 1.0e-4 1.0e-6 100 1000
WARNING: Using 'neigh_modify every 1 delay 0 check yes' setting during minimization (src/min.cpp:187)
PPPM initialization ...
  using 12-bit tables for long-range coulomb (src/kspace.cpp:342)
  G vector (1/distance) = 0.31260513
  grid = 12 12 12
  stencil order = 5
  estimated absolute RMS force accuracy = 0.0021455329
  estimated relative force accuracy = 6.4612085e-06
  using double precision FFTW3
  3d grid and FFT values/proc = 6859 1728
Generated 1 of 1 mixed pair_coeff terms from geometric mixing rule
Neighbor list info ...
  update every 1 steps, delay 0 steps, check yes
  max neighbors/atom: 2000, page size: 100000
  master list distance cutoff = 12
  ghost atom cutoff = 12
  binsize = 6, bins = 3 3 3
  1 neighbor lists, perpetual/occasional/extra = 1 0 0
  (1) pair lj/cut/coul/long, perpetual
      attributes: half, newton on
      pair build: half/bin/newton
      stencil: half/bin/3d
      bin: standard
Per MPI rank memory allocation (min/avg/max) = 8.739 | 8.739 | 8.739 Mbytes
   Step          Temp          E_pair         E_mol          TotEng         Press
         0   0              33729.79       2.0580857e-07  33729.79       4855669.2
       100   0             -1006.3961      76.519201     -929.8769      -4355.4991
Loop time of 0.207818 on 1 procs for 100 steps with 192 atoms

99.6% CPU use with 1 MPI tasks x 1 OpenMP threads

Minimization stats:
  Stopping criterion = max iterations
  Energy initial, next-to-last, final =
       33729.789743627  -929.444169127945  -929.876896917185
  Force two-norm initial, final = 367740.37 34.28087
  Force max component initial, final = 233540.62 6.1708332
  Final line search alpha, max atom move = 0.0097549976 0.060196463
  Iterations, force evaluations = 100 175

MPI task timing breakdown:
Section |  min time  |  avg time  |  max time  |%varavg| %total
---------------------------------------------------------------
Pair    | 0.17758    | 0.17758    | 0.17758    |   0.0 | 85.45
Bond    | 0.00067717 | 0.00067717 | 0.00067717 |   0.0 |  0.33
Kspace  | 0.021239   | 0.021239   | 0.021239   |   0.0 | 10.22
Neigh   | 0.004955   | 0.004955   | 0.004955   |   0.0 |  2.38
Comm    | 0.002444   | 0.002444   | 0.002444   |   0.0 |  1.18
Output  | 9.797e-06  | 9.797e-06  | 9.797e-06  |   0.0 |  0.00
Modify  | 0          | 0          | 0          |   0.0 |  0.00
Other   |            | 0.0009162  |            |       |  0.44

Nlocal:            192 ave         192 max         192 min
Histogram: 1 0 0 0 0 0 0 0 0 0
Nghost:           4725 ave        4725 max        4725 min
Histogram: 1 0 0 0 0 0 0 0 0 0
Neighs:          69010 ave       69010 max       69010 min
Histogram: 1 0 0 0 0 0 0 0 0 0

Total # of neighbors = 69010
Ave neighs/atom = 359.42708
Ave special neighs/atom = 2
Neighbor list builds = 4
Dangerous builds = 0
reset_timestep 0

# constrain water bonds and angles
fix fSHAKE all shake 0.0001 20 0 b 1 a 1
       0 = # of size 2 clusters
       0 = # of size 3 clusters
       0 = # of size 4 clusters
      64 = # of frozen angles
  find clusters CPU = 0.000 seconds

# remove Center of Mass movement every 100 steps
fix fMOM all momentum 100 linear 1 1 1

# define the neighbor list
neighbor 2.0 bin

# IMPORTANT: timestep and temperature and pressure
timestep 1.0
variable vTK equal 298.15
variable vPBAR equal 1.0

# randomize velocities
velocity all create ${vTK} 51591
velocity all create 298.15 51591

# thermostat (solving the ODE)
fix fTHERMO all nvt temp ${vTK} ${vTK} 100
fix fTHERMO all nvt temp 298.15 ${vTK} 100
fix fTHERMO all nvt temp 298.15 298.15 100

# print settings
thermo 1000
thermo_style custom step etotal ke pe temp press vol density
# trajectory output
dump dEQUI all custom 1000 equi.lammpstrj id element xu yu zu
dump_modify dEQUI element H O sort id

# equilibration
# 1 ns
run 1000000
PPPM initialization ...
  using 12-bit tables for long-range coulomb (src/kspace.cpp:342)
  G vector (1/distance) = 0.31260513
  grid = 12 12 12
  stencil order = 5
  estimated absolute RMS force accuracy = 0.0021455329
  estimated relative force accuracy = 6.4612085e-06
  using double precision FFTW3
  3d grid and FFT values/proc = 6859 1728
Generated 1 of 1 mixed pair_coeff terms from geometric mixing rule
Per MPI rank memory allocation (min/avg/max) = 9.756 | 9.756 | 9.756 Mbytes
   Step         TotEng         KinEng         PotEng          Temp          Press          Volume        Density
         0  -893.52758      112.86852     -1006.3961      298.15        -1090.6526      1920.3708      0.9969611
      1000  -658.65996      96.231854     -754.89181      254.20309     -1229.8636      1920.3708      0.9969611
      2000  -621.50628      125.11065     -746.61693      330.48843     -3063.3302      1920.3708      0.9969611
      3000  -658.47166      114.88633     -773.35799      303.48019      781.11216      1920.3708      0.9969611
      4000  -641.2588       124.72739     -765.98619      329.47603     -3021.2923      1920.3708      0.9969611
      5000  -687.3197       103.52344     -790.84314      273.46432      1348.0344      1920.3708      0.9969611
      6000  -685.47886      115.02449     -800.50335      303.84515      3975.3469      1920.3708      0.9969611
      7000  -673.48684      118.37966     -791.8665       312.70806      2373.6964      1920.3708      0.9969611
      8000  -670.77458      124.25833     -795.03291      328.23696     -395.10842      1920.3708      0.9969611
      9000  -662.6861       116.27291     -778.95901      307.14293      119.09745      1920.3708      0.9969611
     10000  -675.46814      120.16775     -795.63588      317.4314      -2070.6827      1920.3708      0.9969611
     11000  -657.98765      130.49617     -788.48382      344.71466     -731.56779      1920.3708      0.9969611
     12000  -666.4696       110.42811     -776.89771      291.70348     -1739.7966      1920.3708      0.9969611
     13000  -690.08275      111.0781      -801.16085      293.42047     -516.1352       1920.3708      0.9969611
     14000  -689.72009      109.34262     -799.06271      288.83608      2305.8825      1920.3708      0.9969611
     15000  -673.70031      122.32379     -796.02411      323.12675     -1477.2512      1920.3708      0.9969611
     16000  -694.57065      116.16765     -810.7383       306.86489      1605.5095      1920.3708      0.9969611
     17000  -662.81317      116.39832     -779.21149      307.4742      -132.47763      1920.3708      0.9969611
     18000  -657.35996      121.85588     -779.21584      321.89073     -2697.2974      1920.3708      0.9969611
     19000  -679.26026      119.18598     -798.44624      314.83801     -56.842014      1920.3708      0.9969611
     20000  -668.70647      125.76956     -794.47603      332.22898     -650.7634       1920.3708      0.9969611
     21000  -649.58967      122.02624     -771.61591      322.34074     -3535.0548      1920.3708      0.9969611
     22000  -705.62768      100.56171     -806.18938      265.6407      -2446.6721      1920.3708      0.9969611
     23000  -663.97369      118.37956     -782.35325      312.70779      1255.9719      1920.3708      0.9969611
     24000  -667.35721      114.31821     -781.67542      301.97946     -204.07863      1920.3708      0.9969611
     25000  -716.2386       98.263844     -814.50244      259.57073     -2332.5111      1920.3708      0.9969611
     26000  -669.15079      130.76327     -799.91406      345.42021     -1374.6853      1920.3708      0.9969611
     27000  -706.22894      99.89889      -806.12783      263.88982     -3740.3891      1920.3708      0.9969611
     28000  -679.29022      117.80499     -797.09521      311.19003     -2283.2249      1920.3708      0.9969611
     29000  -644.79142      121.33171     -766.12313      320.50611     -1503.981       1920.3708      0.9969611
     30000  -652.88733      106.73085     -759.61818      281.93691     -3238.9977      1920.3708      0.9969611
     31000  -670.35923      106.42226     -776.78149      281.12175     -2651.9876      1920.3708      0.9969611
     32000  -655.04035      128.40458     -783.44493      339.18957     -542.47275      1920.3708      0.9969611
     33000  -660.64163      112.57906     -773.22069      297.38537     -3759.568       1920.3708      0.9969611
     34000  -681.77137      115.60239     -797.37376      305.3717       2107.6789      1920.3708      0.9969611
     35000  -670.47224      118.1305      -788.60274      312.04987      224.20757      1920.3708      0.9969611
     36000  -662.91293      111.93643     -774.84936      295.6878      -991.51409      1920.3708      0.9969611
     37000  -657.82666      122.91409     -780.74075      324.68607     -946.12198      1920.3708      0.9969611
     38000  -681.25885      108.06722     -789.32608      285.46703     -89.689447      1920.3708      0.9969611
     39000  -663.4589       115.08741     -778.54631      304.01136      381.39579      1920.3708      0.9969611
     40000  -687.08763      99.75023      -786.83786      263.49713     -4021.3641      1920.3708      0.9969611
     41000  -648.97224      123.98111     -772.95335      327.50467      574.81954      1920.3708      0.9969611
     42000  -681.17303      117.72625     -798.89928      310.98203     -824.77703      1920.3708      0.9969611
     43000  -695.08677      108.68219     -803.76896      287.09151      762.57922      1920.3708      0.9969611
     44000  -666.88453      117.05596     -783.94048      309.21141     -1234.6233      1920.3708      0.9969611
     45000  -666.03661      116.71719     -782.7538       308.31652      1154.8181      1920.3708      0.9969611
     46000  -680.39004      111.09229     -791.48233      293.45797      369.71596      1920.3708      0.9969611
     47000  -653.29967      128.17653     -781.4762       338.58716     -2220.6899      1920.3708      0.9969611
     48000  -686.95105      114.22565     -801.1767       301.73496     -1969.7555      1920.3708      0.9969611
     49000  -708.3474       98.754381     -807.10178      260.86652     -809.9093       1920.3708      0.9969611
     50000  -660.11113      105.57369     -765.68483      278.88021     -983.32179      1920.3708      0.9969611
     51000  -659.11026      118.64508     -777.75534      313.40918     -334.57987      1920.3708      0.9969611
     52000  -682.11926      109.56901     -791.68827      289.4341      -113.6339       1920.3708      0.9969611
     53000  -722.14534      98.544137     -820.68947      260.31115     -944.22759      1920.3708      0.9969611
     54000  -670.4884       118.64463     -789.13303      313.40799     -691.66549      1920.3708      0.9969611
     55000  -665.79026      122.96019     -788.75045      324.80783     -213.40085      1920.3708      0.9969611
     56000  -679.15583      116.1295      -795.28533      306.7641      -942.75113      1920.3708      0.9969611
     57000  -660.78103      129.8887      -790.66973      343.10998      634.3267       1920.3708      0.9969611
     58000  -662.81068      124.38738     -787.19806      328.57786      553.31652      1920.3708      0.9969611
     59000  -676.87653      117.49137     -794.36789      310.36157      498.29727      1920.3708      0.9969611
     60000  -675.96925      115.4029      -791.37216      304.84475      2311.0867      1920.3708      0.9969611
     61000  -652.39054      111.6283      -764.01884      294.87387      1134.6365      1920.3708      0.9969611
     62000  -647.75939      124.45795     -772.21734      328.76428     -245.74473      1920.3708      0.9969611
     63000  -664.60715      107.91258     -772.51972      285.05853     -588.01474      1920.3708      0.9969611
     64000  -701.82568      106.63777     -808.46345      281.69104     -3266.1262      1920.3708      0.9969611
     65000  -673.0091       114.64811     -787.65722      302.85092      1158.1663      1920.3708      0.9969611
     66000  -663.54383      124.39117     -787.93499      328.58787     -3533.1042      1920.3708      0.9969611
     67000  -656.66432      113.72716     -770.39148      300.41815      1381.264       1920.3708      0.9969611
     68000  -684.72078      122.27862     -806.9994       323.00743     -723.78774      1920.3708      0.9969611
     69000  -676.48756      110.08064     -786.5682       290.78562      1787.6862      1920.3708      0.9969611
     70000  -679.44544      110.2432      -789.68864      291.21503      502.37988      1920.3708      0.9969611
     71000  -673.59238      106.85526     -780.44764      282.26555     -629.8216       1920.3708      0.9969611
     72000  -653.03806      112.69145     -765.7295       297.68224     -87.906677      1920.3708      0.9969611
     73000  -695.75355      108.98541     -804.73896      287.89249     -1206.973       1920.3708      0.9969611
     74000  -671.40107      112.10736     -783.50844      296.13935     -1499.7136      1920.3708      0.9969611
     75000  -649.46282      122.59905     -772.06187      323.85387     -824.85972      1920.3708      0.9969611
     76000  -669.54025      112.3126      -781.85284      296.68148      761.98036      1920.3708      0.9969611
     77000  -647.01469      112.56952     -759.58421      297.36018     -2883.449       1920.3708      0.9969611
     78000  -643.4614       123.56449     -767.0259       326.40415     -1937.3834      1920.3708      0.9969611
     79000  -636.25422      125.59082     -761.84504      331.75684     -875.68468      1920.3708      0.9969611
     80000  -644.28113      126.07876     -770.35989      333.04575     -673.29026      1920.3708      0.9969611
     81000  -645.02939      122.35476     -767.38415      323.20854      319.59604      1920.3708      0.9969611
     82000  -666.84926      97.298488     -764.14775      257.02068     -726.10363      1920.3708      0.9969611
     83000  -640.23408      125.39414     -765.62821      331.23728     -489.97251      1920.3708      0.9969611
     84000  -670.7678       118.689       -789.4568       313.5252      -2004.0458      1920.3708      0.9969611
     85000  -680.86409      105.91193     -786.77602      279.77368      421.49605      1920.3708      0.9969611
     86000  -675.73239      122.00504     -797.73743      322.28474      911.50323      1920.3708      0.9969611
     87000  -677.52723      115.41852     -792.94575      304.88599      2839.9362      1920.3708      0.9969611
     88000  -683.11502      120.8626      -803.97762      319.26692     -463.44932      1920.3708      0.9969611
     89000  -667.43848      125.44164     -792.88012      331.36276     -775.53515      1920.3708      0.9969611
     90000  -683.77039      99.350972     -783.12136      262.44246     -3633.2277      1920.3708      0.9969611
     91000  -682.11384      109.11056     -791.2244       288.22309     -3336.8739      1920.3708      0.9969611
     92000  -684.52185      123.27322     -807.79507      325.63474     -566.64945      1920.3708      0.9969611
     93000  -711.06419      87.945602     -799.00979      232.31439     -1583.1906      1920.3708      0.9969611
     94000  -677.26943      113.15039     -790.41982      298.89458      4441.1604      1920.3708      0.9969611
     95000  -662.41753      106.44453     -768.86206      281.18057     -1234.1494      1920.3708      0.9969611
     96000  -681.53242      115.66237     -797.19479      305.53015     -1376.6197      1920.3708      0.9969611
     97000  -671.3291       101.24009     -772.56919      267.4327       73.973714      1920.3708      0.9969611
     98000  -681.39283      104.1592      -785.55203      275.14372      1249.3881      1920.3708      0.9969611
     99000  -631.32507      140.76115     -772.08623      371.83031     -1266.1815      1920.3708      0.9969611
    100000  -690.72065      102.22078     -792.94144      270.02326     -504.35562      1920.3708      0.9969611
    101000  -665.68493      121.04362     -786.72855      319.74509     -342.60771      1920.3708      0.9969611
    102000  -681.25975      101.49814     -782.75789      268.11435     -414.12024      1920.3708      0.9969611
    103000  -667.55796      110.65937     -778.21733      292.31438     -771.08091      1920.3708      0.9969611
    104000  -670.28329      118.04572     -788.32901      311.82592     -126.66149      1920.3708      0.9969611
    105000  -669.81573      109.48266     -779.29839      289.20601     -3987.569       1920.3708      0.9969611
    106000  -666.40781      118.8204      -785.2282       313.87229      143.02537      1920.3708      0.9969611
    107000  -678.76054      99.660828     -778.42136      263.26097      1038.7615      1920.3708      0.9969611
    108000  -653.39685      105.51074     -758.9076       278.71392      285.95412      1920.3708      0.9969611
    109000  -645.2248       110.90143     -756.12623      292.95379     -1287.4266      1920.3708      0.9969611
    110000  -624.15857      124.06072     -748.21929      327.71496      1794.2006      1920.3708      0.9969611
    111000  -658.27184      119.96611     -778.23795      316.89877      2043.1505      1920.3708      0.9969611
    112000  -684.04783      119.44848     -803.4963       315.53141     -905.581        1920.3708      0.9969611
    113000  -700.05129      93.115576     -793.16687      245.97123      372.3596       1920.3708      0.9969611
    114000  -664.24544      105.28578     -769.53122      278.11967     -64.45915       1920.3708      0.9969611
    115000  -654.46337      118.80624     -773.26962      313.8349      -1244.6303      1920.3708      0.9969611
    116000  -690.7169       103.10318     -793.82008      272.35417     -870.86528      1920.3708      0.9969611
    117000  -706.60354      93.140701     -799.74424      246.0376      -1299.8711      1920.3708      0.9969611
    118000  -661.7845       117.97542     -779.75992      311.64023     -227.35521      1920.3708      0.9969611
    119000  -635.5002       107.97662     -743.47682      285.2277      -81.166137      1920.3708      0.9969611
    120000  -651.51249      110.65994     -762.17244      292.31589     -3731.4219      1920.3708      0.9969611
    121000  -651.67215      108.85632     -760.52847      287.55149     -216.21411      1920.3708      0.9969611
    122000  -679.09383      102.62715     -781.72099      271.09672     -580.64683      1920.3708      0.9969611
    123000  -657.87662      108.49056     -766.36718      286.58531      745.8319       1920.3708      0.9969611
    124000  -657.36766      122.77478     -780.14244      324.31807      340.8985       1920.3708      0.9969611
    125000  -676.2431       117.76388     -794.00699      311.08144     -1639.9564      1920.3708      0.9969611
    126000  -672.83387      115.23628     -788.07015      304.4046       4556.8074      1920.3708      0.9969611
    127000  -659.59884      115.14158     -774.74042      304.15445     -430.79988      1920.3708      0.9969611
    128000  -661.45301      121.55143     -783.00444      321.0865       476.48698      1920.3708      0.9969611
    129000  -676.11714      110.50526     -786.6224       291.90729     -1523.2726      1920.3708      0.9969611
    130000  -678.26312      112.17994     -790.44306      296.33107      1385.7638      1920.3708      0.9969611
    131000  -658.42194      123.14447     -781.5664       325.29462      365.70668      1920.3708      0.9969611
    132000  -688.62271      103.93732     -792.56003      274.55762     -2335.7214      1920.3708      0.9969611
    133000  -640.06495      133.7762      -773.84114      353.37907      797.68773      1920.3708      0.9969611
    134000  -668.22897      112.23888     -780.46785      296.48676     -1201.8005      1920.3708      0.9969611
    135000  -668.42627      100.52396     -768.95024      265.541        159.10087      1920.3708      0.9969611
    136000  -668.55701      113.68767     -782.24468      300.31383     -2979.4476      1920.3708      0.9969611
    137000  -678.62246      116.43005     -795.05251      307.55803     -565.55114      1920.3708      0.9969611
    138000  -689.05566      110.04655     -799.10221      290.69557      442.56482      1920.3708      0.9969611
    139000  -671.12681      122.33109     -793.4579       323.14602     -129.06382      1920.3708      0.9969611
    140000  -689.59277      102.83544     -792.42821      271.64692      721.53777      1920.3708      0.9969611
    141000  -673.38708      115.05597     -788.44305      303.92829     -213.70432      1920.3708      0.9969611
    142000  -672.7434       114.80138     -787.54477      303.25577     -2247.8482      1920.3708      0.9969611
    143000  -659.65625      109.49414     -769.15039      289.23635     -2921.7675      1920.3708      0.9969611
    144000  -654.87524      113.41371     -768.28895      299.59016     -1445.9581      1920.3708      0.9969611
    145000  -647.24662      125.79377     -773.04039      332.29295     -813.00462      1920.3708      0.9969611
    146000  -676.05874      104.53435     -780.59309      276.1347       3524.9015      1920.3708      0.9969611
    147000  -664.47128      104.18957     -768.66085      275.22395     -3076.9174      1920.3708      0.9969611
    148000  -657.62225      121.11526     -778.73752      319.93434     -759.97178      1920.3708      0.9969611
    149000  -657.61088      127.63511     -785.24598      337.15695      1118.6047      1920.3708      0.9969611
    150000  -660.31669      113.04326     -773.35995      298.61159      149.34664      1920.3708      0.9969611
    151000  -662.62194      125.15765     -787.77959      330.61258     -1472.3447      1920.3708      0.9969611
    152000  -675.50933      119.46804     -794.97737      315.58308     -2770.7944      1920.3708      0.9969611
    153000  -683.52623      112.80593     -796.33215      297.98465      1302.6321      1920.3708      0.9969611
    154000  -681.37979      107.27429     -788.65408      283.37245     -3304.2031      1920.3708      0.9969611
    155000  -662.56927      108.36142     -770.93068      286.24417     -2509.5945      1920.3708      0.9969611
    156000  -662.57855      114.95658     -777.53513      303.66575     -295.74444      1920.3708      0.9969611
    157000  -689.5849       106.22626     -795.81116      280.60402      1991.6797      1920.3708      0.9969611
    158000  -655.49477      116.01261     -771.50738      306.45533     -1990.4578      1920.3708      0.9969611
    159000  -672.57024      107.22974     -779.79998      283.25478     -1476.7772      1920.3708      0.9969611
    160000  -702.66877      95.477861     -798.14663      252.21137      1009.2052      1920.3708      0.9969611
    161000  -676.46931      113.02597     -789.49528      298.56592     -905.8          1920.3708      0.9969611
    162000  -693.70419      107.2691      -800.97329      283.35874      2613.097       1920.3708      0.9969611
    163000  -695.08533      101.47781     -796.56313      268.06064      391.64795      1920.3708      0.9969611
    164000  -676.1667       112.1991      -788.3658       296.38168     -232.60829      1920.3708      0.9969611
    165000  -671.01493      124.85135     -795.86627      329.80346      169.46616      1920.3708      0.9969611
    166000  -677.48461      110.06324     -787.54785      290.73964     -2581.0377      1920.3708      0.9969611
    167000  -676.83743      112.09021     -788.92764      296.09403     -127.3817       1920.3708      0.9969611
    168000  -685.46707      105.18259     -790.64967      277.84709      1736.8577      1920.3708      0.9969611
    169000  -675.45438      114.14645     -789.60083      301.52574     -2723.5556      1920.3708      0.9969611
    170000  -669.60537      110.57181     -780.17718      292.08307     -556.42979      1920.3708      0.9969611
    171000  -664.95745      117.58124     -782.53869      310.59898     -1420.4721      1920.3708      0.9969611
    172000  -681.35703      118.67331     -800.03034      313.48375      438.90768      1920.3708      0.9969611
    173000  -668.54291      113.79285     -782.33576      300.59168     -2034.1435      1920.3708      0.9969611
    174000  -697.56579      100.66233     -798.22812      265.90649     -710.10537      1920.3708      0.9969611
    175000  -688.92772      112.88759     -801.8153       298.20036     -958.93526      1920.3708      0.9969611
    176000  -666.22085      105.38874     -771.60959      278.39164      93.294523      1920.3708      0.9969611
    177000  -671.18123      120.33581     -791.51703      317.87535     -47.408537      1920.3708      0.9969611
    178000  -651.37695      115.69421     -767.07116      305.61425     -795.33945      1920.3708      0.9969611
    179000  -675.29012      100.05616     -775.34628      264.30525     -1612.3672      1920.3708      0.9969611
    180000  -645.24142      115.76279     -761.00421      305.79542     -554.53669      1920.3708      0.9969611
    181000  -677.61028      118.86803     -796.47831      313.99812      3631.6931      1920.3708      0.9969611
    182000  -668.19079      117.8018      -785.99259      311.18159      2054.5478      1920.3708      0.9969611
    183000  -690.02585      101.77225     -791.7981       268.83844     -2014.4795      1920.3708      0.9969611
    184000  -657.07183      104.76547     -761.83731      276.74524     -792.30107      1920.3708      0.9969611
    185000  -681.33016      108.13896     -789.46912      285.65654     -3603.9006      1920.3708      0.9969611
    186000  -657.963        115.22394     -773.18695      304.37201     -1587.7549      1920.3708      0.9969611
    187000  -679.27649      108.71791     -787.9944       287.18586     -2116.737       1920.3708      0.9969611
    188000  -701.84571      113.54808     -815.39379      299.9451      -1222.1025      1920.3708      0.9969611
    189000  -690.68005      107.66332     -798.34337      284.4001       1504.3062      1920.3708      0.9969611
    190000  -696.2288       100.53535     -796.76415      265.57108     -549.43593      1920.3708      0.9969611
    191000  -681.50084      109.07615     -790.57699      288.13218     -2017.6625      1920.3708      0.9969611
    192000  -689.29299      111.50938     -800.80236      294.55972      2417.4993      1920.3708      0.9969611
    193000  -658.03352      112.71885     -770.75238      297.75464     -1255.1711      1920.3708      0.9969611
    194000  -676.02689      113.86168     -789.88857      300.7735      -3820.5497      1920.3708      0.9969611
    195000  -665.8002       116.36947     -782.16967      307.398       -781.97008      1920.3708      0.9969611
    196000  -680.96953      112.19678     -793.16631      296.37554      1330.7198      1920.3708      0.9969611
    197000  -671.97572      109.64372     -781.61944      289.63148     -2346.5         1920.3708      0.9969611
    198000  -694.75914      109.59284     -804.35197      289.49705      302.1804       1920.3708      0.9969611
    199000  -674.91477      115.40086     -790.31563      304.83935      1451.7536      1920.3708      0.9969611
    200000  -682.64488      108.5579      -791.20279      286.76321      490.61198      1920.3708      0.9969611
    201000  -670.04668      116.67533     -786.72201      308.20595     -1777.557       1920.3708      0.9969611
    202000  -657.33027      118.34191     -775.67217      312.60832     -1479.409       1920.3708      0.9969611
    203000  -662.13703      107.12538     -769.26241      282.97909     -602.14791      1920.3708      0.9969611
    204000  -688.56123      118.89574     -807.45697      314.07131     -2116.8038      1920.3708      0.9969611
    205000  -678.82457      118.01017     -796.83475      311.73202     -929.06821      1920.3708      0.9969611
    206000  -655.19887      114.87108     -770.06996      303.43991      849.06246      1920.3708      0.9969611
    207000  -679.78572      114.8033      -794.58902      303.26085     -1259.9235      1920.3708      0.9969611
    208000  -655.41302      125.72928     -781.1423       332.12259     -728.4693       1920.3708      0.9969611
    209000  -684.2282       111.71151     -795.93971      295.09367      170.36146      1920.3708      0.9969611
    210000  -635.72         129.40958     -765.12959      341.84436     -114.38395      1920.3708      0.9969611
    211000  -673.29797      113.55621     -786.85418      299.96658     -4004.823       1920.3708      0.9969611
    212000  -666.05231      113.02666     -779.07897      298.56772     -1540.8487      1920.3708      0.9969611
    213000  -653.19716      110.71791     -763.91507      292.46901      727.64514      1920.3708      0.9969611
    214000  -656.05968      113.78418     -769.84386      300.56878     -1100.6624      1920.3708      0.9969611
    215000  -639.5302       118.96884     -758.49904      314.26441      571.72849      1920.3708      0.9969611
    216000  -653.12803      108.7451      -761.87313      287.2577      -1785.92        1920.3708      0.9969611
    217000  -672.39517      106.96193     -779.3571       282.54733      1603.1259      1920.3708      0.9969611
    218000  -669.77004      108.45284     -778.22288      286.48566      825.52199      1920.3708      0.9969611
    219000  -667.56499      110.09323     -777.65822      290.81888     -3666.949       1920.3708      0.9969611
    220000  -682.1073       106.81839     -788.92569      282.16815     -612.74167      1920.3708      0.9969611
    221000  -670.20891      113.99287     -784.20178      301.12006     -1870.7145      1920.3708      0.9969611
    222000  -667.01516      115.56834     -782.5835       305.28176     -1666.0325      1920.3708      0.9969611
    223000  -674.45403      102.7718      -777.22583      271.47882     -2529.8992      1920.3708      0.9969611
    224000  -680.21466      111.05267     -791.26733      293.3533       1324.1586      1920.3708      0.9969611
    225000  -684.0354       93.596104     -777.6315       247.24058     -139.79351      1920.3708      0.9969611
    226000  -651.66051      119.13748     -770.79799      314.70989     -1749.6743      1920.3708      0.9969611
    227000  -655.0338       130.38768     -785.42147      344.42806      739.6742       1920.3708      0.9969611
    228000  -674.59374      115.87082     -790.46455      306.08077     -1791.9141      1920.3708      0.9969611
    229000  -653.03448      120.25453     -773.28901      317.66066      954.13762      1920.3708      0.9969611
    230000  -651.32953      114.96056     -766.29008      303.67626      4164.7563      1920.3708      0.9969611
    231000  -677.52864      115.77085     -793.29949      305.81669     -820.40059      1920.3708      0.9969611
    232000  -665.69426      114.26477     -779.95903      301.8383       91.195533      1920.3708      0.9969611
    233000  -670.67443      109.18239     -779.85682      288.41283     -639.32195      1920.3708      0.9969611
    234000  -690.47317      105.62798     -796.10115      279.0236      -1315.0806      1920.3708      0.9969611
    235000  -680.26323      102.2017      -782.46493      269.97285      534.1626       1920.3708      0.9969611
    236000  -655.0326       123.42802     -778.46062      326.04364     -366.00209      1920.3708      0.9969611
    237000  -671.36783      108.34517     -779.713        286.20127     -413.59601      1920.3708      0.9969611
    238000  -672.2821       105.1752      -777.4573       277.82755     -2083.7748      1920.3708      0.9969611
    239000  -670.18088      117.19131     -787.37219      309.56895      606.57169      1920.3708      0.9969611
    240000  -701.7401       99.94456      -801.68466      264.01046     -4368.5258      1920.3708      0.9969611
    241000  -686.70945      113.44003     -800.14948      299.65968     -1442.3702      1920.3708      0.9969611
    242000  -698.42513      103.22833     -801.65346      272.68478     -1059.8198      1920.3708      0.9969611
    243000  -659.8872       118.97315     -778.86035      314.27581     -1901.9005      1920.3708      0.9969611
    244000  -652.83551      117.01915     -769.85466      309.11416      2936.185       1920.3708      0.9969611
    245000  -680.26093      114.15117     -794.4121       301.5382      -130.46758      1920.3708      0.9969611
    246000  -661.2796       113.40286     -774.68246      299.5615      -1514.4423      1920.3708      0.9969611
    247000  -690.93269      109.77423     -800.70691      289.9762      -563.01194      1920.3708      0.9969611
    248000  -698.52469      115.46294     -813.98763      305.00335      2191.7697      1920.3708      0.9969611
    249000  -686.85349      96.983246     -783.83673      256.18795      1243.7122      1920.3708      0.9969611
    250000  -665.20865      112.646       -777.85465      297.56218     -40.859052      1920.3708      0.9969611
    251000  -654.61345      118.21387     -772.82732      312.27011     -677.8325       1920.3708      0.9969611
    252000  -635.23546      125.9425      -761.17795      332.68581     -1915.7225      1920.3708      0.9969611
    253000  -684.36932      117.12697     -801.49629      309.39898     -1654.0273      1920.3708      0.9969611
    254000  -697.19552      106.12436     -803.31988      280.33483      1037.8526      1920.3708      0.9969611
    255000  -662.20718      124.08997     -786.29715      327.79222     -395.72671      1920.3708      0.9969611
    256000  -635.88441      115.51411     -751.39852      305.13851     -2336.4613      1920.3708      0.9969611
    257000  -640.89309      110.38113     -751.27423      291.57939     -139.45498      1920.3708      0.9969611
    258000  -666.63838      106.89338     -773.53176      282.36625     -2494.1566      1920.3708      0.9969611
    259000  -659.59588      109.96994     -769.56581      290.49319      617.14401      1920.3708      0.9969611
    260000  -670.05642      114.81469     -784.87112      303.29095      1234.6223      1920.3708      0.9969611
    261000  -671.06048      110.70083     -781.76131      292.42388      645.93573      1920.3708      0.9969611
    262000  -693.8381       107.22122     -801.05932      283.23226     -2026.6686      1920.3708      0.9969611
    263000  -663.78327      109.00906     -772.79233      287.95497     -413.3763       1920.3708      0.9969611
    264000  -686.75366      115.96097     -802.71463      306.31891     -455.50062      1920.3708      0.9969611
    265000  -646.70084      117.85609     -764.55693      311.325        328.17108      1920.3708      0.9969611
    266000  -684.07048      96.87372      -780.9442       255.89863     -2309.0411      1920.3708      0.9969611
    267000  -656.59825      120.49999     -777.09825      318.30906     -1007.7762      1920.3708      0.9969611
    268000  -667.52217      104.48325     -772.00541      275.99972     -1366.9738      1920.3708      0.9969611
    269000  -696.85192      101.15378     -798.0057       267.2047      -1587.0109      1920.3708      0.9969611
    270000  -688.9237       110.42163     -799.34533      291.68638     -1413.4423      1920.3708      0.9969611
    271000  -663.07011      117.63765     -780.70775      310.74797      175.8007       1920.3708      0.9969611
    272000  -689.49458      104.08913     -793.58372      274.95864     -2268.9048      1920.3708      0.9969611
    273000  -662.07386      123.7826      -785.85647      326.9803       67.258928      1920.3708      0.9969611
    274000  -674.47805      116.52927     -791.00733      307.82013      9.9456355      1920.3708      0.9969611
    275000  -660.39262      114.55537     -774.94798      302.60592     -530.58413      1920.3708      0.9969611
    276000  -665.57485      113.01104     -778.58589      298.52648     -1779.7778      1920.3708      0.9969611
    277000  -696.59362      96.599875     -793.19349      255.17524     -1906.2602      1920.3708      0.9969611
    278000  -668.27513      105.09188     -773.36702      277.60747      587.88007      1920.3708      0.9969611
    279000  -675.08423      125.89966     -800.98389      332.57264     -462.2761       1920.3708      0.9969611
    280000  -656.50225      120.55922     -777.06147      318.46551      1199.5094      1920.3708      0.9969611
    281000  -667.33847      109.19991     -776.53839      288.45912      46.003635      1920.3708      0.9969611
    282000  -682.72873      109.26681     -791.99554      288.63584     -2881.4721      1920.3708      0.9969611
    283000  -676.84789      108.19272     -785.04061      285.79856      639.44974      1920.3708      0.9969611
    284000  -658.84917      118.69086     -777.54003      313.5301      -1894.315       1920.3708      0.9969611
    285000  -687.24511      100.29753     -787.54264      264.94285     -4475.5988      1920.3708      0.9969611
    286000  -670.51214      111.23716     -781.7493       293.84065     -4073.3221      1920.3708      0.9969611
    287000  -683.96329      101.14177     -785.10507      267.17299     -1190.9701      1920.3708      0.9969611
    288000  -660.48697      107.66809     -768.15506      284.4127      -1528.7491      1920.3708      0.9969611
    289000  -669.62248      110.84588     -780.46835      292.80705     -710.54493      1920.3708      0.9969611
    290000  -626.22124      109.04952     -735.27076      288.06184      52.279322      1920.3708      0.9969611
    291000  -655.60934      114.18671     -769.79605      301.63209      1751.7289      1920.3708      0.9969611
    292000  -658.88209      116.2713      -775.15339      307.13866     -381.97215      1920.3708      0.9969611
    293000  -675.14078      102.25166     -777.39244      270.10483     -2344.481       1920.3708      0.9969611
    294000  -642.777        121.57218     -764.34918      321.14133     -3279.2981      1920.3708      0.9969611
    295000  -676.94199      115.96976     -792.91175      306.34213     -1135.9616      1920.3708      0.9969611
    296000  -686.74393      110.78522     -797.52914      292.64681      1486.6035      1920.3708      0.9969611
    297000  -663.39037      114.29028     -777.68065      301.90567      1853.0378      1920.3708      0.9969611
    298000  -684.34301      106.00861     -790.35162      280.02907      3311.6129      1920.3708      0.9969611
    299000  -669.71123      118.69628     -788.40751      313.54443      410.44776      1920.3708      0.9969611
    300000  -714.4672       101.86635     -816.33355      269.08701     -1406.2705      1920.3708      0.9969611
    301000  -670.18343      104.89916     -775.08259      277.09838     -2925.9664      1920.3708      0.9969611
    302000  -680.31216      110.78688     -791.09904      292.6512      -204.36132      1920.3708      0.9969611
    303000  -654.07765      127.85818     -781.93583      337.74623     -1076.4401      1920.3708      0.9969611
    304000  -671.08239      99.296181     -770.37857      262.29772      928.35974      1920.3708      0.9969611
    305000  -659.43647      112.06806     -771.50452      296.03552     -5784.7794      1920.3708      0.9969611
    306000  -670.33911      112.78656     -783.12567      297.9335      -1535.5785      1920.3708      0.9969611
    307000  -684.4092       102.06073     -786.46993      269.60048     -2897.1118      1920.3708      0.9969611
    308000  -661.71442      109.33511     -771.04954      288.81626      1275.6151      1920.3708      0.9969611
    309000  -665.03799      112.72861     -777.7666       297.78042     -2500.0386      1920.3708      0.9969611
    310000  -668.00335      115.93022     -783.93357      306.23769      643.82895      1920.3708      0.9969611
    311000  -656.20654      102.91864     -759.12518      271.86669     -3129.4872      1920.3708      0.9969611
    312000  -649.00363      115.13315     -764.13678      304.13218     -851.63727      1920.3708      0.9969611
    313000  -675.29278      114.64963     -789.94241      302.85492     -986.98283      1920.3708      0.9969611
    314000  -680.70021      111.40018     -792.10039      294.27127     -571.99994      1920.3708      0.9969611
    315000  -671.997        120.68803     -792.68503      318.80577      867.13984      1920.3708      0.9969611
    316000  -667.85364      113.13965     -780.99329      298.8662      -510.9067       1920.3708      0.9969611
    317000  -673.46958      105.11924     -778.58881      277.67973     -638.84298      1920.3708      0.9969611
    318000  -675.76151      105.71215     -781.47366      279.24596     -1731.2919      1920.3708      0.9969611
    319000  -654.59695      140.60785     -795.2048       371.42535      253.12991      1920.3708      0.9969611
    320000  -663.7386       109.18909     -772.92769      288.43052      1828.8903      1920.3708      0.9969611
    321000  -682.29844      93.903876     -776.20232      248.05358     -1921.1774      1920.3708      0.9969611
    322000  -664.24844      116.07492     -780.32337      306.61993     -5884.2409      1920.3708      0.9969611
    323000  -672.50546      109.4055      -781.91096      289.00218     -1165.3386      1920.3708      0.9969611
    324000  -670.72613      110.11803     -780.84416      290.88438     -1336.8347      1920.3708      0.9969611
    325000  -662.31575      119.47033     -781.78609      315.58914      638.35057      1920.3708      0.9969611
    326000  -668.27653      114.38369     -782.66022      302.15242     -1146.9485      1920.3708      0.9969611
    327000  -691.31156      103.07176     -794.38332      272.27119     -28.852653      1920.3708      0.9969611
    328000  -688.64791      95.925319     -784.57323      253.39336      942.72494      1920.3708      0.9969611
    329000  -655.18179      120.93492     -776.1167       319.45794     -119.48715      1920.3708      0.9969611
    330000  -663.87521      122.05888     -785.93409      322.42697     -1220.2277      1920.3708      0.9969611
    331000  -684.7758       106.76205     -791.53786      282.01934     -1382.3522      1920.3708      0.9969611
    332000  -671.75274      102.9056      -774.65834      271.83227     -1044.5898      1920.3708      0.9969611
    333000  -650.78231      115.25221     -766.03451      304.44667      2163.3193      1920.3708      0.9969611
    334000  -665.74703      112.62951     -778.37654      297.51864      1481.486       1920.3708      0.9969611
    335000  -654.87812      131.08744     -785.96556      346.27653      242.58439      1920.3708      0.9969611
    336000  -657.50096      128.75371     -786.25467      340.11181      419.27897      1920.3708      0.9969611
    337000  -689.08703      102.65774     -791.74477      271.17751      1418.4515      1920.3708      0.9969611
    338000  -672.29333      109.81222     -782.10554      290.07656      579.7072       1920.3708      0.9969611
    339000  -669.40602      116.21804     -785.62406      306.99799     -465.6071       1920.3708      0.9969611
    340000  -658.46214      130.69541     -789.15755      345.24096     -480.32336      1920.3708      0.9969611
    341000  -688.12896      103.12468     -791.25364      272.41097      4195.3033      1920.3708      0.9969611
    342000  -660.17664      111.44288     -771.61952      294.38407     -866.2294       1920.3708      0.9969611
    343000  -683.9703       100.31218     -784.28247      264.98155     -2768.7951      1920.3708      0.9969611
    344000  -663.07371      132.24019     -795.31389      349.32159     -3256.5551      1920.3708      0.9969611
    345000  -671.0736       103.52905     -774.60265      273.47915     -444.56181      1920.3708      0.9969611
    346000  -661.54377      123.50032     -785.04409      326.23462     -1489.6315      1920.3708      0.9969611
    347000  -651.76223      123.63587     -775.3981       326.5927      -694.78835      1920.3708      0.9969611
    348000  -674.94331      107.96451     -782.90782      285.19571     -1817.8081      1920.3708      0.9969611
    349000  -687.26987      107.0886      -794.35847      282.88193     -1715.2831      1920.3708      0.9969611
    350000  -663.56533      113.12195     -776.68728      298.81945     -2635.3723      1920.3708      0.9969611
    351000  -690.60747      110.10719     -800.71465      290.85574     -1672.5754      1920.3708      0.9969611
    352000  -663.86146      134.64945     -798.51091      355.68582      1736.7287      1920.3708      0.9969611
    353000  -690.67915      109.60332     -800.28248      289.52475     -26.111284      1920.3708      0.9969611
    354000  -688.43428      106.40959     -794.84388      281.0883       1704.7928      1920.3708      0.9969611
    355000  -679.29598      123.42234     -802.71833      326.02865      1232.905       1920.3708      0.9969611
    356000  -704.73888      95.551047     -800.28993      252.40469     -1143.5935      1920.3708      0.9969611
    357000  -638.10843      106.12552     -744.23395      280.33791     -2646.0862      1920.3708      0.9969611
    358000  -633.18459      118.79216     -751.97675      313.79771     -3288.7893      1920.3708      0.9969611
    359000  -654.81478      115.27147     -770.08624      304.49755     -1779.6349      1920.3708      0.9969611
    360000  -676.16078      104.97343     -781.13421      277.29457     -1562.3785      1920.3708      0.9969611
    361000  -676.3088       118.02741     -794.3362       311.77756     -2965.4672      1920.3708      0.9969611
    362000  -673.33318      110.86157     -784.19476      292.84851      867.63356      1920.3708      0.9969611
    363000  -673.44092      107.308       -780.74891      283.46149      1873.9284      1920.3708      0.9969611
    364000  -674.57719      104.61597     -779.19316      276.35032     -1019.2379      1920.3708      0.9969611
    365000  -699.79909      107.93555     -807.73464      285.11921     -2582.7362      1920.3708      0.9969611
    366000  -694.76175      107.42902     -802.19077      283.78118     -273.30191      1920.3708      0.9969611
    367000  -693.87924      114.3107      -808.18993      301.95961     -1820.4777      1920.3708      0.9969611
    368000  -693.96383      93.33964      -787.30347      246.56311     -180.2767       1920.3708      0.9969611
    369000  -660.24316      129.30771     -789.55088      341.57526      1495.2897      1920.3708      0.9969611
    370000  -682.95037      120.68513     -803.6355       318.79811     -1024.1074      1920.3708      0.9969611
    371000  -677.58579      104.7065      -782.29228      276.58945      1064.9492      1920.3708      0.9969611
    372000  -668.2054       123.64872     -791.85412      326.62663      1731.78        1920.3708      0.9969611
    373000  -678.89157      114.57767     -793.46924      302.66483     -1180.3975      1920.3708      0.9969611
    374000  -687.22963      95.306567     -782.5362       251.75888      396.11458      1920.3708      0.9969611
    375000  -657.73787      116.16296     -773.90083      306.85249     -1007.623       1920.3708      0.9969611
    376000  -673.81259      117.96147     -791.77405      311.60337      500.67603      1920.3708      0.9969611
    377000  -684.21319      110.48577     -794.69896      291.8558       1218.2066      1920.3708      0.9969611
    378000  -679.25357      118.25385     -797.50742      312.37571      1553.5772      1920.3708      0.9969611
    379000  -666.27417      105.35265     -771.62681      278.29629      1596.2493      1920.3708      0.9969611
    380000  -685.60303      109.00926     -794.6123       287.95551     -1897.1489      1920.3708      0.9969611
    381000  -664.92358      109.24465     -774.16823      288.57729      1644.7635      1920.3708      0.9969611
    382000  -663.48626      113.51775     -777.00401      299.86498      1245.7478      1920.3708      0.9969611
    383000  -690.55413      106.219       -796.77313      280.58482     -261.96479      1920.3708      0.9969611
    384000  -659.18099      120.12147     -779.30246      317.30917     -1006.7522      1920.3708      0.9969611
    385000  -688.0978       103.96577     -792.06357      274.63278     -1165.3875      1920.3708      0.9969611
    386000  -680.21621      106.25115     -786.46735      280.66974     -759.27627      1920.3708      0.9969611
    387000  -666.63181      111.14268     -777.77449      293.59106      0.13080133     1920.3708      0.9969611
    388000  -653.14869      120.18268     -773.33137      317.47085     -3339.4003      1920.3708      0.9969611
    389000  -648.9971       132.41084     -781.40793      349.77237     -2940.6245      1920.3708      0.9969611
    390000  -654.35651      127.76268     -782.11919      337.49395      614.2769       1920.3708      0.9969611
    391000  -676.36697      102.74831     -779.11527      271.41675      206.53353      1920.3708      0.9969611
    392000  -660.75046      110.23718     -770.98764      291.19913      2733.5897      1920.3708      0.9969611
    393000  -655.81808      117.747       -773.56508      311.03684     -138.50443      1920.3708      0.9969611
    394000  -662.10173      106.16126     -768.26299      280.43232      2548.2349      1920.3708      0.9969611
    395000  -684.69736      107.99169     -792.68905      285.26751     -955.14375      1920.3708      0.9969611
    396000  -636.90444      133.4563      -770.36074      352.53404     -561.92472      1920.3708      0.9969611
    397000  -668.46622      113.01135     -781.47758      298.5273       1063.6033      1920.3708      0.9969611
    398000  -682.49272      108.5667      -791.05942      286.78644     -531.00356      1920.3708      0.9969611
    399000  -670.59603      113.96858     -784.56461      301.05589     -1154.3533      1920.3708      0.9969611
    400000  -652.11022      117.76545     -769.87567      311.08557     -399.23167      1920.3708      0.9969611
    401000  -636.44093      123.87261     -760.31354      327.21805     -2731.2738      1920.3708      0.9969611
    402000  -663.77933      122.58647     -786.3658       323.82064     -1536.9859      1920.3708      0.9969611
    403000  -679.49398      109.63273     -789.12671      289.60244      425.97496      1920.3708      0.9969611
    404000  -673.50978      106.42164     -779.93142      281.12013      711.60597      1920.3708      0.9969611
    405000  -693.67041      102.85397     -796.52438      271.69588     -240.80657      1920.3708      0.9969611
    406000  -658.76052      112.78309     -771.54361      297.92432      826.49617      1920.3708      0.9969611
    407000  -675.95678      117.18591     -793.14269      309.55467     -1178.7459      1920.3708      0.9969611
    408000  -693.4301       118.65787     -812.08797      313.44297      2451.53        1920.3708      0.9969611
    409000  -643.50073      109.3251      -752.82583      288.78982      259.81283      1920.3708      0.9969611
    410000  -658.10051      114.90794     -773.00845      303.53727      2709.0601      1920.3708      0.9969611
    411000  -688.00169      111.48497     -799.48665      294.49524     -968.65687      1920.3708      0.9969611
    412000  -667.63744      117.46404     -785.10149      310.28939     -1714.3544      1920.3708      0.9969611
    413000  -641.07695      118.23973     -759.31668      312.33842      1779.5174      1920.3708      0.9969611
    414000  -675.7667       109.46087     -785.22757      289.14845     -863.55382      1920.3708      0.9969611
    415000  -688.02491      100.7434      -788.76831      266.12066     -428.75325      1920.3708      0.9969611
    416000  -682.36599      105.6023      -787.9683       278.95578     -2135.1996      1920.3708      0.9969611
    417000  -687.77274      110.2464      -798.01914      291.22348      123.06886      1920.3708      0.9969611
    418000  -687.48254      105.95433     -793.43687      279.88568     -1433.1757      1920.3708      0.9969611
    419000  -677.22834      107.45601     -784.68435      283.85249      1435.6875      1920.3708      0.9969611
    420000  -639.66884      132.16636     -771.8352       349.12658     -1192.7468      1920.3708      0.9969611
    421000  -666.36709      106.72988     -773.09697      281.93436      2160.7357      1920.3708      0.9969611
    422000  -637.7195       126.14691     -763.86641      333.22578      307.65387      1920.3708      0.9969611
    423000  -641.60815      122.4559      -764.06405      323.47572      779.79686      1920.3708      0.9969611
    424000  -685.75461      112.21742     -797.97203      296.43006      1634.8589      1920.3708      0.9969611
    425000  -679.46599      96.389758     -775.85575      254.62021      59.755997      1920.3708      0.9969611
    426000  -680.78652      111.46998     -792.2565       294.45565     -1518.4543      1920.3708      0.9969611
    427000  -654.47768      125.62458     -780.10226      331.84602     -1931.3786      1920.3708      0.9969611
    428000  -668.01559      128.91172     -796.92731      340.52922     -1464.3859      1920.3708      0.9969611
    429000  -690.17243      111.52764     -801.70007      294.60798      231.09571      1920.3708      0.9969611
    430000  -653.55127      123.76383     -777.31511      326.93072     -1651.5906      1920.3708      0.9969611
    431000  -660.86137      105.60694     -766.46831      278.96802     -1138.4495      1920.3708      0.9969611
    432000  -686.99115      100.57634     -787.56749      265.67935     -622.33275      1920.3708      0.9969611
    433000  -661.34818      114.12902     -775.4772       301.4797       1187.3139      1920.3708      0.9969611
    434000  -678.6021       96.557819     -775.15992      255.06415     -35.653198      1920.3708      0.9969611
    435000  -668.3384       123.63092     -791.96932      326.57963     -1186.8241      1920.3708      0.9969611
    436000  -696.88201      99.383641     -796.26565      262.52876     -1314.1718      1920.3708      0.9969611
    437000  -673.72201      123.51469     -797.2367       326.27258      1250.4227      1920.3708      0.9969611
    438000  -670.67632      119.53306     -790.20938      315.75483     -1275.0508      1920.3708      0.9969611
    439000  -669.79991      107.84062     -777.64053      284.86845      441.22717      1920.3708      0.9969611
    440000  -683.96718      111.18172     -795.1489       293.69419     -610.24747      1920.3708      0.9969611
    441000  -675.89957      106.95865     -782.85821      282.53865     -386.60053      1920.3708      0.9969611
    442000  -677.96636      121.41153     -799.3779       320.71696     -1664.6155      1920.3708      0.9969611
    443000  -668.46752      113.06346     -781.53098      298.66493     -1030.6925      1920.3708      0.9969611
    444000  -662.53061      121.67234     -784.20295      321.40589     -139.41428      1920.3708      0.9969611
    445000  -655.28339      116.57233     -771.85572      307.93386      2028.843       1920.3708      0.9969611
    446000  -662.78651      107.81362     -770.60014      284.79714     -2946.0654      1920.3708      0.9969611
    447000  -650.23505      118.97814     -769.21319      314.28897     -1013.4568      1920.3708      0.9969611
    448000  -635.78226      121.50546     -757.28772      320.96508      404.32361      1920.3708      0.9969611
    449000  -684.47563      107.31761     -791.79324      283.48688     -2111.491       1920.3708      0.9969611
    450000  -669.31417      105.983       -775.29717      279.96143      287.5766       1920.3708      0.9969611
    451000  -682.78303      113.85795     -796.64098      300.76365     -1281.0542      1920.3708      0.9969611
    452000  -652.7966       121.01834     -773.81494      319.6783       493.31786      1920.3708      0.9969611
    453000  -674.86667      119.20749     -794.07416      314.89481      964.47207      1920.3708      0.9969611
    454000  -663.53856      127.45415     -790.9927       336.67894     -908.85303      1920.3708      0.9969611
    455000  -689.39235      107.71548     -797.10783      284.53788     -1194.3973      1920.3708      0.9969611
    456000  -659.36068      114.73779     -774.09847      303.08779     -1620.4527      1920.3708      0.9969611
    457000  -654.08865      119.72432     -773.81297      316.26005      1080.8643      1920.3708      0.9969611
    458000  -679.90631      100.3977      -780.30401      265.20747      1980.7649      1920.3708      0.9969611
    459000  -703.32073      103.48348     -806.80422      273.35878      1350.5114      1920.3708      0.9969611
    460000  -703.73732      103.67002     -807.40733      273.85151      1276.3452      1920.3708      0.9969611
    461000  -655.30346      106.80752     -762.11098      282.13944      372.61164      1920.3708      0.9969611
    462000  -672.18335      118.27424     -790.45759      312.42958     -298.51516      1920.3708      0.9969611
    463000  -662.10475      109.46019     -771.56493      289.14665     -922.2414       1920.3708      0.9969611
    464000  -690.32016      112.85581     -803.17597      298.11643     -3049.002       1920.3708      0.9969611
    465000  -657.67239      104.35484     -762.02723      275.66052     -1498.715       1920.3708      0.9969611
    466000  -688.52023      111.89087     -800.41111      295.56747     -424.82278      1920.3708      0.9969611
    467000  -670.12006      114.71941     -784.83947      303.03926      3384.6812      1920.3708      0.9969611
    468000  -679.88182      112.12509     -792.00692      296.18619      125.74857      1920.3708      0.9969611
    469000  -645.39512      136.48911     -781.88423      360.54541     -219.96321      1920.3708      0.9969611
    470000  -672.44686      115.35804     -787.8049       304.72623     -1959.7855      1920.3708      0.9969611
    471000  -647.41512      125.63204     -773.04716      331.86573     -209.10361      1920.3708      0.9969611
    472000  -666.86669      113.90642     -780.77311      300.89169     -2052.3858      1920.3708      0.9969611
    473000  -672.61799      106.08635     -778.70434      280.23441     -706.21477      1920.3708      0.9969611
    474000  -685.83468      103.26342     -789.0981       272.77746      1730.8071      1920.3708      0.9969611
    475000  -674.33943      116.77526     -791.11468      308.46992     -1117.5513      1920.3708      0.9969611
    476000  -674.88674      103.45149     -778.33823      273.27426     -1290.8         1920.3708      0.9969611
    477000  -657.16713      121.34509     -778.51222      320.54144      1099.5868      1920.3708      0.9969611
    478000  -681.13229      112.0678      -793.20009      296.03484     -3091.0972      1920.3708      0.9969611
    479000  -665.75492      106.44377     -772.19869      281.17858     -779.42957      1920.3708      0.9969611
    480000  -671.8354       110.04656     -781.88197      290.6956      -259.01289      1920.3708      0.9969611
    481000  -679.15289      118.97147     -798.12436      314.27137     -1469.3949      1920.3708      0.9969611
    482000  -679.96587      114.06355     -794.02941      301.30674      748.10627      1920.3708      0.9969611
    483000  -666.58239      111.62505     -778.20745      294.8653      -43.882825      1920.3708      0.9969611
    484000  -663.05887      108.86614     -771.92501      287.57743     -1677.9788      1920.3708      0.9969611
    485000  -675.80514      120.13228     -795.93741      317.33771      1879.5835      1920.3708      0.9969611
    486000  -685.94617      109.34732     -795.29349      288.8485      -541.86375      1920.3708      0.9969611
    487000  -675.03245      117.9965      -793.02895      311.69591      353.91889      1920.3708      0.9969611
    488000  -662.5905       129.97868     -792.56917      343.34766      3022.4421      1920.3708      0.9969611
    489000  -675.57361      111.72502     -787.29863      295.12936      905.31583      1920.3708      0.9969611
    490000  -706.47322      115.29405     -821.76728      304.55721     -965.59526      1920.3708      0.9969611
    491000  -683.59198      109.08176     -792.67374      288.14701      2512.959       1920.3708      0.9969611
    492000  -686.47462      103.93587     -790.41049      274.55377      1034.632       1920.3708      0.9969611
    493000  -667.02025      112.8732      -779.89346      298.16237      1413.0455      1920.3708      0.9969611
    494000  -653.97921      126.59337     -780.57258      334.40513     -1689.098       1920.3708      0.9969611
    495000  -679.87489      118.91789     -798.79278      314.12982     -407.49383      1920.3708      0.9969611
    496000  -696.58091      104.02434     -800.60525      274.78748      228.83093      1920.3708      0.9969611
    497000  -685.90287      105.9721      -791.87497      279.93262      202.89994      1920.3708      0.9969611
    498000  -656.76304      110.679       -767.44204      292.36622     -2325.7568      1920.3708      0.9969611
    499000  -656.0718       112.49865     -768.57045      297.17296      690.28828      1920.3708      0.9969611
    500000  -665.62208      115.51826     -781.14034      305.14947      267.59268      1920.3708      0.9969611
    501000  -660.95         122.93674     -783.88674      324.74589      803.86905      1920.3708      0.9969611
    502000  -633.56799      124.55121     -758.1192       329.01062     -560.2251       1920.3708      0.9969611
    503000  -664.99295      104.54444     -769.5374       276.16137     -2848.5441      1920.3708      0.9969611
    504000  -661.3602       121.6905      -783.0507       321.45386     -1457.1814      1920.3708      0.9969611
    505000  -672.07888      117.91032     -789.98921      311.46827      437.77135      1920.3708      0.9969611
    506000  -691.8634       105.32863     -797.19203      278.23286      664.06452      1920.3708      0.9969611
    507000  -692.27009      106.16083     -798.43092      280.43117      3260.087       1920.3708      0.9969611
    508000  -670.98187      111.94264     -782.92451      295.70422      2173.555       1920.3708      0.9969611
    509000  -690.42904      119.54561     -809.97465      315.78799     -542.52504      1920.3708      0.9969611
    510000  -690.84224      111.22741     -802.06965      293.81489      680.5914       1920.3708      0.9969611
    511000  -676.42556      108.01489     -784.44045      285.32881     -546.8133       1920.3708      0.9969611
    512000  -665.21824      115.22494     -780.44318      304.37464     -1853.5854      1920.3708      0.9969611
    513000  -672.02715      117.00736     -789.03451      309.08304      1469.4004      1920.3708      0.9969611
    514000  -711.82372      106.8557      -818.67942      282.26671      1653.9131      1920.3708      0.9969611
    515000  -634.85422      132.7073      -767.56152      350.55551      725.58861      1920.3708      0.9969611
    516000  -668.22068      116.0759      -784.29658      306.62252     -2152.8749      1920.3708      0.9969611
    517000  -686.84462      112.34642     -799.19104      296.77084     -1627.9585      1920.3708      0.9969611
    518000  -684.72287      103.12805     -787.85092      272.41987     -1230.5816      1920.3708      0.9969611
    519000  -697.57496      105.2307      -802.80566      277.97415      3093.2448      1920.3708      0.9969611
    520000  -704.97214      108.29187     -813.26401      286.06047      1561.2453      1920.3708      0.9969611
    521000  -660.99115      121.02424     -782.0154       319.6939       2356.6595      1920.3708      0.9969611
    522000  -678.45794      110.04833     -788.50628      290.70027     -157.5785       1920.3708      0.9969611
    523000  -675.43957      109.20555     -784.64513      288.47402      1365.7591      1920.3708      0.9969611
    524000  -661.389        97.753812     -759.14281      258.22345     -1633.1167      1920.3708      0.9969611
    525000  -693.90153      113.09659     -806.99812      298.75246      220.15344      1920.3708      0.9969611
    526000  -677.32745      116.19894     -793.52639      306.94754     -1548.1321      1920.3708      0.9969611
    527000  -676.48031      116.30846     -792.78877      307.23683     -120.7377       1920.3708      0.9969611
    528000  -694.75811      111.66408     -806.42219      294.96838      528.73227      1920.3708      0.9969611
    529000  -658.60274      127.91168     -786.51443      337.88755      561.85462      1920.3708      0.9969611
    530000  -666.81799      115.88402     -782.70202      306.11566      1563.5197      1920.3708      0.9969611
    531000  -673.37376      110.10544     -783.4792       290.85112      131.39508      1920.3708      0.9969611
    532000  -689.92895      111.15598     -801.08494      293.62622     -537.97992      1920.3708      0.9969611
    533000  -687.00356      104.99916     -792.00272      277.36254     -4198.8723      1920.3708      0.9969611
    534000  -666.41363      111.37165     -777.78527      294.19591     -833.66314      1920.3708      0.9969611
    535000  -662.49838      126.91315     -789.41153      335.24985      976.41431      1920.3708      0.9969611
    536000  -664.65996      127.74251     -792.40247      337.44066      1053.569       1920.3708      0.9969611
    537000  -659.26705      119.58035     -778.84739      315.87975     -2908.6891      1920.3708      0.9969611
    538000  -632.03275      124.40191     -756.43467      328.61625     -1758.6741      1920.3708      0.9969611
    539000  -677.74742      100.41759     -778.16501      265.26         417.18008      1920.3708      0.9969611
    540000  -682.22793      125.5376      -807.76553      331.61624     -1745.2729      1920.3708      0.9969611
    541000  -663.01984      125.37959     -788.39942      331.19884      914.25222      1920.3708      0.9969611
    542000  -675.01         114.03789     -789.04789      301.23896     -3035.2111      1920.3708      0.9969611
    543000  -682.86142      114.54305     -797.40448      302.57339     -1323.5222      1920.3708      0.9969611
    544000  -679.97751      118.01466     -797.99217      311.74387     -470.24527      1920.3708      0.9969611
    545000  -675.97318      114.13827     -790.11145      301.50412      1268.3535      1920.3708      0.9969611
    546000  -662.53628      116.56087     -779.09715      307.90359     -806.68171      1920.3708      0.9969611
    547000  -657.98836      117.05128     -775.03964      309.19903      425.02326      1920.3708      0.9969611
    548000  -658.20353      118.76077     -776.9643       313.71479     -2400.2293      1920.3708      0.9969611
    549000  -684.693        110.31434     -795.00734      291.40295     -49.575011      1920.3708      0.9969611
    550000  -668.71853      109.26986     -777.98839      288.64389     -3096.0202      1920.3708      0.9969611
    551000  -673.23545      103.38536     -776.62081      273.09957     -1085.2273      1920.3708      0.9969611
    552000  -638.93875      127.45343     -766.39218      336.67704     -2427.6523      1920.3708      0.9969611
    553000  -654.25471      113.7914      -768.04611      300.58784      354.43532      1920.3708      0.9969611
    554000  -669.04685      115.41538     -784.46224      304.87771     -62.569787      1920.3708      0.9969611
    555000  -685.05634      100.79894     -785.85527      266.26736     -1836.2238      1920.3708      0.9969611
    556000  -662.98243      116.26951     -779.25194      307.13395      747.68579      1920.3708      0.9969611
    557000  -664.52197      127.555       -792.07697      336.94535     -183.4918       1920.3708      0.9969611
    558000  -665.5385       119.70558     -785.24408      316.21056     -1400.0789      1920.3708      0.9969611
    559000  -678.91976      110.69156     -789.61132      292.39941     -311.28639      1920.3708      0.9969611
    560000  -671.39347      114.13381     -785.52729      301.49236     -207.10654      1920.3708      0.9969611
    561000  -682.92145      125.89536     -808.81681      332.5613      -2629.6654      1920.3708      0.9969611
    562000  -665.4509       120.30886     -785.75975      317.80416     -2099.5269      1920.3708      0.9969611
    563000  -670.0121       110.50745     -780.51955      291.91306     -2324.9261      1920.3708      0.9969611
    564000  -655.07667      124.20043     -779.2771       328.08402     -1156.8383      1920.3708      0.9969611
    565000  -653.64583      117.47828     -771.12411      310.327       -319.54681      1920.3708      0.9969611
    566000  -686.51995      107.73662     -794.25657      284.59374      556.21597      1920.3708      0.9969611
    567000  -691.871        106.30802     -798.17902      280.81999     -884.57935      1920.3708      0.9969611
    568000  -685.36272      112.32301     -797.68573      296.709        1917.2618      1920.3708      0.9969611
    569000  -711.0916       105.85373     -816.94532      279.61993     -585.73276      1920.3708      0.9969611
    570000  -664.44481      115.35946     -779.80427      304.73         2046.0705      1920.3708      0.9969611
    571000  -640.70472      125.63833     -766.34305      331.88233     -3235.1837      1920.3708      0.9969611
    572000  -681.44254      115.31821     -796.76075      304.62103      87.762236      1920.3708      0.9969611
    573000  -676.69249      120.23053     -796.92302      317.59725     -999.28048      1920.3708      0.9969611
    574000  -674.43133      110.967       -785.39833      293.12699     -1221.8007      1920.3708      0.9969611
    575000  -644.16746      121.55111     -765.71857      321.08565      1362.6079      1920.3708      0.9969611
    576000  -673.05712      114.61681     -787.67393      302.76824     -162.44613      1920.3708      0.9969611
    577000  -650.53115      123.97101     -774.50216      327.47798      819.10976      1920.3708      0.9969611
    578000  -687.2008       103.09327     -790.29407      272.328        3149.9476      1920.3708      0.9969611
    579000  -686.73567      104.15658     -790.89225      275.13681     -1050.8545      1920.3708      0.9969611
    580000  -684.72816      104.70951     -789.43766      276.5974      -617.19302      1920.3708      0.9969611
    581000  -696.39241      101.73917     -798.13159      268.75106     -95.554153      1920.3708      0.9969611
    582000  -687.76116      104.2733      -792.03446      275.44512     -500.98033      1920.3708      0.9969611
    583000  -655.03745      126.50141     -781.53886      334.16222      637.71057      1920.3708      0.9969611
    584000  -636.01788      117.70669     -753.72457      310.93036      1853.2313      1920.3708      0.9969611
    585000  -669.44753      117.14857     -786.5961       309.45604     -1830.0008      1920.3708      0.9969611
    586000  -672.29768      118.55323     -790.85091      313.16655      580.29427      1920.3708      0.9969611
    587000  -663.47678      115.21485     -778.69163      304.348        1466.2764      1920.3708      0.9969611
    588000  -675.28109      122.52611     -797.80721      323.66119     -1769.4686      1920.3708      0.9969611
    589000  -688.54778      103.47741     -792.02519      273.34273     -1897.9087      1920.3708      0.9969611
    590000  -656.35932      121.70081     -778.06014      321.48111      653.53804      1920.3708      0.9969611
    591000  -686.8369       109.75531     -796.59221      289.92623     -684.13196      1920.3708      0.9969611
    592000  -658.36964      109.39573     -767.76537      288.97638      894.29669      1920.3708      0.9969611
    593000  -655.89237      127.85549     -783.74787      337.73912     -1741.4737      1920.3708      0.9969611
    594000  -686.99985      106.53767     -793.53752      281.42662      1433.4894      1920.3708      0.9969611
    595000  -661.3775       119.46055     -780.83805      315.5633       2793.7602      1920.3708      0.9969611
    596000  -668.56663      110.39557     -778.9622       291.61754      1731.9886      1920.3708      0.9969611
    597000  -661.3063       96.708313     -758.01461      255.46169     -377.77302      1920.3708      0.9969611
    598000  -688.81534      114.42117     -803.23651      302.25144     -863.46304      1920.3708      0.9969611
    599000  -661.41902      110.61566     -772.03468      292.19892     -1523.1768      1920.3708      0.9969611
    600000  -686.97917      108.85754     -795.83671      287.55471     -2335.179       1920.3708      0.9969611
    601000  -702.97365      113.52079     -816.49444      299.87301      277.41741      1920.3708      0.9969611
    602000  -680.81483      118.50318     -799.31802      313.03435      74.154653      1920.3708      0.9969611
    603000  -664.81214      110.50775     -775.31989      291.91385      1092.2548      1920.3708      0.9969611
    604000  -673.65514      115.19312     -788.84825      304.29058      1206.685       1920.3708      0.9969611
    605000  -664.68077      111.56319     -776.24395      294.70187     -336.55724      1920.3708      0.9969611
    606000  -658.07252      115.01213     -773.08465      303.81249      5254.1493      1920.3708      0.9969611
    607000  -687.19138      99.955734     -787.14711      264.03998     -1302.1275      1920.3708      0.9969611
    608000  -665.68591      112.24904     -777.93495      296.5136       376.22621      1920.3708      0.9969611
    609000  -658.49495      125.53795     -784.03291      331.61718      2830.8243      1920.3708      0.9969611
    610000  -671.97266      111.5814      -783.55406      294.74998     -1347.8146      1920.3708      0.9969611
    611000  -687.71635      116.16867     -803.88502      306.86757      1559.4372      1920.3708      0.9969611
    612000  -679.34973      105.70942     -785.05915      279.23874     -347.22048      1920.3708      0.9969611
    613000  -654.40499      129.79066     -784.19564      342.85099      1945.6372      1920.3708      0.9969611
    614000  -681.52244      103.39613     -784.91857      273.12803     -480.33545      1920.3708      0.9969611
    615000  -704.71902      97.562611     -802.28163      257.71838     -948.88843      1920.3708      0.9969611
    616000  -664.4427       132.17245     -796.61516      349.14267     -1375.164       1920.3708      0.9969611
    617000  -696.02094      104.99234     -801.01328      277.34453      611.66739      1920.3708      0.9969611
    618000  -676.83971      101.85119     -778.6909       269.04696      1280.7491      1920.3708      0.9969611
    619000  -670.12827      112.77577     -782.90404      297.90499      1234.3754      1920.3708      0.9969611
    620000  -650.76621      134.4275      -785.19371      355.09953     -2546.5128      1920.3708      0.9969611
    621000  -671.41884      117.36946     -788.7883       310.03955      1329.6041      1920.3708      0.9969611
    622000  -687.09773      101.23118     -788.32891      267.40916     -1025.1894      1920.3708      0.9969611
    623000  -672.56404      106.19878     -778.76281      280.53141     -1851.4105      1920.3708      0.9969611
    624000  -690.80723      111.71348     -802.52071      295.09888     -893.89832      1920.3708      0.9969611
    625000  -653.19219      124.56198     -777.75417      329.03907      167.3649       1920.3708      0.9969611
    626000  -664.33791      100.50724     -764.84515      265.49682     -2205.7599      1920.3708      0.9969611
    627000  -673.91295      123.1071      -797.02005      325.19591     -1123.9102      1920.3708      0.9969611
    628000  -660.76948      121.26516     -782.03464      320.3303      -3650.8225      1920.3708      0.9969611
    629000  -684.86356      112.10446     -796.96802      296.13167     -3267.2714      1920.3708      0.9969611
    630000  -695.71938      101.30697     -797.02636      267.60936     -190.63302      1920.3708      0.9969611
    631000  -690.00452      107.16387     -797.1684       283.08077      443.10813      1920.3708      0.9969611
    632000  -682.5788       101.66652     -784.24532      268.55915     -1140.7747      1920.3708      0.9969611
    633000  -678.47342      130.19655     -808.66997      343.92319      1023.7807      1920.3708      0.9969611
    634000  -656.22123      122.2905      -778.51172      323.0388       1078.4677      1920.3708      0.9969611
    635000  -673.23377      110.25625     -783.49001      291.2495       1046.537       1920.3708      0.9969611
    636000  -670.02414      118.08312     -788.10726      311.92472      390.65773      1920.3708      0.9969611
    637000  -655.0342       121.58361     -776.61781      321.17151     -613.89548      1920.3708      0.9969611
    638000  -690.04578      118.40127     -808.44705      312.76513      2091.9973      1920.3708      0.9969611
    639000  -669.01515      108.82255     -777.8377       287.46229      1356.0469      1920.3708      0.9969611
    640000  -674.253        109.18783     -783.44084      288.42721     -569.30576      1920.3708      0.9969611
    641000  -667.47924      117.86836     -785.34761      311.35743     -1762.5961      1920.3708      0.9969611
    642000  -672.63293      113.58948     -786.22242      300.05447     -80.200099      1920.3708      0.9969611
    643000  -675.9325       103.89191     -779.82441      274.43766     -1088.0047      1920.3708      0.9969611
    644000  -675.72679      100.50841     -776.23519      265.4999      -1685.5676      1920.3708      0.9969611
    645000  -683.76965      105.2624      -789.03206      278.05792     -1351.7189      1920.3708      0.9969611
    646000  -655.33154      126.28592     -781.61746      333.593       -1083.5558      1920.3708      0.9969611
    647000  -686.53861      109.02009     -795.5587       287.98409     -1688.4457      1920.3708      0.9969611
    648000  -647.04346      122.00965     -769.05311      322.29692     -840.40741      1920.3708      0.9969611
    649000  -668.1219       125.47234     -793.59423      331.44385     -2686.3633      1920.3708      0.9969611
    650000  -678.88888      106.29145     -785.18032      280.7762      -1529.6546      1920.3708      0.9969611
    651000  -678.11789      104.13131     -782.2492       275.07005     -1376.3122      1920.3708      0.9969611
    652000  -689.66874      105.69053     -795.35927      279.18885     -825.02481      1920.3708      0.9969611
    653000  -718.39881      90.963784     -809.36259      240.28712     -2861.3292      1920.3708      0.9969611
    654000  -718.03911      94.827632     -812.86674      250.49374     -1051.6541      1920.3708      0.9969611
    655000  -685.00633      112.47123     -797.47755      297.10053     -820.87459      1920.3708      0.9969611
    656000  -710.19651      108.71312     -818.90962      287.17321     -472.58711      1920.3708      0.9969611
    657000  -673.74503      107.28422     -781.02925      283.39868      1779.6703      1920.3708      0.9969611
    658000  -663.06605      124.37877     -787.44482      328.55512     -2409.7742      1920.3708      0.9969611
    659000  -674.42071      107.92588     -782.34658      285.09366     -471.27188      1920.3708      0.9969611
    660000  -646.74912      127.16704     -773.91616      335.92051      120.73444      1920.3708      0.9969611
    661000  -665.37184      129.2847      -794.65654      341.51448     -2158.0167      1920.3708      0.9969611
    662000  -640.24347      111.26977     -751.51323      293.92678     -1224.9079      1920.3708      0.9969611
    663000  -646.66143      116.20874     -762.87017      306.97342     -2799.4752      1920.3708      0.9969611
    664000  -662.08518      118.6048      -780.68997      313.30277     -734.30937      1920.3708      0.9969611
    665000  -670.33695      108.66839     -779.00534      287.05507     -75.368332      1920.3708      0.9969611
    666000  -690.30584      106.99344     -797.29928      282.63056      901.8438       1920.3708      0.9969611
    667000  -676.0648       114.13524     -790.20004      301.49613      2422.2333      1920.3708      0.9969611
    668000  -670.13122      107.82065     -777.95187      284.8157      -1857.6378      1920.3708      0.9969611
    669000  -647.14988      133.56983     -780.7197       352.83393     -1736.3321      1920.3708      0.9969611
    670000  -664.23169      107.37479     -771.60648      283.63794     -41.036597      1920.3708      0.9969611
    671000  -656.41815      108.58482     -765.00296      286.83431      1165.3478      1920.3708      0.9969611
    672000  -648.26393      110.53094     -758.79488      291.97512     -2346.0078      1920.3708      0.9969611
    673000  -673.97832      110.88957     -784.86789      292.92247      366.94933      1920.3708      0.9969611
    674000  -657.94048      123.65163     -781.59212      326.63433      195.25923      1920.3708      0.9969611
    675000  -679.87402      104.23298     -784.10701      275.33863      3274.612       1920.3708      0.9969611
    676000  -690.74741      117.22726     -807.97467      309.6639      -480.36485      1920.3708      0.9969611
    677000  -679.15799      104.61646     -783.77445      276.35161     -1196.3712      1920.3708      0.9969611
    678000  -672.63864      111.38913     -784.02777      294.24209      832.72371      1920.3708      0.9969611
    679000  -656.77703      117.69159     -774.46862      310.89046      1839.0067      1920.3708      0.9969611
    680000  -686.33125      106.14933     -792.48058      280.40079      1230.1937      1920.3708      0.9969611
    681000  -695.05606      116.18737     -811.24343      306.91697      660.94795      1920.3708      0.9969611
    682000  -672.36141      110.83938     -783.2008       292.78989      2391.3393      1920.3708      0.9969611
    683000  -681.71565      114.88004     -796.59569      303.46357      3234.3602      1920.3708      0.9969611
    684000  -675.58379      108.06048     -783.64427      285.44923     -964.11485      1920.3708      0.9969611
    685000  -678.43984      108.96154     -787.40138      287.82945     -876.50648      1920.3708      0.9969611
    686000  -664.48373      118.95915     -783.44288      314.23881     -3365.1957      1920.3708      0.9969611
    687000  -681.21591      112.15047     -793.36638      296.25323     -2246.1008      1920.3708      0.9969611
    688000  -664.55803      115.99104     -780.54907      306.39835     -283.427        1920.3708      0.9969611
    689000  -704.7113       113.06436     -817.77566      298.66732      383.29868      1920.3708      0.9969611
    690000  -677.05474      111.49135     -788.54609      294.51212      1416.6057      1920.3708      0.9969611
    691000  -697.86716      109.01917     -806.88633      287.98167      2055.2197      1920.3708      0.9969611
    692000  -687.16127      104.63131     -791.79258      276.39083     -1775.2883      1920.3708      0.9969611
    693000  -674.38938      113.15285     -787.54223      298.90107      1665.155       1920.3708      0.9969611
    694000  -670.08955      111.92898     -782.01853      295.66813      1167.2506      1920.3708      0.9969611
    695000  -717.96206      113.2357      -831.19776      299.11994      2268.7107      1920.3708      0.9969611
    696000  -707.99987      106.08187     -814.08174      280.22259      475.34051      1920.3708      0.9969611
    697000  -679.67706      105.13307     -784.81014      277.71628     -714.3925       1920.3708      0.9969611
    698000  -678.40651      105.4952      -783.90171      278.67287      103.79349      1920.3708      0.9969611
    699000  -641.0587       126.83299     -767.89169      335.0381      -2033.3034      1920.3708      0.9969611
    700000  -665.07371      109.21967     -774.29338      288.51129     -104.48253      1920.3708      0.9969611
    701000  -656.12508      114.7969      -770.92198      303.24394      219.71313      1920.3708      0.9969611
    702000  -665.83119      115.65072     -781.48192      305.49938     -2943.2024      1920.3708      0.9969611
    703000  -675.84356      124.63469     -800.47825      329.23115     -1654.6668      1920.3708      0.9969611
    704000  -642.66769      120.10264     -762.77032      317.25942      1306.1789      1920.3708      0.9969611
    705000  -669.54195      113.16683     -782.70878      298.93801     -1043.777       1920.3708      0.9969611
    706000  -678.00784      108.94539     -786.95322      287.78677      720.67456      1920.3708      0.9969611
    707000  -683.00864      104.40438     -787.41302      275.79139     -757.94693      1920.3708      0.9969611
    708000  -701.47588      99.484305     -800.96018      262.79467     -3393.4577      1920.3708      0.9969611
    709000  -666.26438      117.8617      -784.12608      311.33983      771.8607       1920.3708      0.9969611
    710000  -684.51473      108.01412     -792.52885      285.32675     -2144.5231      1920.3708      0.9969611
    711000  -699.21426      111.06683     -810.28108      293.39069      59.334113      1920.3708      0.9969611
    712000  -658.06085      122.57311     -780.63396      323.78533      602.25695      1920.3708      0.9969611
    713000  -674.93725      120.67672     -795.61397      318.77589     -2502.9999      1920.3708      0.9969611
    714000  -666.66409      119.41243     -786.07652      315.4362      -660.07756      1920.3708      0.9969611
    715000  -699.25385      103.4444      -802.69825      273.25553      1160.0101      1920.3708      0.9969611
    716000  -693.75591      117.2223      -810.97821      309.6508      -331.46697      1920.3708      0.9969611
    717000  -684.59535      110.14428     -794.73963      290.95372     -2465.2217      1920.3708      0.9969611
    718000  -691.15869      101.92774     -793.08644      269.24918      760.80994      1920.3708      0.9969611
    719000  -662.41136      110.51422     -772.92558      291.93095     -1613.4096      1920.3708      0.9969611
    720000  -678.41301      98.136459     -776.54946      259.23424     -463.5819       1920.3708      0.9969611
    721000  -659.99316      108.40151     -768.39468      286.35009     -1214.6832      1920.3708      0.9969611
    722000  -672.56491      102.75001     -775.31492      271.42125     -319.47456      1920.3708      0.9969611
    723000  -665.0163       102.8767      -767.893        271.75592     -2512.4987      1920.3708      0.9969611
    724000  -661.5939       106.65342     -768.24732      281.73238      977.97798      1920.3708      0.9969611
    725000  -672.60165      121.98417     -794.58582      322.22963     -1101.8368      1920.3708      0.9969611
    726000  -661.75872      129.7958      -791.55452      342.86457     -595.96822      1920.3708      0.9969611
    727000  -694.4778       111.37624     -805.85404      294.20804     -1990.7292      1920.3708      0.9969611
    728000  -690.71125      112.86673     -803.57798      298.14527     -1570.5614      1920.3708      0.9969611
    729000  -660.37361      118.40733     -778.78094      312.78113     -306.51898      1920.3708      0.9969611
    730000  -685.01537      102.57855     -787.59392      270.96832     -672.25584      1920.3708      0.9969611
    731000  -675.29334      129.15046     -804.44381      341.15987     -1901.5941      1920.3708      0.9969611
    732000  -667.34602      119.44695     -786.79297      315.52736      989.42346      1920.3708      0.9969611
    733000  -679.70417      106.59222     -786.29639      281.57072      235.91545      1920.3708      0.9969611
    734000  -680.34866      112.22546     -792.57412      296.45131      873.9742       1920.3708      0.9969611
    735000  -662.58561      122.81229     -785.3979       324.41716      577.96513      1920.3708      0.9969611
    736000  -675.01447      113.81887     -788.83334      300.66042      1395.293       1920.3708      0.9969611
    737000  -693.91252      105.25783     -799.17035      278.04582     -2316.6896      1920.3708      0.9969611
    738000  -643.06175      125.58181     -768.64356      331.73302      981.58298      1920.3708      0.9969611
    739000  -673.39257      124.9777      -798.37027      330.13724      1754.312       1920.3708      0.9969611
    740000  -686.11959      108.49063     -794.61022      286.58549      692.26331      1920.3708      0.9969611
    741000  -687.54882      106.08563     -793.63445      280.23251      329.91472      1920.3708      0.9969611
    742000  -679.02628      110.77629     -789.80257      292.62323     -145.3468       1920.3708      0.9969611
    743000  -675.48595      109.24399     -784.72994      288.57555      168.67048      1920.3708      0.9969611
    744000  -657.46134      108.01002     -765.47136      285.31594      70.726728      1920.3708      0.9969611
    745000  -670.09762      115.1857      -785.28332      304.27099     -2139.5416      1920.3708      0.9969611
    746000  -691.22898      100.21054     -791.43952      264.71308     -440.2579       1920.3708      0.9969611
    747000  -692.09658      110.20742     -802.304        291.12051     -158.5023       1920.3708      0.9969611
    748000  -663.55481      117.59854     -781.15335      310.64467     -1588.6645      1920.3708      0.9969611
    749000  -668.22718      125.59761     -793.82479      331.77476     -1442.5041      1920.3708      0.9969611
    750000  -645.37617      115.08897     -760.46513      304.01546     -427.93144      1920.3708      0.9969611
    751000  -663.77336      118.48262     -782.25598      312.98003     -1293.0076      1920.3708      0.9969611
    752000  -678.18153      111.05424     -789.23576      293.35744     -827.45081      1920.3708      0.9969611
    753000  -649.62816      124.88531     -774.51347      329.89318      1654.8012      1920.3708      0.9969611
    754000  -664.50238      103.77707     -768.27945      274.1343      -264.8987       1920.3708      0.9969611
    755000  -680.75723      92.877517     -773.63474      245.34238      542.23468      1920.3708      0.9969611
    756000  -653.72082      108.18999     -761.9108       285.79133      783.30484      1920.3708      0.9969611
    757000  -651.98072      117.94414     -769.92487      311.5576       1021.3723      1920.3708      0.9969611
    758000  -658.49015      101.34804     -759.8382       267.71786      711.60148      1920.3708      0.9969611
    759000  -657.32752      117.23167     -774.55918      309.67556     -2231.3529      1920.3708      0.9969611
    760000  -661.93356      126.10838     -788.04194      333.124       -2482.758       1920.3708      0.9969611
    761000  -675.11329      103.02932     -778.14261      272.15907     -2676.0919      1920.3708      0.9969611
    762000  -653.62032      114.28682     -767.90713      301.89652      2106.7577      1920.3708      0.9969611
    763000  -667.93711      107.86606     -775.80317      284.93564     -350.10647      1920.3708      0.9969611
    764000  -644.69397      117.13907     -761.83303      309.43094      1071.9289      1920.3708      0.9969611
    765000  -677.62945      115.77544     -793.40489      305.82884     -781.46939      1920.3708      0.9969611
    766000  -675.47568      111.62403     -787.09971      294.86259     -1407.2134      1920.3708      0.9969611
    767000  -665.81241      107.18133     -772.99374      283.1269      -2842.664       1920.3708      0.9969611
    768000  -673.11228      109.96871     -783.08099      290.48996     -3761.4955      1920.3708      0.9969611
    769000  -664.43072      102.41708     -766.8478       270.5418       982.36857      1920.3708      0.9969611
    770000  -670.46713      121.70508     -792.17221      321.49239     -12.468916      1920.3708      0.9969611
    771000  -679.98144      105.51963     -785.50107      278.7374       159.61418      1920.3708      0.9969611
    772000  -631.98092      123.28111     -755.26203      325.65558      646.59929      1920.3708      0.9969611
    773000  -672.87955      108.06068     -780.94023      285.44975     -1889.0599      1920.3708      0.9969611
    774000  -647.47637      136.11049     -783.58686      359.54526     -2224.1572      1920.3708      0.9969611
    775000  -675.07827      110.6854      -785.76367      292.38313     -479.93555      1920.3708      0.9969611
    776000  -676.95772      117.7326      -794.69032      310.9988       326.1344       1920.3708      0.9969611
    777000  -668.33191      117.89946     -786.23136      311.43956     -2030.4342      1920.3708      0.9969611
    778000  -679.3286       106.42719     -785.7558       281.13479      1031.3609      1920.3708      0.9969611
    779000  -645.3586       120.05489     -765.41348      317.13329      410.62314      1920.3708      0.9969611
    780000  -657.02934      111.75723     -768.78657      295.21445      3739.4162      1920.3708      0.9969611
    781000  -653.1813       122.09701     -775.27831      322.52769     -525.88046      1920.3708      0.9969611
    782000  -683.10605      114.60332     -797.70937      302.73259     -2125.1595      1920.3708      0.9969611
    783000  -650.69589      119.94462     -770.64051      316.842       -4702.0364      1920.3708      0.9969611
    784000  -666.91999      123.75556     -790.67555      326.90886     -1953.4045      1920.3708      0.9969611
    785000  -687.56333      106.07802     -793.64135      280.21241      38.792916      1920.3708      0.9969611
    786000  -660.45491      93.947704     -754.40261      248.16935     -3051.7345      1920.3708      0.9969611
    787000  -682.92957      101.49887     -784.42844      268.11627     -1067.9825      1920.3708      0.9969611
    788000  -648.2174       128.11163     -776.32903      338.41573     -245.03918      1920.3708      0.9969611
    789000  -679.1496       111.37596     -790.52556      294.2073      -2245.535       1920.3708      0.9969611
    790000  -682.79752      108.06543     -790.86294      285.46229     -3399.0862      1920.3708      0.9969611
    791000  -680.65734      122.4812      -803.13855      323.54256     -3444.1779      1920.3708      0.9969611
    792000  -695.78688      99.0053       -794.79218      261.52934     -1379.6649      1920.3708      0.9969611
    793000  -668.28507      121.72425     -790.00933      321.54303     -2986.9725      1920.3708      0.9969611
    794000  -703.96349      110.61955     -814.58304      292.20918     -2495.3136      1920.3708      0.9969611
    795000  -670.80333      103.49146     -774.29479      273.37984      1500.2753      1920.3708      0.9969611
    796000  -669.46811      114.89319     -784.3613       303.4983       1485.8587      1920.3708      0.9969611
    797000  -671.39665      110.87457     -782.27121      292.88283     -130.14964      1920.3708      0.9969611
    798000  -658.40057      105.89757     -764.29814      279.73574      859.05582      1920.3708      0.9969611
    799000  -664.88803      114.38574     -779.27377      302.15783      977.87654      1920.3708      0.9969611
    800000  -689.88249      114.34989     -804.23238      302.06313     -538.28593      1920.3708      0.9969611
    801000  -691.11642      107.67679     -798.79321      284.43567     -2108.7716      1920.3708      0.9969611
    802000  -671.05426      103.90145     -774.95572      274.46287     -4424.271       1920.3708      0.9969611
    803000  -676.70359      126.96299     -803.66658      335.38151      746.61657      1920.3708      0.9969611
    804000  -670.58719      108.70217     -779.28936      287.1443      -959.99842      1920.3708      0.9969611
    805000  -679.54226      116.4671      -796.00937      307.6559       431.07529      1920.3708      0.9969611
    806000  -648.36618      114.55975     -762.92593      302.61751      2274.8132      1920.3708      0.9969611
    807000  -660.67249      120.77093     -781.44342      319.02476     -3311.2441      1920.3708      0.9969611
    808000  -661.93484      122.31466     -784.2495       323.10263     -1129.5454      1920.3708      0.9969611
    809000  -643.18837      116.70809     -759.89645      308.29248      657.78064      1920.3708      0.9969611
    810000  -680.26961      104.53554     -784.80515      276.13784     -487.84479      1920.3708      0.9969611
    811000  -664.00358      114.5771      -778.58068      302.66334     -119.40851      1920.3708      0.9969611
    812000  -678.30972      107.38343     -785.69316      283.66076     -3250.1735      1920.3708      0.9969611
    813000  -698.4739       106.04807     -804.52197      280.1333      -2725.8319      1920.3708      0.9969611
    814000  -656.5651       125.38537     -781.95047      331.21412     -1734.8148      1920.3708      0.9969611
    815000  -653.97526      112.44217     -766.41743      297.02376     -1812.5478      1920.3708      0.9969611
    816000  -695.45388      107.56529     -803.01917      284.14114      3577.3213      1920.3708      0.9969611
    817000  -673.75103      115.32707     -789.0781       304.64443     -48.851279      1920.3708      0.9969611
    818000  -707.73327      85.282987     -793.01626      225.2809       945.88272      1920.3708      0.9969611
    819000  -699.89173      108.65533     -808.54706      287.02057     -484.98007      1920.3708      0.9969611
    820000  -665.29181      127.56581     -792.85762      336.9739       2496.6714      1920.3708      0.9969611
    821000  -663.98452      109.9657      -773.95022      290.48198     -2314.1947      1920.3708      0.9969611
    822000  -690.94505      109.47473     -800.41978      289.18507     -944.61512      1920.3708      0.9969611
    823000  -684.20237      105.62381     -789.82618      279.0126      -1266.7344      1920.3708      0.9969611
    824000  -646.76691      110.88568     -757.65258      292.91218     -684.3781       1920.3708      0.9969611
    825000  -685.46091      111.16844     -796.62935      293.65912     -169.73483      1920.3708      0.9969611
    826000  -662.88634      111.74459     -774.63093      295.18106      1915.2667      1920.3708      0.9969611
    827000  -677.25373      109.42859     -786.68231      289.06317      120.93832      1920.3708      0.9969611
    828000  -688.34685      108.78611     -797.13296      287.36602     -3249.0955      1920.3708      0.9969611
    829000  -660.7727       119.70863     -780.48134      316.21862     -664.37408      1920.3708      0.9969611
    830000  -687.78898      118.03477     -805.82374      311.79699     -2008.1629      1920.3708      0.9969611
    831000  -673.64181      107.33805     -780.97986      283.54087     -2088.6051      1920.3708      0.9969611
    832000  -653.01653      129.19266     -782.20919      341.27133     -1632.168       1920.3708      0.9969611
    833000  -678.07194      115.1201      -793.19204      304.09769     -351.40429      1920.3708      0.9969611
    834000  -687.23244      105.29069     -792.52313      278.13263      265.4433       1920.3708      0.9969611
    835000  -685.71635      109.42933     -795.14567      289.06513     -229.80437      1920.3708      0.9969611
    836000  -710.40311      115.71902     -826.12213      305.6798      -1180.4767      1920.3708      0.9969611
    837000  -690.91316      110.58029     -801.49345      292.10549      952.86915      1920.3708      0.9969611
    838000  -678.71087      106.69722     -785.40809      281.84809      219.29744      1920.3708      0.9969611
    839000  -695.93891      101.17354     -797.11245      267.2569       1121.6633      1920.3708      0.9969611
    840000  -687.91729      124.01217     -811.92946      327.58672     -3118.7992      1920.3708      0.9969611
    841000  -661.62254      127.75034     -789.37289      337.46136      2291.6151      1920.3708      0.9969611
    842000  -671.26669      102.32658     -773.59327      270.30274      357.75116      1920.3708      0.9969611
    843000  -661.71653      128.38069     -790.09722      339.12648     -141.66622      1920.3708      0.9969611
    844000  -685.13951      107.32986     -792.46937      283.51925      1040.6394      1920.3708      0.9969611
    845000  -652.02838      118.77355     -770.80192      313.74853     -1300.5021      1920.3708      0.9969611
    846000  -699.22542      102.66383     -801.88925      271.1936      -3466.6261      1920.3708      0.9969611
    847000  -683.87893      111.01631     -794.89524      293.25726      1217.3894      1920.3708      0.9969611
    848000  -666.36623      122.22421     -788.59044      322.86369      1617.163       1920.3708      0.9969611
    849000  -652.67321      128.95594     -781.62915      340.64602     -1500.0607      1920.3708      0.9969611
    850000  -659.88933      111.25618     -771.1455       293.89088     -210.11473      1920.3708      0.9969611
    851000  -686.32954      114.80922     -801.13876      303.2765       441.26381      1920.3708      0.9969611
    852000  -687.43431      109.85038     -797.28469      290.17737      449.87217      1920.3708      0.9969611
    853000  -702.30183      100.1011      -802.40293      264.42397      1702.4894      1920.3708      0.9969611
    854000  -664.13525      130.64823     -794.78348      345.11634     -598.86003      1920.3708      0.9969611
    855000  -679.94113      100.71775     -780.65888      266.05289      564.82785      1920.3708      0.9969611
    856000  -678.60678      108.17843     -786.78521      285.76081     -574.94999      1920.3708      0.9969611
    857000  -678.85273      114.73604     -793.58877      303.08318     -1592.4623      1920.3708      0.9969611
    858000  -682.69991      100.85904     -783.55896      266.42614     -493.18476      1920.3708      0.9969611
    859000  -654.6383       122.36473     -777.00302      323.23489     -531.91243      1920.3708      0.9969611
    860000  -687.07901      102.47589     -789.5549       270.69714     -1464.7316      1920.3708      0.9969611
    861000  -689.70834      112.8653      -802.57364      298.14149      149.73953      1920.3708      0.9969611
    862000  -679.72305      109.00356     -788.72661      287.94043     -2566.9558      1920.3708      0.9969611
    863000  -662.53594      118.28374     -780.81968      312.45467      957.04073      1920.3708      0.9969611
    864000  -665.39691      117.05608     -782.45299      309.21173     -391.24312      1920.3708      0.9969611
    865000  -678.08639      115.57585     -793.66225      305.3016       1470.2611      1920.3708      0.9969611
    866000  -651.39641      124.75245     -776.14886      329.54222      449.49773      1920.3708      0.9969611
    867000  -683.48117      110.02414     -793.50531      290.63637     -1350.8214      1920.3708      0.9969611
    868000  -662.3713       119.08861     -781.45991      314.58079     -687.98913      1920.3708      0.9969611
    869000  -687.56421      101.73047     -789.29468      268.72808      532.61353      1920.3708      0.9969611
    870000  -681.16277      135.7267      -816.88948      358.53147     -257.68487      1920.3708      0.9969611
    871000  -656.46159      111.81316     -768.27475      295.36219      2880.255       1920.3708      0.9969611
    872000  -664.19091      102.33766     -766.52857      270.332       -340.64475      1920.3708      0.9969611
    873000  -668.51793      124.93239     -793.45032      330.01754      2724.8248      1920.3708      0.9969611
    874000  -677.18837      107.26965     -784.45803      283.3602       869.85888      1920.3708      0.9969611
    875000  -691.1035       104.50731     -795.61081      276.06329      1827.1434      1920.3708      0.9969611
    876000  -681.03236      124.07893     -805.11129      327.76308      1752.1952      1920.3708      0.9969611
    877000  -683.76493      113.54352     -797.30844      299.93305      2884.6307      1920.3708      0.9969611
    878000  -670.18166      123.86134     -794.043        327.18829      547.6562       1920.3708      0.9969611
    879000  -692.40727      122.93083     -815.3381       324.73028     -904.03049      1920.3708      0.9969611
    880000  -678.31937      111.51326     -789.83263      294.56998     -526.52158      1920.3708      0.9969611
    881000  -701.8458       101.67186     -803.51766      268.57325     -1074.8288      1920.3708      0.9969611
    882000  -677.20921      107.28135     -784.49055      283.3911       1398.2671      1920.3708      0.9969611
    883000  -676.53251      118.82113     -795.35364      313.87424     -1899.1884      1920.3708      0.9969611
    884000  -691.93614      103.73888     -795.67502      274.03343      1306.2454      1920.3708      0.9969611
    885000  -675.33154      113.3874      -788.71893      299.52064     -746.93373      1920.3708      0.9969611
    886000  -662.5754       120.00619     -782.58159      317.00465     -2857.8845      1920.3708      0.9969611
    887000  -688.59644      103.59241     -792.18885      273.64651      374.61478      1920.3708      0.9969611
    888000  -688.26639      119.81578     -808.08217      316.50168     -1025.6054      1920.3708      0.9969611
    889000  -662.30628      112.07608     -774.38237      296.05672      246.23751      1920.3708      0.9969611
    890000  -663.0485       125.01322     -788.06173      330.23107     -787.11111      1920.3708      0.9969611
    891000  -674.11908      111.15859     -785.27767      293.6331       68.18516       1920.3708      0.9969611
    892000  -661.59969      112.638       -774.23769      297.54106     -63.132003      1920.3708      0.9969611
    893000  -685.36681      121.60303     -806.96983      321.2228      -398.35952      1920.3708      0.9969611
    894000  -691.54184      109.13657     -800.67841      288.29179      272.50329      1920.3708      0.9969611
    895000  -652.21943      126.67596     -778.89539      334.62329      1455.4215      1920.3708      0.9969611
    896000  -685.34938      105.48547     -790.83484      278.64715      21.975407      1920.3708      0.9969611
    897000  -668.8915       115.7255      -784.61699      305.6969       498.08625      1920.3708      0.9969611
    898000  -686.54232      112.05643     -798.59876      296.00481      280.90498      1920.3708      0.9969611
    899000  -670.25819      119.807       -790.06519      316.47847     -2455.999       1920.3708      0.9969611
    900000  -656.80933      136.40984     -793.21917      360.33603      52.035034      1920.3708      0.9969611
    901000  -655.91113      113.39979     -769.31092      299.55338     -2079.4309      1920.3708      0.9969611
    902000  -657.35103      122.51167     -779.8627       323.62304     -1839.3127      1920.3708      0.9969611
    903000  -664.90167      118.73992     -783.64159      313.65969     -1170.8394      1920.3708      0.9969611
    904000  -680.73521      120.43619     -801.1714       318.14052     -4701.5132      1920.3708      0.9969611
    905000  -673.48668      111.72111     -785.20778      295.11902     -1969.7783      1920.3708      0.9969611
    906000  -639.88556      117.32268     -757.20824      309.91597      970.93545      1920.3708      0.9969611
    907000  -662.56198      124.61354     -787.17552      329.17528      290.20087      1920.3708      0.9969611
    908000  -674.00164      116.58979     -790.59143      307.97998      153.38561      1920.3708      0.9969611
    909000  -677.63114      111.61103     -789.24217      294.82825      820.12773      1920.3708      0.9969611
    910000  -659.55855      102.85559     -762.41414      271.70015      315.41538      1920.3708      0.9969611
    911000  -671.2425       125.60201     -796.84451      331.78639     -1402.2827      1920.3708      0.9969611
    912000  -676.65391      118.93883     -795.59274      314.18513     -2297.7848      1920.3708      0.9969611
    913000  -657.17023      117.98281     -775.15304      311.65975     -1591.2463      1920.3708      0.9969611
    914000  -663.33437      105.8321      -769.16647      279.56282     -2225.7236      1920.3708      0.9969611
    915000  -676.87034      119.43686     -796.3072       315.50072      7.2903415      1920.3708      0.9969611
    916000  -665.50893      122.08763     -787.59656      322.50291      1.6076096      1920.3708      0.9969611
    917000  -670.86058      110.81058     -781.67115      292.71379     -1761.8185      1920.3708      0.9969611
    918000  -688.53145      101.9953      -790.52675      269.42763     -2138.7687      1920.3708      0.9969611
    919000  -668.3245       110.21624     -778.54075      291.14383      111.61966      1920.3708      0.9969611
    920000  -640.2603       114.949       -755.2093       303.64573     -283.8338       1920.3708      0.9969611
    921000  -659.04045      120.95738     -779.99784      319.51729     -1588.6252      1920.3708      0.9969611
    922000  -651.29771      112.92481     -764.22252      298.2987      -375.11048      1920.3708      0.9969611
    923000  -640.91707      128.67046     -769.58753      339.89191     -1127.5501      1920.3708      0.9969611
    924000  -666.20621      115.46699     -781.6732       305.01404     -1620.5636      1920.3708      0.9969611
    925000  -642.17158      140.85325     -783.02484      372.07361     -1940.7739      1920.3708      0.9969611
    926000  -669.36472      122.6916      -792.05632      324.09833     -3852.8398      1920.3708      0.9969611
    927000  -687.66555      116.28913     -803.95467      307.18576     -1207.9015      1920.3708      0.9969611
    928000  -643.9384       137.20788     -781.14629      362.44411      384.16545      1920.3708      0.9969611
    929000  -664.32875      111.85634     -776.18509      295.47625      1.0659772      1920.3708      0.9969611
    930000  -686.56421      113.52082     -800.08503      299.87309      1405.382       1920.3708      0.9969611
    931000  -677.69732      107.16742     -784.86474      283.09015     -711.68267      1920.3708      0.9969611
    932000  -663.63115      118.72349     -782.35464      313.61632      670.97075      1920.3708      0.9969611
    933000  -668.92096      106.96759     -775.88855      282.56228      113.96804      1920.3708      0.9969611
    934000  -656.90984      105.96067     -762.8705       279.90242     -1436.8739      1920.3708      0.9969611
    935000  -688.63916      113.2611      -801.90026      299.18701     -2966.3526      1920.3708      0.9969611
    936000  -657.18026      106.95803     -764.13829      282.53703      288.77887      1920.3708      0.9969611
    937000  -647.53279      135.71463     -783.24742      358.49957     -1449.2108      1920.3708      0.9969611
    938000  -658.7745       108.13928     -766.91377      285.65737      819.15519      1920.3708      0.9969611
    939000  -659.70949      120.47029     -780.17977      318.23059     -2732.8389      1920.3708      0.9969611
    940000  -681.60285      98.830285     -780.43313      261.06703      579.04964      1920.3708      0.9969611
    941000  -692.29841      96.637884     -788.93629      255.27565     -688.77467      1920.3708      0.9969611
    942000  -661.12927      111.74079     -772.87006      295.17101     -2050.0034      1920.3708      0.9969611
    943000  -648.24384      130.4922      -778.73603      344.70416      323.36654      1920.3708      0.9969611
    944000  -676.00438      103.72517     -779.72956      273.99722     -668.54867      1920.3708      0.9969611
    945000  -659.95107      113.78161     -773.73269      300.56199     -2676.1539      1920.3708      0.9969611
    946000  -673.57447      115.03662     -788.61109      303.87718     -2505.5594      1920.3708      0.9969611
    947000  -662.41703      112.95354     -775.37057      298.37458      430.53581      1920.3708      0.9969611
    948000  -659.9299       113.43573     -773.36563      299.64832     -2257.7896      1920.3708      0.9969611
    949000  -683.66146      94.994797     -778.65625      250.93532     -1549.0568      1920.3708      0.9969611
    950000  -684.62902      107.06622     -791.69525      282.82283     -2686.3025      1920.3708      0.9969611
    951000  -666.89494      106.69055     -773.58549      281.83046     -1081.001       1920.3708      0.9969611
    952000  -651.24897      106.61072     -757.85969      281.61959      2206.0645      1920.3708      0.9969611
    953000  -662.10543      116.23561     -778.34104      307.04439     -2.0938235      1920.3708      0.9969611
    954000  -653.4065       122.16977     -775.57627      322.71988      665.05752      1920.3708      0.9969611
    955000  -655.72253      123.63969     -779.36222      326.60278     -880.24102      1920.3708      0.9969611
    956000  -676.98828      101.62487     -778.61315      268.44911     -2603.9832      1920.3708      0.9969611
    957000  -660.39555      107.96979     -768.36534      285.20966      2726.1003      1920.3708      0.9969611
    958000  -674.13332      119.10436     -793.23768      314.6224      -1064.3238      1920.3708      0.9969611
    959000  -651.35448      115.38229     -766.73677      304.79028     -1621.6063      1920.3708      0.9969611
    960000  -680.56521      111.82172     -792.38694      295.38481     -2126.2022      1920.3708      0.9969611
    961000  -663.74976      109.02256     -772.77232      287.99063     -2576.829       1920.3708      0.9969611
    962000  -662.2191       116.65905     -778.87816      308.16295      178.79005      1920.3708      0.9969611
    963000  -655.92425      108.49948     -764.42373      286.60888     -707.44589      1920.3708      0.9969611
    964000  -644.04842      125.04788     -769.0963       330.32263      1273.1282      1920.3708      0.9969611
    965000  -642.52843      127.69536     -770.22379      337.31612     -2641.9556      1920.3708      0.9969611
    966000  -655.96135      111.65801     -767.61935      294.95234     -2081.8761      1920.3708      0.9969611
    967000  -662.73966      108.4615      -771.20116      286.50856     -128.46893      1920.3708      0.9969611
    968000  -688.90767      93.377308     -782.28498      246.66261     -3052.6303      1920.3708      0.9969611
    969000  -668.0648       126.75575     -794.82055      334.83408      498.46688      1920.3708      0.9969611
    970000  -676.0967       115.39058     -791.48727      304.81218     -1059.9383      1920.3708      0.9969611
    971000  -685.04839      111.8805      -796.9289       295.54008      2342.2228      1920.3708      0.9969611
    972000  -668.85865      113.8709      -782.72955      300.79784     -1396.083       1920.3708      0.9969611
    973000  -694.09005      99.655101     -793.74515      263.24584      823.6951       1920.3708      0.9969611
    974000  -713.51473      98.239518     -811.75425      259.50647      1009.0697      1920.3708      0.9969611
    975000  -688.48548      101.23309     -789.71856      267.41419     -1764.9373      1920.3708      0.9969611
    976000  -664.08836      112.27004     -776.35839      296.56906     -999.53149      1920.3708      0.9969611
    977000  -702.82091      115.05753     -817.87844      303.93242      360.23384      1920.3708      0.9969611
    978000  -677.51632      109.25048     -786.76679      288.59268      2279.6217      1920.3708      0.9969611
    979000  -651.51635      124.37107     -775.88743      328.53479     -2661.4904      1920.3708      0.9969611
    980000  -678.50241      102.58156     -781.08397      270.97628      1081.6681      1920.3708      0.9969611
    981000  -682.8258       110.28138     -793.10718      291.31589     -574.82743      1920.3708      0.9969611
    982000  -679.69396      105.73398     -785.42794      279.3036      -1054.3852      1920.3708      0.9969611
    983000  -666.29148      104.66962     -770.9611       276.49204     -507.79028      1920.3708      0.9969611
    984000  -682.90388      104.36886     -787.27274      275.69756     -4229.7924      1920.3708      0.9969611
    985000  -679.63013      113.33146     -792.96159      299.37288      187.39022      1920.3708      0.9969611
    986000  -657.68348      112.6997      -770.38318      297.70405      1914.6841      1920.3708      0.9969611
    987000  -682.43575      113.09632     -795.53206      298.75173      121.12792      1920.3708      0.9969611
    988000  -674.91377      118.98231     -793.89608      314.29999     -1310.7707      1920.3708      0.9969611
    989000  -650.74222      113.21712     -763.95934      299.07085     -2606.9858      1920.3708      0.9969611
    990000  -614.0703       130.69957     -744.76987      345.25195     -2554.7576      1920.3708      0.9969611
    991000  -639.13525      118.89882     -758.03406      314.07944     -2567.8949      1920.3708      0.9969611
    992000  -665.4459       108.5488      -773.9947       286.73916     -1718.5778      1920.3708      0.9969611
    993000  -673.84779      125.87692     -799.72471      332.51259     -3530.1439      1920.3708      0.9969611
    994000  -681.19684      110.08375     -791.28059      290.79385     -135.05465      1920.3708      0.9969611
    995000  -645.25278      118.83213     -764.08491      313.90329      348.41166      1920.3708      0.9969611
    996000  -680.05394      111.57613     -791.63007      294.73607     -2543.1359      1920.3708      0.9969611
    997000  -677.2196       114.66116     -791.88076      302.88537      1506.5087      1920.3708      0.9969611
    998000  -684.4768       116.8825      -801.3593       308.75321      659.33036      1920.3708      0.9969611
    999000  -676.88867      115.62726     -792.51593      305.43739     -3446.1835      1920.3708      0.9969611
   1000000  -633.35353      116.59926     -749.9528       308.005       -1158.1324      1920.3708      0.9969611
Loop time of 888.367 on 1 procs for 1000000 steps with 192 atoms

Performance: 97.257 ns/day, 0.247 hours/ns, 1125.661 timesteps/s
99.7% CPU use with 1 MPI tasks x 1 OpenMP threads

MPI task timing breakdown:
Section |  min time  |  avg time  |  max time  |%varavg| %total
---------------------------------------------------------------
Pair    | 713.62     | 713.62     | 713.62     |   0.0 | 80.33
Bond    | 0.052856   | 0.052856   | 0.052856   |   0.0 |  0.01
Kspace  | 114.2      | 114.2      | 114.2      |   0.0 | 12.86
Neigh   | 33.962     | 33.962     | 33.962     |   0.0 |  3.82
Comm    | 13.388     | 13.388     | 13.388     |   0.0 |  1.51
Output  | 0.25854    | 0.25854    | 0.25854    |   0.0 |  0.03
Modify  | 10.632     | 10.632     | 10.632     |   0.0 |  1.20
Other   |            | 2.254      |            |       |  0.25

Nlocal:            192 ave         192 max         192 min
Histogram: 1 0 0 0 0 0 0 0 0 0
Nghost:           4566 ave        4566 max        4566 min
Histogram: 1 0 0 0 0 0 0 0 0 0
Neighs:          69156 ave       69156 max       69156 min
Histogram: 1 0 0 0 0 0 0 0 0 0

Total # of neighbors = 69156
Ave neighs/atom = 360.1875
Ave special neighs/atom = 2
Neighbor list builds = 26575
Dangerous builds = 0
# write data file
write_data data.after_eq.lmp
System init for write_data ...
PPPM initialization ...
  using 12-bit tables for long-range coulomb (src/kspace.cpp:342)
  G vector (1/distance) = 0.31260513
  grid = 12 12 12
  stencil order = 5
  estimated absolute RMS force accuracy = 0.0021455329
  estimated relative force accuracy = 6.4612085e-06
  using double precision FFTW3
  3d grid and FFT values/proc = 6859 1728
Generated 1 of 1 mixed pair_coeff terms from geometric mixing rule

# clean up
undump dEQUI

# production
# 2 ns
dump dPROD all custom 1000 prod.lammpstrj id element xu yu zu
dump_modify dPROD element H O sort id
run 2000000
PPPM initialization ...
  using 12-bit tables for long-range coulomb (src/kspace.cpp:342)
  G vector (1/distance) = 0.31260513
  grid = 12 12 12
  stencil order = 5
  estimated absolute RMS force accuracy = 0.0021455329
  estimated relative force accuracy = 6.4612085e-06
  using double precision FFTW3
  3d grid and FFT values/proc = 6859 1728
Generated 1 of 1 mixed pair_coeff terms from geometric mixing rule
Per MPI rank memory allocation (min/avg/max) = 9.756 | 9.756 | 9.756 Mbytes
   Step         TotEng         KinEng         PotEng          Temp          Press          Volume        Density
   1000000  -633.35353      116.59926     -749.9528       308.005       -1157.0194      1920.3708      0.9969611
   1001000  -683.69059      103.29282     -786.98341      272.85513     -3032.1213      1920.3708      0.9969611
   1002000  -672.69961      111.43839     -784.13799      294.37221     -1176.142       1920.3708      0.9969611
   1003000  -633.86967      125.15157     -759.02124      330.59653     -164.64521      1920.3708      0.9969611
   1004000  -670.73412      111.50059     -782.23471      294.5365       425.18641      1920.3708      0.9969611
   1005000  -683.83154      108.14371     -791.97525      285.66908      550.85425      1920.3708      0.9969611
   1006000  -683.83315      110.31526     -794.14841      291.40539      30.235564      1920.3708      0.9969611
   1007000  -678.83033      100.11451     -778.94484      264.45939     -2340.5199      1920.3708      0.9969611
   1008000  -674.65823      109.97975     -784.63798      290.51911     -610.42531      1920.3708      0.9969611
   1009000  -704.60395      107.47378     -812.07773      283.89942      5188.2391      1920.3708      0.9969611
   1010000  -668.36051      100.18109     -768.54159      264.63526     -476.01297      1920.3708      0.9969611
   1011000  -692.15532      112.48502     -804.64034      297.13696      2658.4012      1920.3708      0.9969611
   1012000  -658.5265       120.94184     -779.46834      319.47623      2009.1897      1920.3708      0.9969611
   1013000  -685.05044      116.2256      -801.27604      307.01797     -167.01118      1920.3708      0.9969611
   1014000  -669.93482      110.84899     -780.78381      292.81526      317.97562      1920.3708      0.9969611
   1015000  -671.52115      96.25499      -767.77613      254.26421     -1319.1071      1920.3708      0.9969611
   1016000  -682.11062      112.51083     -794.62145      297.20512      118.61648      1920.3708      0.9969611
   1017000  -697.44877      109.2392      -806.68797      288.5629       187.13032      1920.3708      0.9969611
   1018000  -679.55915      122.96267     -802.52182      324.81439     -1412.0836      1920.3708      0.9969611
   1019000  -680.77754      113.07674     -793.85427      298.70002      472.93176      1920.3708      0.9969611
   1020000  -671.23344      120.3721      -791.60554      317.97122     -2211.7629      1920.3708      0.9969611
   1021000  -667.83222      115.16739     -782.99961      304.22262     -1207.8776      1920.3708      0.9969611
   1022000  -698.82604      107.35027     -806.17631      283.57316      234.99669      1920.3708      0.9969611
   1023000  -686.88347      110.49139     -797.37486      291.87065     -1617.404       1920.3708      0.9969611
   1024000  -670.25053      111.89057     -782.1411       295.56668     -810.36296      1920.3708      0.9969611
   1025000  -700.52488      108.5931      -809.11798      286.85619      1894.2551      1920.3708      0.9969611
   1026000  -688.21591      120.24337     -808.45928      317.63117     -1347.7816      1920.3708      0.9969611
   1027000  -695.4135       112.17444     -807.58793      296.31652      1141.6677      1920.3708      0.9969611
   1028000  -692.53004      107.87497     -800.40501      284.9592       1892.6122      1920.3708      0.9969611
   1029000  -680.46614      106.8119      -787.27804      282.15103     -566.11226      1920.3708      0.9969611
   1030000  -675.41191      113.45319     -788.86511      299.69445     -1200.2371      1920.3708      0.9969611
   1031000  -697.00939      112.13538     -809.14477      296.21335     -2212.1841      1920.3708      0.9969611
   1032000  -690.53926      105.85503     -796.39429      279.62338     -802.48691      1920.3708      0.9969611
   1033000  -664.63683      109.37323     -774.01006      288.91694     -3278.2033      1920.3708      0.9969611
   1034000  -682.12003      111.49077     -793.61081      294.51059     -1515.5829      1920.3708      0.9969611
   1035000  -672.08862      122.17174     -794.26037      322.72511     -536.09118      1920.3708      0.9969611
   1036000  -704.84476      105.71678     -810.56154      279.25817     -1439.8805      1920.3708      0.9969611
   1037000  -675.4986       110.24158     -785.74018      291.21075      888.27005      1920.3708      0.9969611
   1038000  -691.3505       108.61822     -799.96872      286.92253     -642.16802      1920.3708      0.9969611
   1039000  -665.78956      111.6431      -777.43266      294.91296      963.46182      1920.3708      0.9969611
   1040000  -668.69041      109.8212      -778.51161      290.10029      106.9283       1920.3708      0.9969611
   1041000  -671.32235      104.43        -775.75235      275.85906      3241.0842      1920.3708      0.9969611
   1042000  -677.58643      108.32        -785.90642      286.13476     -1065.9778      1920.3708      0.9969611
   1043000  -650.84783      120.72649     -771.57432      318.90738     -1880.8668      1920.3708      0.9969611
   1044000  -669.34539      109.96037     -779.30576      290.46792     -183.22533      1920.3708      0.9969611
   1045000  -645.85836      124.69489     -770.55324      329.39016      3404.6384      1920.3708      0.9969611
   1046000  -659.56826      110.32482     -769.89309      291.43064      2241.5312      1920.3708      0.9969611
   1047000  -678.54095      100.18298     -778.72393      264.64028     -1264.1568      1920.3708      0.9969611
   1048000  -661.75149      104.60935     -766.36084      276.33283      2280.6016      1920.3708      0.9969611
   1049000  -670.68046      121.33603     -792.01649      320.51751     -332.38861      1920.3708      0.9969611
   1050000  -664.26666      124.07413     -788.34078      327.75038      4661.2832      1920.3708      0.9969611
   1051000  -673.22848      113.25305     -786.48152      299.16576      863.0641       1920.3708      0.9969611
   1052000  -669.07947      110.20507     -779.28454      291.1143      -802.66877      1920.3708      0.9969611
   1053000  -699.92981      102.12106     -802.05086      269.75983     -51.847337      1920.3708      0.9969611
   1054000  -687.35824      101.54999     -788.90822      268.25131      1840.5803      1920.3708      0.9969611
   1055000  -672.03826      110.50439     -782.54265      291.90498      1677.3689      1920.3708      0.9969611
   1056000  -683.55259      97.45598      -781.00857      257.4367      -457.06202      1920.3708      0.9969611
   1057000  -666.65464      123.24393     -789.89857      325.55735      1771.6694      1920.3708      0.9969611
   1058000  -643.84065      128.94386     -772.78451      340.61411     -610.87583      1920.3708      0.9969611
   1059000  -662.31852      108.10976     -770.42829      285.57941     -1639.0786      1920.3708      0.9969611
   1060000  -672.04294      111.28826     -783.33119      293.97562     -2661.5048      1920.3708      0.9969611
   1061000  -654.76324      104.9619      -759.72514      277.26412      438.13272      1920.3708      0.9969611
   1062000  -679.43878      103.72104     -783.15982      273.9863       1304.1126      1920.3708      0.9969611
   1063000  -659.04412      100.31088     -759.35499      264.97811     -2767.1087      1920.3708      0.9969611
   1064000  -676.34524      116.75798     -793.10322      308.42426     -879.83413      1920.3708      0.9969611
   1065000  -645.58355      106.64779     -752.23134      281.71751      1019.5818      1920.3708      0.9969611
   1066000  -655.84708      106.54095     -762.38803      281.43528     -600.91479      1920.3708      0.9969611
   1067000  -637.69577      122.35641     -760.05218      323.21292      2715.0353      1920.3708      0.9969611
   1068000  -681.34188      116.12693     -797.46881      306.75732      2317.7272      1920.3708      0.9969611
   1069000  -693.43524      105.54052     -798.97577      278.79259     -19.001665      1920.3708      0.9969611
   1070000  -656.27266      122.02533     -778.29798      322.33833     -1345.9367      1920.3708      0.9969611
   1071000  -670.32745      107.58649     -777.91393      284.19714     -464.21063      1920.3708      0.9969611
   1072000  -691.97363      115.51182     -807.48546      305.13247     -929.15943      1920.3708      0.9969611
   1073000  -677.28533      112.83467     -790.12001      298.06059     -300.7407       1920.3708      0.9969611
   1074000  -643.04226      126.6188      -769.66106      334.47232     -221.50314      1920.3708      0.9969611
   1075000  -655.61925      133.39541     -789.01465      352.37319      657.47807      1920.3708      0.9969611
   1076000  -674.36771      126.65241     -801.02011      334.56109      2448.8031      1920.3708      0.9969611
   1077000  -666.60339      119.11459     -785.71798      314.64942      1362.3316      1920.3708      0.9969611
   1078000  -665.08928      120.34241     -785.43169      317.89278     -210.99965      1920.3708      0.9969611
   1079000  -662.19357      108.3009      -770.49448      286.08432     -682.95166      1920.3708      0.9969611
   1080000  -658.97658      126.45753     -785.43411      334.0463      -175.84225      1920.3708      0.9969611
   1081000  -667.60751      109.0616      -776.66911      288.09375     -3449.242       1920.3708      0.9969611
   1082000  -667.52048      116.54978     -784.07026      307.8743       2232.7132      1920.3708      0.9969611
   1083000  -691.64418      106.13616     -797.78035      280.36601     -1483.4876      1920.3708      0.9969611
   1084000  -665.63784      112.75388     -778.39172      297.84717     -1107.4907      1920.3708      0.9969611
   1085000  -650.38674      117.69958     -768.08632      310.91158     -2568.6769      1920.3708      0.9969611
   1086000  -685.89674      116.14898     -802.04571      306.81555     -94.314852      1920.3708      0.9969611
   1087000  -663.70004      116.9721      -780.67214      308.98987     -319.20106      1920.3708      0.9969611
   1088000  -669.98654      121.19173     -791.17827      320.13633     -1658.7152      1920.3708      0.9969611
   1089000  -677.78462      109.69084     -787.47546      289.75593     -1068.6995      1920.3708      0.9969611
   1090000  -670.84652      110.3331      -781.17961      291.4525      -2201.0134      1920.3708      0.9969611
   1091000  -692.63802      110.55794     -803.19597      292.04645     -151.84443      1920.3708      0.9969611
   1092000  -691.89926      114.35892     -806.25818      302.08699      1612.0728      1920.3708      0.9969611
   1093000  -664.40845      115.61527     -780.02371      305.40572     -2850.6014      1920.3708      0.9969611
   1094000  -666.16476      116.94215     -783.10691      308.91077      2744.9495      1920.3708      0.9969611
   1095000  -674.7343       125.42378     -800.15808      331.31558      2002.3177      1920.3708      0.9969611
   1096000  -666.2988       115.19346     -781.49226      304.29148     -1056.9133      1920.3708      0.9969611
   1097000  -679.35918      117.02572     -796.3849       309.13154     -487.67786      1920.3708      0.9969611
   1098000  -678.40427      112.2132      -790.61747      296.41892     -1429.0905      1920.3708      0.9969611
   1099000  -687.7775       108.1993      -795.9768       285.81593     -1113.5452      1920.3708      0.9969611
   1100000  -705.78169      100.53289     -806.31458      265.56457      854.08848      1920.3708      0.9969611
   1101000  -684.75053      109.45914     -794.20968      289.14389     -1414.6983      1920.3708      0.9969611
   1102000  -677.25869      124.7732      -802.03189      329.59704      2149.72        1920.3708      0.9969611
   1103000  -686.52966      106.29031     -792.81997      280.77319     -903.94893      1920.3708      0.9969611
   1104000  -674.01838      117.24426     -791.26264      309.70882     -2.6830186      1920.3708      0.9969611
   1105000  -662.46307      113.74205     -776.20512      300.45749     -1368.7303      1920.3708      0.9969611
   1106000  -676.92303      112.91475     -789.83779      298.27213     -1840.781       1920.3708      0.9969611
   1107000  -678.30813      120.27197     -798.58011      317.70673      238.69554      1920.3708      0.9969611
   1108000  -681.12728      110.28569     -791.41298      291.32728      1339.6746      1920.3708      0.9969611
   1109000  -678.26763      110.937       -789.20463      293.04775      1947.5783      1920.3708      0.9969611
   1110000  -647.04688      118.71683     -765.76371      313.59871     -1958.5981      1920.3708      0.9969611
   1111000  -657.9163       111.69378     -769.61008      295.04684      2904.2276      1920.3708      0.9969611
   1112000  -664.91525      110.95194     -775.8672       293.08722     -993.26492      1920.3708      0.9969611
   1113000  -694.01382      104.44086     -798.45468      275.88775     -1337.368       1920.3708      0.9969611
   1114000  -653.38604      115.28571     -768.67175      304.53517     -639.28551      1920.3708      0.9969611
   1115000  -684.09861      109.07407     -793.17268      288.12669     -2061.2377      1920.3708      0.9969611
   1116000  -655.58716      120.14212     -775.72929      317.36372      2145.21        1920.3708      0.9969611
   1117000  -631.83026      125.25193     -757.08219      330.86162     -88.067164      1920.3708      0.9969611
   1118000  -678.42165      108.19186     -786.61351      285.79626     -1581.9405      1920.3708      0.9969611
   1119000  -670.40839      117.65524     -788.06364      310.79445      947.55836      1920.3708      0.9969611
   1120000  -665.01684      106.51548     -771.53233      281.36801      754.18607      1920.3708      0.9969611
   1121000  -665.85187      123.3836      -789.23548      325.92631     -1762.3413      1920.3708      0.9969611
   1122000  -667.88059      108.17815     -776.05874      285.76005     -605.8538       1920.3708      0.9969611
   1123000  -638.51046      118.17853     -756.68899      312.17675      1228.084       1920.3708      0.9969611
   1124000  -659.96316      116.84715     -776.81031      308.65981     -406.84152      1920.3708      0.9969611
   1125000  -679.49104      104.11458     -783.60562      275.02586     -2444.9906      1920.3708      0.9969611
   1126000  -701.66933      101.34678     -803.01611      267.71453     -394.7368       1920.3708      0.9969611
   1127000  -676.67873      115.51418     -792.19291      305.1387      -3738.6806      1920.3708      0.9969611
   1128000  -648.05747      128.47566     -776.53313      339.37733     -2598.6098      1920.3708      0.9969611
   1129000  -671.30135      114.07202     -785.37337      301.32912     -2113.6515      1920.3708      0.9969611
   1130000  -637.6835       126.44057     -764.12407      334.00151      539.18179      1920.3708      0.9969611
   1131000  -668.71525      116.33656     -785.05181      307.31107     -1469.9605      1920.3708      0.9969611
   1132000  -670.93614      101.28447     -772.22061      267.54991      764.34422      1920.3708      0.9969611
   1133000  -683.22493      111.18408     -794.40901      293.70043     -2361.5943      1920.3708      0.9969611
   1134000  -687.50591      100.44808     -787.95399      265.34054     -524.54753      1920.3708      0.9969611
   1135000  -660.75773      116.03574     -776.79347      306.51641      394.51997      1920.3708      0.9969611
   1136000  -663.46576      109.17934     -772.64511      288.40478      1165.2195      1920.3708      0.9969611
   1137000  -673.33154      109.35166     -782.6832       288.85997     -2057.3145      1920.3708      0.9969611
   1138000  -677.77856      112.11517     -789.89374      296.15997     -1181.2609      1920.3708      0.9969611
   1139000  -697.91104      108.01195     -805.923        285.32103     -1976.8707      1920.3708      0.9969611
   1140000  -684.38297      115.30432     -799.68729      304.58434     -1004.7879      1920.3708      0.9969611
   1141000  -675.49778      109.41892     -784.9167       289.03764     -2783.7034      1920.3708      0.9969611
   1142000  -690.14475      106.4607      -796.60544      281.22329      1255.8503      1920.3708      0.9969611
   1143000  -662.05474      121.56941     -783.62415      321.134        323.37193      1920.3708      0.9969611
   1144000  -680.90216      114.79322     -795.69538      303.23423     -1833.6807      1920.3708      0.9969611
   1145000  -684.92288      93.719441     -778.64232      247.56638      1735.6222      1920.3708      0.9969611
   1146000  -702.17752      104.28619     -806.46371      275.47918      1720.1883      1920.3708      0.9969611
   1147000  -680.64739      116.46196     -797.10936      307.64232     -1447.8926      1920.3708      0.9969611
   1148000  -667.59372      115.50009     -783.09382      305.10148     -3211.8405      1920.3708      0.9969611
   1149000  -688.98101      108.94307     -797.92408      287.78066      2435.1622      1920.3708      0.9969611
   1150000  -674.31221      116.67022     -790.98244      308.19245     -327.30493      1920.3708      0.9969611
   1151000  -689.79747      107.51336     -797.31083      284.00397     -4137.4635      1920.3708      0.9969611
   1152000  -660.78952      109.38533     -770.17485      288.94892     -699.868        1920.3708      0.9969611
   1153000  -665.37608      124.38448     -789.76057      328.57021      861.71608      1920.3708      0.9969611
   1154000  -680.93323      108.48283     -789.41606      286.5649      -486.25107      1920.3708      0.9969611
   1155000  -671.88788      131.87415     -803.76203      348.35468     -441.92869      1920.3708      0.9969611
   1156000  -680.67731      117.18618     -797.8635       309.5554       389.66724      1920.3708      0.9969611
   1157000  -684.50714      100.33404     -784.84119      265.03931     -1339.0684      1920.3708      0.9969611
   1158000  -655.71596      115.9282      -771.64416      306.23235      271.85198      1920.3708      0.9969611
   1159000  -657.54958      114.6097      -772.15928      302.74944      326.54532      1920.3708      0.9969611
   1160000  -695.76253      99.185811     -794.94834      262.00617     -1270.8502      1920.3708      0.9969611
   1161000  -670.75099      109.92323     -780.67422      290.36981      2494.35        1920.3708      0.9969611
   1162000  -653.51051      118.3547      -771.86521      312.64212     -1957.5026      1920.3708      0.9969611
   1163000  -675.476        106.20616     -781.68215      280.5509      -2590.4405      1920.3708      0.9969611
   1164000  -701.36896      94.666796     -796.03575      250.06888     -3933.9168      1920.3708      0.9969611
   1165000  -658.77059      110.42767     -769.19826      291.70231     -393.03473      1920.3708      0.9969611
   1166000  -646.71519      129.74147     -776.45666      342.72106      442.77877      1920.3708      0.9969611
   1167000  -677.00002      109.59645     -786.59647      289.50661     -2419.1949      1920.3708      0.9969611
   1168000  -665.6088       117.64386     -783.25266      310.76438      101.29822      1920.3708      0.9969611
   1169000  -664.6297       110.04287     -774.67257      290.68585      1.0926296      1920.3708      0.9969611
   1170000  -658.09788      115.5762      -773.67408      305.30251      661.15253      1920.3708      0.9969611
   1171000  -689.27111      104.88362     -794.15473      277.05733     -1864.9956      1920.3708      0.9969611
   1172000  -657.52189      126.19437     -783.71626      333.35115     -46.467723      1920.3708      0.9969611
   1173000  -675.75767      108.20339     -783.96106      285.82674      1973.0712      1920.3708      0.9969611
   1174000  -673.97521      111.61765     -785.59286      294.84573     -1010.6319      1920.3708      0.9969611
   1175000  -670.47638      109.84835     -780.32473      290.17201     -1206.4542      1920.3708      0.9969611
   1176000  -677.92351      113.12678     -791.05028      298.8322      -1171.1268      1920.3708      0.9969611
   1177000  -671.93493      122.96055     -794.89547      324.80879      243.36919      1920.3708      0.9969611
   1178000  -645.40095      120.67576     -766.07671      318.77336     -1511.8111      1920.3708      0.9969611
   1179000  -676.63418      122.61126     -799.24544      323.88611     -2331.689       1920.3708      0.9969611
   1180000  -666.37878      110.0035      -776.38228      290.58186     -1512.8133      1920.3708      0.9969611
   1181000  -678.04114      109.37439     -787.41553      288.92        -742.45453      1920.3708      0.9969611
   1182000  -659.63558      112.02214     -771.65773      295.91423     -524.32652      1920.3708      0.9969611
   1183000  -675.40685      111.01793     -786.42478      293.26155      717.30002      1920.3708      0.9969611
   1184000  -672.18194      116.9921      -789.17403      309.04271     -1749.2758      1920.3708      0.9969611
   1185000  -643.92703      123.73145     -767.65848      326.84518     -2622.465       1920.3708      0.9969611
   1186000  -680.02839      122.26363     -802.29202      322.96783     -298.58401      1920.3708      0.9969611
   1187000  -663.07318      120.7213      -783.79448      318.89367     -2468.0445      1920.3708      0.9969611
   1188000  -669.21355      114.11307     -783.32662      301.43757      683.19763      1920.3708      0.9969611
   1189000  -683.77072      109.29652     -793.06723      288.7143      -2294.5167      1920.3708      0.9969611
   1190000  -667.11648      110.99025     -778.10673      293.18842      712.81081      1920.3708      0.9969611
   1191000  -670.11883      119.14012     -789.25895      314.71686      1126.9463      1920.3708      0.9969611
   1192000  -680.2422       106.12777     -786.36997      280.34385      690.92772      1920.3708      0.9969611
   1193000  -686.05535      106.05327     -792.10862      280.14703      695.78124      1920.3708      0.9969611
   1194000  -657.71894      116.49982     -774.21876      307.74234      1535.9098      1920.3708      0.9969611
   1195000  -683.53945      113.69162     -797.23107      300.32428      445.45991      1920.3708      0.9969611
   1196000  -680.94107      111.02764     -791.96871      293.28719     -930.50966      1920.3708      0.9969611
   1197000  -667.85438      111.15029     -779.00467      293.61117      82.860532      1920.3708      0.9969611
   1198000  -680.17583      103.8483      -784.02413      274.32245     -406.67765      1920.3708      0.9969611
   1199000  -673.60364      118.75614     -792.35979      313.70256      718.61248      1920.3708      0.9969611
   1200000  -672.81373      119.96137     -792.7751       316.88626     -3466.5087      1920.3708      0.9969611
   1201000  -673.76534      112.23177     -785.99711      296.46798     -1173.1447      1920.3708      0.9969611
   1202000  -688.90915      108.05752     -796.96666      285.4414       1766.4207      1920.3708      0.9969611
   1203000  -689.85671      121.26145     -811.11816      320.3205      -3473.939       1920.3708      0.9969611
   1204000  -711.43343      92.060925     -803.49435      243.1853      -1015.9641      1920.3708      0.9969611
   1205000  -700.90111      112.06707     -812.96818      296.03292      2436.1056      1920.3708      0.9969611
   1206000  -692.98914      119.95408     -812.94322      316.86699     -1375.787       1920.3708      0.9969611
   1207000  -687.64172      117.89335     -805.53506      311.42342     -235.21124      1920.3708      0.9969611
   1208000  -699.06852      108.0759      -807.14443      285.48997     -2014.9745      1920.3708      0.9969611
   1209000  -697.80484      105.47398     -803.27882      278.6168      -229.13062      1920.3708      0.9969611
   1210000  -672.50698      121.05759     -793.56457      319.782       -2410.2305      1920.3708      0.9969611
   1211000  -654.04645      105.6291      -759.67555      279.02657      204.22262      1920.3708      0.9969611
   1212000  -650.35654      108.48496     -758.84149      286.57052      327.82242      1920.3708      0.9969611
   1213000  -671.23235      100.65689     -771.88924      265.89213     -2700.9167      1920.3708      0.9969611
   1214000  -651.2732       118.71993     -769.99313      313.6069      -1786.1671      1920.3708      0.9969611
   1215000  -688.19035      102.05204     -790.24239      269.5775      -1381.7088      1920.3708      0.9969611
   1216000  -695.59037      104.6376      -800.22797      276.40744     -703.53288      1920.3708      0.9969611
   1217000  -667.42949      104.30721     -771.73671      275.53471     -3539.451       1920.3708      0.9969611
   1218000  -675.61545      100.28649     -775.90194      264.9137      -2204.3391      1920.3708      0.9969611
   1219000  -700.87356      108.66675     -809.5403       287.05072     -1024.2582      1920.3708      0.9969611
   1220000  -683.28257      106.66382     -789.94639      281.75985      2191.9478      1920.3708      0.9969611
   1221000  -663.53936      117.40055     -780.93991      310.12166     -164.2439       1920.3708      0.9969611
   1222000  -667.7022       114.11794     -781.82015      301.45044      821.53444      1920.3708      0.9969611
   1223000  -670.39776      114.19606     -784.59381      301.65677      226.47173      1920.3708      0.9969611
   1224000  -649.07927      119.6747      -768.75398      316.129       -14.665174      1920.3708      0.9969611
   1225000  -658.50043      105.51275     -764.01318      278.71923     -1171.4623      1920.3708      0.9969611
   1226000  -645.2298       120.29817     -765.52797      317.77594     -849.52023      1920.3708      0.9969611
   1227000  -696.22599      104.99776     -801.22375      277.35884     -892.50745      1920.3708      0.9969611
   1228000  -676.22611      118.10554     -794.33166      311.98395      865.37586      1920.3708      0.9969611
   1229000  -687.25288      110.96973     -798.22261      293.13422      320.84747      1920.3708      0.9969611
   1230000  -659.51568      125.0662      -784.58189      330.37101     -1534.6235      1920.3708      0.9969611
   1231000  -679.31358      120.80484     -800.11842      319.11435      989.62895      1920.3708      0.9969611
   1232000  -660.98109      124.1171      -785.09819      327.86389      144.70047      1920.3708      0.9969611
   1233000  -684.7405       114.97823     -799.71873      303.72295     -38.946414      1920.3708      0.9969611
   1234000  -679.41055      119.06455     -798.4751       314.51724     -3682.7252      1920.3708      0.9969611
   1235000  -644.86295      110.17444     -755.03739      291.03339     -2743.2001      1920.3708      0.9969611
   1236000  -663.46855      123.05383     -786.52237      325.05518      1458.0634      1920.3708      0.9969611
   1237000  -661.56156      127.91029     -789.47185      337.88387     -4052.8163      1920.3708      0.9969611
   1238000  -685.28987      106.87535     -792.16522      282.31863     -3381.2651      1920.3708      0.9969611
   1239000  -670.1459       114.42125     -784.56715      302.25164     -1586.4404      1920.3708      0.9969611
   1240000  -700.38236      107.07831     -807.46067      282.85476     -891.18347      1920.3708      0.9969611
   1241000  -689.91485      107.3475      -797.26235      283.56585     -64.737124      1920.3708      0.9969611
   1242000  -673.98203      110.84026     -784.82229      292.79221      182.31465      1920.3708      0.9969611
   1243000  -683.3472       100.36394     -783.71114      265.11829     -279.03417      1920.3708      0.9969611
   1244000  -693.86408      109.74822     -803.6123       289.9075      -2591.6109      1920.3708      0.9969611
   1245000  -702.8989       99.065438     -801.96433      261.6882      -2998.1612      1920.3708      0.9969611
   1246000  -670.67144      113.46646     -784.1379       299.7295      -3658.7739      1920.3708      0.9969611
   1247000  -677.05642      105.27648     -782.3329       278.09509     -394.43953      1920.3708      0.9969611
   1248000  -680.21435      108.2705      -788.48486      286.00402     -1984.6733      1920.3708      0.9969611
   1249000  -707.61327      100.36674     -807.98001      265.12568     -2581.2266      1920.3708      0.9969611
   1250000  -657.60069      121.72146     -779.32215      321.53564      463.64872      1920.3708      0.9969611
   1251000  -693.35038      102.9708      -796.32118      272.00449      883.94037      1920.3708      0.9969611
   1252000  -670.90856      116.12463     -787.03319      306.75125      1436.3697      1920.3708      0.9969611
   1253000  -655.9255       109.98023     -765.90573      290.52039      3421.8714      1920.3708      0.9969611
   1254000  -669.36765      115.55207     -784.91972      305.23877     -402.82189      1920.3708      0.9969611
   1255000  -674.47784      106.27967     -780.75751      280.7451       620.2809       1920.3708      0.9969611
   1256000  -665.59263      117.86712     -783.45975      311.35415     -4271.5595      1920.3708      0.9969611
   1257000  -671.56983      114.71751     -786.28734      303.03423     -1687.0362      1920.3708      0.9969611
   1258000  -650.62961      125.77149     -776.40109      332.23407      2119.3866      1920.3708      0.9969611
   1259000  -683.04389      111.71818     -794.76207      295.11129     -1019.4567      1920.3708      0.9969611
   1260000  -658.5911       119.98742     -778.57853      316.95507      911.79234      1920.3708      0.9969611
   1261000  -660.26717      112.96063     -773.2278       298.3933      -97.617617      1920.3708      0.9969611
   1262000  -654.40065      114.06512     -768.46577      301.31089     -2896.0064      1920.3708      0.9969611
   1263000  -625.67347      126.82853     -752.502        335.02633     -2907.2572      1920.3708      0.9969611
   1264000  -677.40276      114.06072     -791.46348      301.29928     -1694.6981      1920.3708      0.9969611
   1265000  -676.18952      120.44215     -796.63167      318.15626     -1740.1881      1920.3708      0.9969611
   1266000  -676.78023      118.77961     -795.55983      313.76455     -2343.1303      1920.3708      0.9969611
   1267000  -679.8236       101.88812     -781.71172      269.14452      1003.8092      1920.3708      0.9969611
   1268000  -686.02674      113.797       -799.82373      300.60263      1210.2839      1920.3708      0.9969611
   1269000  -682.28237      113.82738     -796.10975      300.68288     -1964.6155      1920.3708      0.9969611
   1270000  -686.91292      122.34317     -809.25609      323.17794     -875.96099      1920.3708      0.9969611
   1271000  -664.185        113.42891     -777.61391      299.6303       2903.9278      1920.3708      0.9969611
   1272000  -678.18596      115.91984     -794.1058       306.21026     -1137.7622      1920.3708      0.9969611
   1273000  -660.15243      127.97298     -788.12541      338.04947      782.14803      1920.3708      0.9969611
   1274000  -680.26185      123.89763     -804.15948      327.28416      120.03899      1920.3708      0.9969611
   1275000  -655.05435      120.79207     -775.84642      319.08059     -461.4547       1920.3708      0.9969611
   1276000  -646.34949      121.4638      -767.81329      320.85503      206.44223      1920.3708      0.9969611
   1277000  -693.08601      108.07883     -801.16484      285.49771     -490.10424      1920.3708      0.9969611
   1278000  -679.47068      108.10635     -787.57703      285.5704      -1488.1055      1920.3708      0.9969611
   1279000  -682.78266      112.43415     -795.21681      297.00258     -1185.1782      1920.3708      0.9969611
   1280000  -677.29637      110.16651     -787.46288      291.01246     -2945.3485      1920.3708      0.9969611
   1281000  -664.17254      123.49604     -787.66858      326.22332     -970.93609      1920.3708      0.9969611
   1282000  -674.32969      107.895       -782.22469      285.01211     -2185.7988      1920.3708      0.9969611
   1283000  -675.68991      107.46888     -783.1588       283.88648      2301.8992      1920.3708      0.9969611
   1284000  -655.02407      117.10489     -772.12896      309.34065      263.02         1920.3708      0.9969611
   1285000  -671.16806      106.00504     -777.1731       280.01964      759.97068      1920.3708      0.9969611
   1286000  -668.73195      106.2997      -775.03165      280.798       -975.6923       1920.3708      0.9969611
   1287000  -654.66987      108.24774     -762.9176       285.94387      2221.9647      1920.3708      0.9969611
   1288000  -686.42613      110.83691     -797.26305      292.78336     -1096.7946      1920.3708      0.9969611
   1289000  -705.21353      103.05025     -808.26378      272.21436     -1382.4725      1920.3708      0.9969611
   1290000  -682.25602      117.46942     -799.72544      310.30358      2359.3834      1920.3708      0.9969611
   1291000  -697.95888      105.98466     -803.94353      279.9658       991.11015      1920.3708      0.9969611
   1292000  -664.4377       111.79403     -776.23172      295.31165      277.94573      1920.3708      0.9969611
   1293000  -648.57373      111.12719     -759.70092      293.55014     -3088.1705      1920.3708      0.9969611
   1294000  -671.21399      115.85492     -787.06891      306.03879     -2700.9484      1920.3708      0.9969611
   1295000  -687.74575      118.16324     -805.909        312.13637      664.45914      1920.3708      0.9969611
   1296000  -668.2257       108.17198     -776.39768      285.74376     -461.85528      1920.3708      0.9969611
   1297000  -685.89919      106.02801     -791.9272       280.08032     -304.90976      1920.3708      0.9969611
   1298000  -659.13139      116.56672     -775.69812      307.91905     -309.18888      1920.3708      0.9969611
   1299000  -674.0177       103.37356     -777.39126      273.06841     -2917.535       1920.3708      0.9969611
   1300000  -666.20111      115.17135     -781.37246      304.23308     -1553.6832      1920.3708      0.9969611
   1301000  -659.08896      123.40386     -782.49282      325.97983     -1328.3321      1920.3708      0.9969611
   1302000  -676.28106      110.25817     -786.53924      291.25459     -1784.3546      1920.3708      0.9969611
   1303000  -668.63427      121.57464     -790.20891      321.14782     -2891.3283      1920.3708      0.9969611
   1304000  -672.4482       121.13708     -793.58527      319.99197      567.57394      1920.3708      0.9969611
   1305000  -701.41455      103.32686     -804.7414       272.94503      1103.0933      1920.3708      0.9969611
   1306000  -683.7407       108.53566     -792.27636      286.70445     -2787.1705      1920.3708      0.9969611
   1307000  -688.88059      111.89291     -800.77351      295.57286     -26.599238      1920.3708      0.9969611
   1308000  -677.03151      111.79669     -788.8282       295.31869     -1006.1936      1920.3708      0.9969611
   1309000  -675.89783      108.76121     -784.65904      287.30025     -1086.6725      1920.3708      0.9969611
   1310000  -677.00313      98.420774     -775.42391      259.98528      1229.1296      1920.3708      0.9969611
   1311000  -678.0783       107.78359     -785.86189      284.7178       31.45826       1920.3708      0.9969611
   1312000  -667.63328      126.17444     -793.80771      333.29849     -1551.745       1920.3708      0.9969611
   1313000  -665.83051      116.85334     -782.68385      308.67619     -1456.1092      1920.3708      0.9969611
   1314000  -675.83939      118.31481     -794.1542       312.53674     -396.00502      1920.3708      0.9969611
   1315000  -674.52118      113.71895     -788.24014      300.39648     -676.45437      1920.3708      0.9969611
   1316000  -685.07141      108.39119     -793.46259      286.32281      2260.8989      1920.3708      0.9969611
   1317000  -668.89581      111.34738     -780.24319      294.13181     -22.222673      1920.3708      0.9969611
   1318000  -655.27325      120.42349     -775.69674      318.10697      246.01092      1920.3708      0.9969611
   1319000  -669.62621      109.74181     -779.36802      289.89057     -1157.2123      1920.3708      0.9969611
   1320000  -661.28748      120.23665     -781.52414      317.61342     -1450.7474      1920.3708      0.9969611
   1321000  -689.14792      96.544993     -785.69292      255.03027     -1111.621       1920.3708      0.9969611
   1322000  -684.31106      101.88726     -786.19832      269.14223      291.85489      1920.3708      0.9969611
   1323000  -650.7547       136.3053      -787.06         360.05987     -904.39618      1920.3708      0.9969611
   1324000  -675.21268      107.73169     -782.94436      284.58069     -1111.1682      1920.3708      0.9969611
   1325000  -661.24192      121.36438     -782.6063       320.59241     -675.797        1920.3708      0.9969611
   1326000  -667.10142      116.25896     -783.36038      307.10607      1484.1518      1920.3708      0.9969611
   1327000  -664.41332      92.892895     -757.30621      245.383       -1346.5168      1920.3708      0.9969611
   1328000  -662.95965      117.73074     -780.69039      310.99389     -1510.1223      1920.3708      0.9969611
   1329000  -690.8717       99.392601     -790.2643       262.55242      696.16523      1920.3708      0.9969611
   1330000  -660.01282      108.25351     -768.26634      285.95914      992.77493      1920.3708      0.9969611
   1331000  -699.73061      102.14703     -801.87763      269.82843      66.332206      1920.3708      0.9969611
   1332000  -669.61537      114.07335     -783.68872      301.33264     -3065.2069      1920.3708      0.9969611
   1333000  -667.13466      122.2676      -789.40225      322.97831     -2764.4206      1920.3708      0.9969611
   1334000  -664.75786      119.5289      -784.28676      315.74386     -415.40497      1920.3708      0.9969611
   1335000  -680.48259      106.21331     -786.6959       280.56981     -1592.3525      1920.3708      0.9969611
   1336000  -696.49818      105.39427     -801.89245      278.40624      1203.6881      1920.3708      0.9969611
   1337000  -659.77007      121.29868     -781.06875      320.41884      538.88199      1920.3708      0.9969611
   1338000  -686.59738      99.602789     -786.20017      263.10765     -1018.1711      1920.3708      0.9969611
   1339000  -691.58022      114.78614     -806.36637      303.21553     -1517.7737      1920.3708      0.9969611
   1340000  -678.43892      121.39123     -799.83015      320.66332     -1424.2162      1920.3708      0.9969611
   1341000  -693.26054      106.17893     -799.43947      280.47898     -1676.34        1920.3708      0.9969611
   1342000  -675.6359       112.46847     -788.10437      297.09324      2134.9704      1920.3708      0.9969611
   1343000  -673.38036      126.43669     -799.81704      333.99124     -1953.9181      1920.3708      0.9969611
   1344000  -700.1447       97.852827     -797.99753      258.48501      2654.4654      1920.3708      0.9969611
   1345000  -654.32391      120.24437     -774.56828      317.63381     -631.91836      1920.3708      0.9969611
   1346000  -671.92547      122.42605     -794.35153      323.39688     -1420.7345      1920.3708      0.9969611
   1347000  -657.16784      117.97528     -775.14312      311.63985     -280.3752       1920.3708      0.9969611
   1348000  -680.60637      110.14875     -790.75512      290.96553     -678.90131      1920.3708      0.9969611
   1349000  -653.20246      117.42098     -770.62344      310.17564     -469.3022       1920.3708      0.9969611
   1350000  -679.28289      119.35307     -798.63596      315.27939     -1889.1812      1920.3708      0.9969611
   1351000  -662.16052      117.30162     -779.46214      309.86033     -3921.9071      1920.3708      0.9969611
   1352000  -668.96283      97.246686     -766.20951      256.88384      1798.9         1920.3708      0.9969611
   1353000  -666.86294      110.87567     -777.73861      292.88574     -184.19427      1920.3708      0.9969611
   1354000  -647.85341      120.33733     -768.19075      317.87938     -2806.0919      1920.3708      0.9969611
   1355000  -696.96733      104.40917     -801.3765       275.80405     -103.43849      1920.3708      0.9969611
   1356000  -671.44703      107.38905     -778.83607      283.67559     -1440.622       1920.3708      0.9969611
   1357000  -675.00311      107.91332     -782.91643      285.06049     -1151.1617      1920.3708      0.9969611
   1358000  -695.79619      115.56563     -811.36182      305.27461     -1038.9728      1920.3708      0.9969611
   1359000  -675.63948      109.6894      -785.32888      289.75213     -1520.7233      1920.3708      0.9969611
   1360000  -677.73961      103.44078     -781.18039      273.24597      249.31753      1920.3708      0.9969611
   1361000  -677.09801      104.48273     -781.58074      275.99834     -1619.5671      1920.3708      0.9969611
   1362000  -648.14919      116.06111     -764.2103       306.58345     -875.74547      1920.3708      0.9969611
   1363000  -681.24123      99.2484       -780.48963      262.17151      3130.5957      1920.3708      0.9969611
   1364000  -652.6943       108.74006     -761.43437      287.24439      818.46624      1920.3708      0.9969611
   1365000  -664.96291      110.77952     -775.74244      292.63176      197.06366      1920.3708      0.9969611
   1366000  -664.73948      101.8768      -766.61627      269.1146      -557.06925      1920.3708      0.9969611
   1367000  -649.10136      112.04479     -761.14615      295.97406      1598.2081      1920.3708      0.9969611
   1368000  -633.05862      122.88083     -755.93945      324.59819      2582.0088      1920.3708      0.9969611
   1369000  -654.91976      131.37173     -786.29149      347.02751      894.3788       1920.3708      0.9969611
   1370000  -661.72432      128.20453     -789.92885      338.66113      2118.2446      1920.3708      0.9969611
   1371000  -645.2671       126.26951     -771.5366       333.54962     -1048.3281      1920.3708      0.9969611
   1372000  -650.51753      115.7346      -766.25213      305.72094      1557.9475      1920.3708      0.9969611
   1373000  -679.85848      110.28526     -790.14375      291.32614     -1020.6331      1920.3708      0.9969611
   1374000  -681.0045       107.19199     -788.1965       283.15506      1543.0859      1920.3708      0.9969611
   1375000  -645.57814      116.44655     -762.02469      307.6016      -646.63992      1920.3708      0.9969611
   1376000  -664.04613      109.04406     -773.09019      288.04742     -688.65023      1920.3708      0.9969611
   1377000  -681.33658      115.81879     -797.15536      305.94333     -4757.776       1920.3708      0.9969611
   1378000  -680.64704      91.12882      -771.77586      240.72307     -450.2636       1920.3708      0.9969611
   1379000  -679.70304      99.536848     -779.23989      262.93346      524.27335      1920.3708      0.9969611
   1380000  -670.6118       120.59811     -791.20992      318.56825     -3473.6404      1920.3708      0.9969611
   1381000  -677.32253      115.73576     -793.05828      305.724       -796.92378      1920.3708      0.9969611
   1382000  -671.69057      111.1301      -782.82067      293.55784      524.12319      1920.3708      0.9969611
   1383000  -678.36001      119.08743     -797.44744      314.57767      1240.3648      1920.3708      0.9969611
   1384000  -679.87609      110.18066     -790.05675      291.04983      258.59673      1920.3708      0.9969611
   1385000  -675.3937       118.25379     -793.64748      312.37555     -515.87409      1920.3708      0.9969611
   1386000  -687.27433      113.23283     -800.50716      299.11233      200.79249      1920.3708      0.9969611
   1387000  -657.52708      123.26961     -780.79668      325.62518     -995.63281      1920.3708      0.9969611
   1388000  -664.61378      116.9442      -781.55797      308.91618     -1037.4492      1920.3708      0.9969611
   1389000  -684.37012      103.28553     -787.65565      272.83587      1269.4527      1920.3708      0.9969611
   1390000  -674.06976      116.91613     -790.98589      308.84204     -589.76434      1920.3708      0.9969611
   1391000  -670.49553      111.50565     -782.00118      294.54989      903.96893      1920.3708      0.9969611
   1392000  -665.40376      117.7052      -783.10896      310.92642      240.59064      1920.3708      0.9969611
   1393000  -691.12345      108.67835     -799.8018       287.08136     -126.25813      1920.3708      0.9969611
   1394000  -644.34055      129.49336     -773.83391      342.06566      1675.9004      1920.3708      0.9969611
   1395000  -670.20036      99.896593     -770.09696      263.88375     -3038.593       1920.3708      0.9969611
   1396000  -658.5163       117.54682     -776.06312      310.50804      120.68077      1920.3708      0.9969611
   1397000  -660.99672      109.79776     -770.79447      290.03836     -1496.3396      1920.3708      0.9969611
   1398000  -671.05009      112.8591      -783.90919      298.12511     -1145.6737      1920.3708      0.9969611
   1399000  -662.25709      126.04537     -788.30246      332.95755      2299.4024      1920.3708      0.9969611
   1400000  -664.74362      103.91606     -768.65969      274.50147     -519.64841      1920.3708      0.9969611
   1401000  -662.48708      110.66505     -773.15213      292.32939     -252.59595      1920.3708      0.9969611
   1402000  -660.62113      124.25572     -784.87685      328.23006      1345.3802      1920.3708      0.9969611
   1403000  -684.46503      111.25001     -795.71504      293.8746      -518.41889      1920.3708      0.9969611
   1404000  -664.60902      114.016       -778.62502      301.18116     -116.95279      1920.3708      0.9969611
   1405000  -704.44877      108.27341     -812.72218      286.0117      -1709.9377      1920.3708      0.9969611
   1406000  -643.98465      130.49695     -774.4816       344.71671     -671.85149      1920.3708      0.9969611
   1407000  -682.25134      115.62975     -797.88109      305.44398      295.49803      1920.3708      0.9969611
   1408000  -640.73358      123.50931     -764.2429       326.25838      903.98362      1920.3708      0.9969611
   1409000  -661.29478      115.48354     -776.77831      305.05774     -3558.1177      1920.3708      0.9969611
   1410000  -689.16181      114.0042      -803.166        301.14996     -121.63275      1920.3708      0.9969611
   1411000  -672.1837       113.28689     -785.47059      299.25515      1020.4165      1920.3708      0.9969611
   1412000  -675.34583      111.13209     -786.47792      293.56309     -608.97544      1920.3708      0.9969611
   1413000  -660.53678      106.44482     -766.9816       281.18136     -2761.3244      1920.3708      0.9969611
   1414000  -638.73774      123.92373     -762.66147      327.3531      -42.965851      1920.3708      0.9969611
   1415000  -662.02859      112.0144      -774.04299      295.89378     -2884.6679      1920.3708      0.9969611
   1416000  -661.11502      109.80946     -770.92448      290.06927      624.71588      1920.3708      0.9969611
   1417000  -671.61355      107.86824     -779.48178      284.9414      -1378.7795      1920.3708      0.9969611
   1418000  -677.7161       121.99247     -799.70857      322.25155     -1823.1495      1920.3708      0.9969611
   1419000  -689.66426      110.34191     -800.00617      291.47579      280.23916      1920.3708      0.9969611
   1420000  -668.41704      105.86947     -774.28651      279.66153     -2770.1845      1920.3708      0.9969611
   1421000  -667.68622      117.88931     -785.57553      311.41276     -171.46522      1920.3708      0.9969611
   1422000  -674.69433      106.72965     -781.42398      281.93374     -3122.4303      1920.3708      0.9969611
   1423000  -663.24387      125.5271      -788.77097      331.5885      -2265.7045      1920.3708      0.9969611
   1424000  -672.54436      109.27188     -781.81624      288.64922     -1790.6992      1920.3708      0.9969611
   1425000  -704.92442      109.78007     -814.70448      289.99164     -1059.4222      1920.3708      0.9969611
   1426000  -698.77593      114.79462     -813.57055      303.23793      1027.0402      1920.3708      0.9969611
   1427000  -677.98784      128.65555     -806.64339      339.85253      585.12952      1920.3708      0.9969611
   1428000  -689.80414      113.89596     -803.7001       300.86406     -2715.3721      1920.3708      0.9969611
   1429000  -671.48805      112.84639     -784.33444      298.09153     -662.5329       1920.3708      0.9969611
   1430000  -706.57201      99.845908     -806.41792      263.74987     -1057.6838      1920.3708      0.9969611
   1431000  -675.26076      103.50411     -778.76487      273.41325      4337.7476      1920.3708      0.9969611
   1432000  -674.95099      109.65803     -784.60902      289.66926     -1076.6084      1920.3708      0.9969611
   1433000  -682.9938       103.01302     -786.00682      272.11601     -639.34947      1920.3708      0.9969611
   1434000  -643.06331      121.59647     -764.65978      321.20548     -1674.9451      1920.3708      0.9969611
   1435000  -654.48412      111.96075     -766.44486      295.75205     -2931.1701      1920.3708      0.9969611
   1436000  -684.03287      108.56248     -792.59535      286.77529      346.18057      1920.3708      0.9969611
   1437000  -703.89577      96.863477     -800.75924      255.87157     -719.02703      1920.3708      0.9969611
   1438000  -673.26699      119.39992     -792.66691      315.40315      2365.5549      1920.3708      0.9969611
   1439000  -665.87937      104.9789      -770.85827      277.30903     -1638.4084      1920.3708      0.9969611
   1440000  -685.75028      113.44489     -799.19517      299.67251      2874.237       1920.3708      0.9969611
   1441000  -677.71003      118.76448     -796.4745       313.72458      984.50956      1920.3708      0.9969611
   1442000  -659.05265      118.07859     -777.13124      311.91276     -1632.5249      1920.3708      0.9969611
   1443000  -663.18699      104.85736     -768.04435      276.98796     -1559.4359      1920.3708      0.9969611
   1444000  -675.03258      118.74799     -793.78057      313.68101     -2468           1920.3708      0.9969611
   1445000  -673.75209      119.24329     -792.99538      314.98939     -634.93677      1920.3708      0.9969611
   1446000  -666.67066      111.26609     -777.93675      293.91706     -2779.1926      1920.3708      0.9969611
   1447000  -634.39365      135.46366     -769.85731      357.83662     -162.12091      1920.3708      0.9969611
   1448000  -653.48684      99.839588     -753.32643      263.73317     -477.62235      1920.3708      0.9969611
   1449000  -649.48227      125.81077     -775.29304      332.33784     -1230.5293      1920.3708      0.9969611
   1450000  -662.42564      125.52593     -787.95158      331.58543     -2168.8275      1920.3708      0.9969611
   1451000  -658.87419      129.22184     -788.09603      341.34843     -111.03348      1920.3708      0.9969611
   1452000  -698.41835      85.696667     -784.11502      226.37367     -2520.6312      1920.3708      0.9969611
   1453000  -613.57572      127.60357     -741.17929      337.07366     -1506.9039      1920.3708      0.9969611
   1454000  -666.96769      100.02125     -766.98894      264.21303     -137.92111      1920.3708      0.9969611
   1455000  -650.00665      116.34273     -766.34938      307.32736     -2393.7022      1920.3708      0.9969611
   1456000  -643.82434      126.28159     -770.10593      333.58154     -2361.589       1920.3708      0.9969611
   1457000  -665.76215      117.27649     -783.03864      309.79395      180.48741      1920.3708      0.9969611
   1458000  -660.303        111.38032     -771.68332      294.21882     -645.72656      1920.3708      0.9969611
   1459000  -641.01818      123.94624     -764.96442      327.41256      347.22485      1920.3708      0.9969611
   1460000  -691.97082      91.797318     -783.76814      242.48896     -595.19515      1920.3708      0.9969611
   1461000  -681.79997      112.97329     -794.77325      298.42675      192.57192      1920.3708      0.9969611
   1462000  -659.08228      116.697       -775.77928      308.26319     -38.422464      1920.3708      0.9969611
   1463000  -670.05405      111.3916      -781.44565      294.24861      922.12086      1920.3708      0.9969611
   1464000  -651.63845      117.7363      -769.37475      311.00857      673.61111      1920.3708      0.9969611
   1465000  -664.52769      112.05596     -776.58365      296.00357     -1353.878       1920.3708      0.9969611
   1466000  -637.92162      116.77797     -754.6996       308.47709     -1037.998       1920.3708      0.9969611
   1467000  -658.71171      128.09806     -786.80977      338.37988      1541.5404      1920.3708      0.9969611
   1468000  -680.34668      115.38811     -795.73479      304.80567      1026.8737      1920.3708      0.9969611
   1469000  -690.02606      98.297553     -788.32361      259.65978     -2018.806       1920.3708      0.9969611
   1470000  -683.63903      114.04273     -797.68176      301.25175     -1844.9981      1920.3708      0.9969611
   1471000  -672.57026      111.44618     -784.01645      294.39279     -2232.4693      1920.3708      0.9969611
   1472000  -676.39226      110.67771     -787.06997      292.36281      336.71528      1920.3708      0.9969611
   1473000  -653.87063      118.62891     -772.49954      313.36647      159.68898      1920.3708      0.9969611
   1474000  -673.65653      105.56014     -779.21668      278.84442     -2663.281       1920.3708      0.9969611
   1475000  -667.27233      115.0824      -782.35473      303.99812      268.29613      1920.3708      0.9969611
   1476000  -670.5515       121.34865     -791.90015      320.55084     -2050.1456      1920.3708      0.9969611
   1477000  -654.12551      128.15966     -782.28517      338.5426       1570.9016      1920.3708      0.9969611
   1478000  -658.17768      111.2687      -769.44638      293.92395     -1169.8068      1920.3708      0.9969611
   1479000  -654.53774      109.89779     -764.43553      290.30261     -3169.4448      1920.3708      0.9969611
   1480000  -644.09734      141.73154     -785.82887      374.39365     -1795.3476      1920.3708      0.9969611
   1481000  -669.8632       109.29593     -779.15913      288.71275     -1988.5246      1920.3708      0.9969611
   1482000  -651.41512      108.78817     -760.20329      287.37147      272.70222      1920.3708      0.9969611
   1483000  -691.41271      94.534121     -785.94683      249.71841     -2148.521       1920.3708      0.9969611
   1484000  -671.85141      108.11927     -779.97069      285.60454     -2930.5876      1920.3708      0.9969611
   1485000  -694.01879      114.75578     -808.77457      303.13534      85.334007      1920.3708      0.9969611
   1486000  -670.41648      121.73528     -792.15176      321.57216     -1312.048       1920.3708      0.9969611
   1487000  -672.29422      109.48887     -781.78309      289.22241     -875.38952      1920.3708      0.9969611
   1488000  -682.29109      108.67979     -790.97088      287.08517     -1052.4688      1920.3708      0.9969611
   1489000  -687.49964      100.35255     -787.8522       265.0882       2020.92        1920.3708      0.9969611
   1490000  -637.30641      116.60701     -753.91342      308.02549      2037.4973      1920.3708      0.9969611
   1491000  -658.05545      114.4824      -772.53785      302.41318     -142.41108      1920.3708      0.9969611
   1492000  -662.0717       113.04313     -775.11483      298.61124      484.55362      1920.3708      0.9969611
   1493000  -681.04119      109.60654     -790.64773      289.53325     -634.98302      1920.3708      0.9969611
   1494000  -694.65463      104.36854     -799.02317      275.69671     -2333.3581      1920.3708      0.9969611
   1495000  -670.08852      108.25912     -778.34764      285.97394     -1262.9109      1920.3708      0.9969611
   1496000  -651.99481      102.97025     -754.96505      272.00302     -3189.9876      1920.3708      0.9969611
   1497000  -641.50044      111.06851     -752.56895      293.39516     -1387.3727      1920.3708      0.9969611
   1498000  -658.35372      109.17704     -767.53076      288.39869     -1514.5263      1920.3708      0.9969611
   1499000  -661.18886      119.08705     -780.27591      314.57667      2519.2311      1920.3708      0.9969611
   1500000  -674.65998      126.73311     -801.39309      334.77426     -415.23438      1920.3708      0.9969611
   1501000  -697.17282      106.90108     -804.0739       282.3866      -1301.2422      1920.3708      0.9969611
   1502000  -671.01037      101.08363     -772.094        267.0194       2102.4592      1920.3708      0.9969611
   1503000  -670.61996      116.06235     -786.68231      306.58671     -2382.46        1920.3708      0.9969611
   1504000  -689.38365      109.8766      -799.26025      290.24664     -3159.178       1920.3708      0.9969611
   1505000  -693.98702      111.08866     -805.07568      293.44837     -473.2464       1920.3708      0.9969611
   1506000  -687.6934       118.87241     -806.5658       314.00968     -2229.2235      1920.3708      0.9969611
   1507000  -656.33188      116.0795      -772.41138      306.63201      953.46261      1920.3708      0.9969611
   1508000  -651.01126      108.31574     -759.327        286.12352      629.75769      1920.3708      0.9969611
   1509000  -672.12614      120.0579      -792.18403      317.14123     -415.74876      1920.3708      0.9969611
   1510000  -689.37481      112.46139     -801.83619      297.07452      957.78722      1920.3708      0.9969611
   1511000  -693.14745      107.76622     -800.91368      284.67192      30.032512      1920.3708      0.9969611
   1512000  -678.69539      114.47074     -793.16614      302.38238      1142.0377      1920.3708      0.9969611
   1513000  -692.71584      113.2263      -805.94214      299.09509     -2239.1261      1920.3708      0.9969611
   1514000  -656.05893      123.12724     -779.18616      325.2491      -1716.2824      1920.3708      0.9969611
   1515000  -658.8348       122.21073     -781.04553      322.82809     -2849.0818      1920.3708      0.9969611
   1516000  -663.76892      118.45435     -782.22327      312.90534     -1985.4549      1920.3708      0.9969611
   1517000  -636.33815      130.42199     -766.76014      344.51869      2095.1407      1920.3708      0.9969611
   1518000  -674.08839      116.88088     -790.96927      308.74892     -2247.4014      1920.3708      0.9969611
   1519000  -658.86678      122.48395     -781.35073      323.54981      2952.8508      1920.3708      0.9969611
   1520000  -667.92214      114.72893     -782.65107      303.06439     -1360.7619      1920.3708      0.9969611
   1521000  -673.63916      106.34337     -779.98253      280.91335      733.89235      1920.3708      0.9969611
   1522000  -642.55732      129.1742      -771.73152      341.22257      773.82539      1920.3708      0.9969611
   1523000  -643.86808      117.526       -761.39408      310.45305     -356.07376      1920.3708      0.9969611
   1524000  -676.27487      119.6418      -795.91667      316.04207      527.90577      1920.3708      0.9969611
   1525000  -689.46676      104.69231     -794.15907      276.55198     -3316.312       1920.3708      0.9969611
   1526000  -657.99793      101.15535     -759.15328      267.20884     -2335.3692      1920.3708      0.9969611
   1527000  -692.08219      97.525075     -789.60726      257.61922     -1466.3738      1920.3708      0.9969611
   1528000  -675.60799      118.64256     -794.25055      313.40251      545.15981      1920.3708      0.9969611
   1529000  -669.3825       113.81279     -783.19529      300.64435     -1117.7128      1920.3708      0.9969611
   1530000  -658.60752      125.56028     -784.16779      331.67615      226.2151       1920.3708      0.9969611
   1531000  -675.32424      99.069892     -774.39414      261.69997     -3080.24        1920.3708      0.9969611
   1532000  -666.49398      125.96819     -792.46216      332.75367     -1480.6108      1920.3708      0.9969611
   1533000  -683.0109       112.75753     -795.76843      297.85682     -1010.7641      1920.3708      0.9969611
   1534000  -676.90104      105.05073     -781.95177      277.49875     -2993.3703      1920.3708      0.9969611
   1535000  -657.8327       134.75936     -792.59206      355.97616     -374.90211      1920.3708      0.9969611
   1536000  -702.41715      107.61314     -810.03029      284.26755      843.62541      1920.3708      0.9969611
   1537000  -673.01228      113.18614     -786.19843      298.98902     -1070.6446      1920.3708      0.9969611
   1538000  -694.3826       113.8329      -808.2155       300.69746      505.76298      1920.3708      0.9969611
   1539000  -650.03727      120.99276     -771.03004      319.61075     -521.42081      1920.3708      0.9969611
   1540000  -684.95344      100.5848      -785.53824      265.7017      -1894.5677      1920.3708      0.9969611
   1541000  -664.76942      103.52395     -768.29337      273.46567     -625.81915      1920.3708      0.9969611
   1542000  -671.26542      110.78207     -782.04749      292.6385       578.70185      1920.3708      0.9969611
   1543000  -643.46155      115.63891     -759.10046      305.46817     -431.04527      1920.3708      0.9969611
   1544000  -658.21578      107.00952     -765.2253       282.67304     -2395.1169      1920.3708      0.9969611
   1545000  -675.20792      108.8007      -784.00862      287.40457     -2561.7558      1920.3708      0.9969611
   1546000  -665.40438      106.56635     -771.97073      281.50239      90.999568      1920.3708      0.9969611
   1547000  -670.03801      119.34885     -789.38686      315.26824      1695.7697      1920.3708      0.9969611
   1548000  -675.83742      113.01687     -788.85429      298.54187     -1557.1536      1920.3708      0.9969611
   1549000  -684.80737      112.50298     -797.31035      297.18439      857.8294       1920.3708      0.9969611
   1550000  -655.41436      114.8654      -770.27976      303.42489      1064.1785      1920.3708      0.9969611
   1551000  -641.77594      127.80682     -769.58276      337.61055     -2214.8508      1920.3708      0.9969611
   1552000  -670.27993      109.5311      -779.81103      289.33397     -2688.9795      1920.3708      0.9969611
   1553000  -653.37703      114.09918     -767.47622      301.40088      1175.3363      1920.3708      0.9969611
   1554000  -674.46979      110.21504     -784.68483      291.14065     -1973.0029      1920.3708      0.9969611
   1555000  -666.30186      113.40797     -779.70983      299.57499      234.17451      1920.3708      0.9969611
   1556000  -670.22556      121.72366     -791.94923      321.54147     -927.75747      1920.3708      0.9969611
   1557000  -653.74517      117.63431     -771.37948      310.73917     -154.66514      1920.3708      0.9969611
   1558000  -681.21287      109.1263      -790.33917      288.26465     -220.405        1920.3708      0.9969611
   1559000  -696.96099      112.35167     -809.31266      296.78469      1537.371       1920.3708      0.9969611
   1560000  -701.30583      105.43203     -806.73786      278.50599     -1450.5821      1920.3708      0.9969611
   1561000  -663.13877      118.80031     -781.93909      313.81923      1601.4125      1920.3708      0.9969611
   1562000  -673.77814      111.87316     -785.6513       295.5207       377.51221      1920.3708      0.9969611
   1563000  -678.71463      112.70133     -791.41596      297.70836     -165.49651      1920.3708      0.9969611
   1564000  -672.39196      119.80102     -792.19299      316.46268     -6481.9461      1920.3708      0.9969611
   1565000  -676.82203      113.70898     -790.531        300.37012     -2226.9588      1920.3708      0.9969611
   1566000  -692.21574      105.95258     -798.16832      279.88105     -3343.3291      1920.3708      0.9969611
   1567000  -701.67353      103.42008     -805.09361      273.19128      1873.13        1920.3708      0.9969611
   1568000  -689.49148      119.13703     -808.6285       314.7087       831.75294      1920.3708      0.9969611
   1569000  -654.23438      122.06567     -776.30005      322.4449      -511.71366      1920.3708      0.9969611
   1570000  -673.36528      110.44666     -783.81194      291.75247      1811.7942      1920.3708      0.9969611
   1571000  -676.6735       113.58511     -790.2586       300.04291      224.91307      1920.3708      0.9969611
   1572000  -675.34656      110.452       -785.79856      291.76659     -1249.4271      1920.3708      0.9969611
   1573000  -655.51256      108.30486     -763.81741      286.09477     -878.28796      1920.3708      0.9969611
   1574000  -657.74107      111.25023     -768.9913       293.87516      1578.2857      1920.3708      0.9969611
   1575000  -658.15726      117.46436     -775.62161      310.29022     -864.86246      1920.3708      0.9969611
   1576000  -649.72035      109.96644     -759.6868       290.48396     -561.6701       1920.3708      0.9969611
   1577000  -672.68488      111.35791     -784.04279      294.15962     -1418.2993      1920.3708      0.9969611
   1578000  -684.48849      110.83841     -795.3269       292.78733      443.10245      1920.3708      0.9969611
   1579000  -660.03665      106.27439     -766.31104      280.73115      2807.5362      1920.3708      0.9969611
   1580000  -663.47319      95.094133     -758.56732      251.19772     -1694.8035      1920.3708      0.9969611
   1581000  -667.39513      100.5433      -767.93843      265.59209     -1023.3921      1920.3708      0.9969611
   1582000  -660.75496      120.64804     -781.403        318.70013     -2114.8353      1920.3708      0.9969611
   1583000  -693.62081      104.79466     -798.41547      276.82233     -924.36672      1920.3708      0.9969611
   1584000  -686.85881      109.56421     -796.42303      289.42144      3337.2193      1920.3708      0.9969611
   1585000  -675.3181       108.732       -784.0501       287.22309     -631.1278       1920.3708      0.9969611
   1586000  -663.87677      114.687       -778.56378      302.95365      464.63302      1920.3708      0.9969611
   1587000  -653.99336      109.37835     -763.37171      288.93046     -2450.7545      1920.3708      0.9969611
   1588000  -670.47363      113.46904     -783.94267      299.7363      -1577.5407      1920.3708      0.9969611
   1589000  -664.47283      116.26141     -780.73424      307.11255      1103.2777      1920.3708      0.9969611
   1590000  -652.13245      119.71602     -771.84847      316.23815      1973.5829      1920.3708      0.9969611
   1591000  -665.53729      103.74809     -769.28538      274.05776     -430.92458      1920.3708      0.9969611
   1592000  -684.03493      110.09545     -794.13038      290.82474     -2511.9061      1920.3708      0.9969611
   1593000  -652.8043       122.20839     -775.01269      322.82191     -3468.5509      1920.3708      0.9969611
   1594000  -690.23212      106.07394     -796.30606      280.20165     -2086.1095      1920.3708      0.9969611
   1595000  -657.74344      112.50718     -770.25062      297.19549     -914.49868      1920.3708      0.9969611
   1596000  -650.06621      118.2958      -768.36201      312.48654     -3937.1156      1920.3708      0.9969611
   1597000  -688.29724      104.79704     -793.09427      276.82861     -1123.3672      1920.3708      0.9969611
   1598000  -665.51612      109.74278     -775.25889      289.89313     -2662.61        1920.3708      0.9969611
   1599000  -677.75541      101.68719     -779.44259      268.61373     -807.75125      1920.3708      0.9969611
   1600000  -655.93937      114.13513     -770.0745       301.49584      1600.3143      1920.3708      0.9969611
   1601000  -680.19253      125.53524     -805.72777      331.61001      423.45888      1920.3708      0.9969611
   1602000  -682.3042       108.38187     -790.68607      286.29821     -557.6076       1920.3708      0.9969611
   1603000  -678.33891      106.84044     -785.17936      282.22642      1340.4881      1920.3708      0.9969611
   1604000  -711.25144      96.73774      -807.98918      255.53943     -2204.8258      1920.3708      0.9969611
   1605000  -690.18306      108.67974     -798.8628       287.08504      615.12003      1920.3708      0.9969611
   1606000  -686.30572      118.86193     -805.16765      313.98201     -2767.3943      1920.3708      0.9969611
   1607000  -667.52883      113.09255     -780.62139      298.74179      649.4264       1920.3708      0.9969611
   1608000  -683.63483      108.42326     -792.05809      286.40752      902.44587      1920.3708      0.9969611
   1609000  -669.843        114.58212     -784.42512      302.6766       932.40885      1920.3708      0.9969611
   1610000  -702.10672      101.26638     -803.3731       267.50215     -3525.2461      1920.3708      0.9969611
   1611000  -678.9215       113.91965     -792.84116      300.92664     -604.58394      1920.3708      0.9969611
   1612000  -680.82347      118.00133     -798.82479      311.70866     -501.233        1920.3708      0.9969611
   1613000  -681.94292      111.81138     -793.7543       295.35749     -3340.7907      1920.3708      0.9969611
   1614000  -695.40762      100.0357      -795.44332      264.2512      -3.7202577      1920.3708      0.9969611
   1615000  -669.36617      97.211232     -766.5774       256.79019     -709.19269      1920.3708      0.9969611
   1616000  -690.27732      107.77977     -798.05709      284.70772     -2303.1511      1920.3708      0.9969611
   1617000  -682.28741      106.69778     -788.98519      281.84957     -2343.6833      1920.3708      0.9969611
   1618000  -677.87008      109.16328     -787.03336      288.36234     -1117.5735      1920.3708      0.9969611
   1619000  -657.15737      121.42466     -778.58203      320.75163     -2265.6175      1920.3708      0.9969611
   1620000  -651.29988      117.18806     -768.48795      309.56037     -1693.1227      1920.3708      0.9969611
   1621000  -672.36386      113.87973     -786.24359      300.82117      1249.6323      1920.3708      0.9969611
   1622000  -697.45237      106.29108     -803.74345      280.77524      2474.2534      1920.3708      0.9969611
   1623000  -685.99586      111.18339     -797.17925      293.69861     -664.07387      1920.3708      0.9969611
   1624000  -657.79173      115.45542     -773.24715      304.98346     -1233.2517      1920.3708      0.9969611
   1625000  -691.40385      94.053546     -785.45739      248.44894      332.44085      1920.3708      0.9969611
   1626000  -677.69115      112.99846     -790.68961      298.49324     -532.61672      1920.3708      0.9969611
   1627000  -682.26832      107.76681     -790.03513      284.67348     -2668.0908      1920.3708      0.9969611
   1628000  -654.06889      124.85153     -778.92042      329.80394      1632.1684      1920.3708      0.9969611
   1629000  -675.66562      113.11042     -788.77604      298.789       -1540.5961      1920.3708      0.9969611
   1630000  -654.77201      117.02394     -771.79595      309.12682     -1258.9956      1920.3708      0.9969611
   1631000  -662.09747      103.77227     -765.86974      274.12163      332.3429       1920.3708      0.9969611
   1632000  -659.24263      124.48644     -783.72907      328.83954      456.87283      1920.3708      0.9969611
   1633000  -655.90158      120.47654     -776.37812      318.24711     -3373.687       1920.3708      0.9969611
   1634000  -654.39331      121.53808     -775.93139      321.05124      1124.4462      1920.3708      0.9969611
   1635000  -661.18408      111.27823     -772.4623       293.94913      486.69367      1920.3708      0.9969611
   1636000  -670.77965      124.19469     -794.97434      328.06885     -2839.1386      1920.3708      0.9969611
   1637000  -677.93692      108.73127     -786.66819      287.22116     -1168.8242      1920.3708      0.9969611
   1638000  -675.74192      106.70031     -782.44223      281.85624     -2259.5717      1920.3708      0.9969611
   1639000  -656.47413      105.75182     -762.22595      279.35074     -788.2051       1920.3708      0.9969611
   1640000  -681.50936      105.61661     -787.12597      278.99358      1417.0961      1920.3708      0.9969611
   1641000  -675.77059      116.07016     -791.84075      306.60736     -2053.8874      1920.3708      0.9969611
   1642000  -657.69172      115.29827     -772.98999      304.56835      423.72427      1920.3708      0.9969611
   1643000  -682.94035      100.18814     -783.12849      264.6539      -4241.2622      1920.3708      0.9969611
   1644000  -658.84636      114.3449      -773.19126      302.04994      501.21782      1920.3708      0.9969611
   1645000  -669.52222      119.62657     -789.14879      316.00184     -889.84932      1920.3708      0.9969611
   1646000  -687.33971      102.2127      -789.55241      270.00191     -2096.9015      1920.3708      0.9969611
   1647000  -659.32991      122.65562     -781.98553      324.0033      -1323.1021      1920.3708      0.9969611
   1648000  -644.97058      119.49295     -764.46352      315.64887      1170.4931      1920.3708      0.9969611
   1649000  -687.97224      117.03938     -805.01162      309.16762     -1808.9684      1920.3708      0.9969611
   1650000  -684.14492      109.92571     -794.07063      290.37637     -723.31858      1920.3708      0.9969611
   1651000  -687.76517      108.3572      -796.12237      286.23302      1019.9525      1920.3708      0.9969611
   1652000  -708.7707       103.88135     -812.65205      274.40976      1985.7584      1920.3708      0.9969611
   1653000  -660.01826      123.01254     -783.0308       324.94612     -1947.4201      1920.3708      0.9969611
   1654000  -677.02287      115.86798     -792.89086      306.07328     -1246.6064      1920.3708      0.9969611
   1655000  -661.94565      115.94595     -777.8916       306.27924     -1264.7507      1920.3708      0.9969611
   1656000  -676.90311      122.83049     -799.7336       324.46522      1856.3873      1920.3708      0.9969611
   1657000  -683.58212      112.29882     -795.88094      296.6451      -86.626742      1920.3708      0.9969611
   1658000  -692.64313      108.35281     -800.99594      286.22145      237.63177      1920.3708      0.9969611
   1659000  -671.8311       106.21756     -778.04866      280.58103     -202.63546      1920.3708      0.9969611
   1660000  -681.19025      117.76492     -798.95518      311.08418      59.561518      1920.3708      0.9969611
   1661000  -675.97426      117.55601     -793.53027      310.53234     -3040.2408      1920.3708      0.9969611
   1662000  -678.82163      108.84279     -787.66441      287.51575     -579.20926      1920.3708      0.9969611
   1663000  -667.82934      114.51244     -782.34178      302.49252     -581.47587      1920.3708      0.9969611
   1664000  -683.69281      127.95557     -811.64838      338.00349     -345.32941      1920.3708      0.9969611
   1665000  -687.31026      110.41808     -797.72834      291.67699     -931.17332      1920.3708      0.9969611
   1666000  -670.97264      105.91431     -776.88696      279.77997      1912.0488      1920.3708      0.9969611
   1667000  -687.84281      108.93128     -796.77409      287.7495       882.04118      1920.3708      0.9969611
   1668000  -682.55701      113.80963     -796.36665      300.63601     -945.34698      1920.3708      0.9969611
   1669000  -704.79004      109.9441      -814.73414      290.42494     -983.70576      1920.3708      0.9969611
   1670000  -695.94296      112.72745     -808.6704       297.77734     -351.07659      1920.3708      0.9969611
   1671000  -670.76515      106.40958     -777.17472      281.08826     -1015.9814      1920.3708      0.9969611
   1672000  -652.83299      113.94217     -766.77515      300.98611     -3188.5459      1920.3708      0.9969611
   1673000  -671.03611      116.49395     -787.53006      307.72683     -1078.8015      1920.3708      0.9969611
   1674000  -687.15165      105.25028     -792.40193      278.02589      1649.0361      1920.3708      0.9969611
   1675000  -684.25688      110.74411     -795.00099      292.53822     -2262.9995      1920.3708      0.9969611
   1676000  -650.0178       118.95948     -768.97728      314.23968      958.68078      1920.3708      0.9969611
   1677000  -675.8321       120.18716     -796.01926      317.48269     -362.90669      1920.3708      0.9969611
   1678000  -659.9656       109.36253     -769.32813      288.88869      766.36515      1920.3708      0.9969611
   1679000  -646.41373      121.68796     -768.1017       321.44716      2792.5596      1920.3708      0.9969611
   1680000  -666.02807      118.72012     -784.74819      313.60741      2651.1759      1920.3708      0.9969611
   1681000  -697.29589      102.17677     -799.47266      269.90701      631.60207      1920.3708      0.9969611
   1682000  -677.85167      127.38925     -805.24092      336.5075      -1013.7617      1920.3708      0.9969611
   1683000  -668.46679      122.43104     -790.89783      323.41006     -2697.5189      1920.3708      0.9969611
   1684000  -688.02781      105.67854     -793.70635      279.15717      1063.2052      1920.3708      0.9969611
   1685000  -686.07186      124.13843     -810.21029      327.92024      494.87622      1920.3708      0.9969611
   1686000  -700.70393      104.14682     -804.85076      275.11104      935.34921      1920.3708      0.9969611
   1687000  -683.54025      115.86974     -799.40999      306.07792      2019.6038      1920.3708      0.9969611
   1688000  -673.30257      121.41278     -794.71535      320.72026      542.98631      1920.3708      0.9969611
   1689000  -680.37214      115.27467     -795.64681      304.50601     -1882.9057      1920.3708      0.9969611
   1690000  -679.77698      113.69374     -793.47072      300.32987     -1779.3664      1920.3708      0.9969611
   1691000  -652.18147      118.26151     -770.44298      312.39596     -561.46651      1920.3708      0.9969611
   1692000  -681.72767      106.24721     -787.97488      280.65935     -732.71236      1920.3708      0.9969611
   1693000  -668.76365      113.45099     -782.21463      299.68862     -2490.9678      1920.3708      0.9969611
   1694000  -664.50428      120.47622     -784.9805       318.24625      1519.5589      1920.3708      0.9969611
   1695000  -664.17585      129.58432     -793.76018      342.30595     -1858.7804      1920.3708      0.9969611
   1696000  -675.28005      116.37767     -791.65773      307.41966     -2407.2593      1920.3708      0.9969611
   1697000  -671.00882      114.40486     -785.41368      302.20835     -2264.4987      1920.3708      0.9969611
   1698000  -687.42298      106.18278     -793.60577      280.48916     -832.41126      1920.3708      0.9969611
   1699000  -683.26238      110.98166     -794.24404      293.16573     -1253.8006      1920.3708      0.9969611
   1700000  -677.1047       119.0849      -796.1896       314.571       -2149.2225      1920.3708      0.9969611
   1701000  -631.84948      109.42835     -741.27784      289.06255     -1287.1615      1920.3708      0.9969611
   1702000  -667.03454      113.10276     -780.1373       298.76876      1200.8294      1920.3708      0.9969611
   1703000  -647.83806      118.20638     -766.04444      312.25033      71.950399      1920.3708      0.9969611
   1704000  -626.96705      128.86456     -755.8316       340.40463     -807.49599      1920.3708      0.9969611
   1705000  -664.01898      103.66193     -767.68091      273.83015      715.69684      1920.3708      0.9969611
   1706000  -653.23289      114.86433     -768.09722      303.42206     -1579.8706      1920.3708      0.9969611
   1707000  -636.90492      115.00775     -751.91267      303.80091     -939.02424      1920.3708      0.9969611
   1708000  -644.5109       128.88957     -773.40048      340.47071     -511.3314       1920.3708      0.9969611
   1709000  -677.9971       102.94733     -780.94444      271.94249     -3797.6186      1920.3708      0.9969611
   1710000  -706.44804      96.16667      -802.61471      254.0309      -353.21998      1920.3708      0.9969611
   1711000  -682.49244      100.89239     -783.38482      266.51422      4028.5654      1920.3708      0.9969611
   1712000  -640.64749      110.45118     -751.09867      291.76443     -465.20349      1920.3708      0.9969611
   1713000  -669.80306      116.65105     -786.45411      308.14181     -2753.3275      1920.3708      0.9969611
   1714000  -694.25587      117.19895     -811.45482      309.58913     -324.27322      1920.3708      0.9969611
   1715000  -689.71727      94.820789     -784.53806      250.47567     -1189.734       1920.3708      0.9969611
   1716000  -677.97882      122.49089     -800.46971      323.56815     -2387.6912      1920.3708      0.9969611
   1717000  -663.06595      132.42787     -795.49382      349.81738      3354.2374      1920.3708      0.9969611
   1718000  -671.62447      112.85024     -784.47472      298.10171     -1755.1589      1920.3708      0.9969611
   1719000  -674.46082      106.46022     -780.92104      281.22203      302.22257      1920.3708      0.9969611
   1720000  -635.48711      134.92578     -770.41289      356.41578     -1741.5636      1920.3708      0.9969611
   1721000  -687.5632       102.26335     -789.82655      270.13571     -2576.291       1920.3708      0.9969611
   1722000  -684.9921       101.93833     -786.93043      269.27714      465.52596      1920.3708      0.9969611
   1723000  -662.20104      115.33157     -777.53262      304.65632     -35.483201      1920.3708      0.9969611
   1724000  -685.05809      116.02306     -801.08115      306.48293      469.17616      1920.3708      0.9969611
   1725000  -691.89987      108.21098     -800.11084      285.84677     -1273.8284      1920.3708      0.9969611
   1726000  -701.45162      110.00197     -811.45359      290.57781     -2021.5345      1920.3708      0.9969611
   1727000  -686.63124      105.57531     -792.20655      278.88447     -2630.2365      1920.3708      0.9969611
   1728000  -668.23176      118.97836     -787.21012      314.28957     -1922.3199      1920.3708      0.9969611
   1729000  -682.18894      107.89886     -790.08779      285.02228     -1106.4304      1920.3708      0.9969611
   1730000  -677.55825      111.72437     -789.28262      295.12765      55.543691      1920.3708      0.9969611
   1731000  -672.47797      103.60376     -776.08173      273.6765      -1316.478       1920.3708      0.9969611
   1732000  -678.64651      109.21943     -787.86594      288.51066      929.19332      1920.3708      0.9969611
   1733000  -679.17371      112.77226     -791.94597      297.89571     -244.89973      1920.3708      0.9969611
   1734000  -641.94257      125.75484     -767.69741      332.1901      -443.09383      1920.3708      0.9969611
   1735000  -682.0467       99.862694     -781.90939      263.79421     -1620.5368      1920.3708      0.9969611
   1736000  -686.09856      107.44608     -793.54464      283.82624     -909.75336      1920.3708      0.9969611
   1737000  -659.93154      124.52212     -784.45366      328.93378     -917.55177      1920.3708      0.9969611
   1738000  -681.08953      109.85197     -790.94151      290.18158     -174.81199      1920.3708      0.9969611
   1739000  -671.05625      107.01271     -778.06895      282.68146     -1300.1444      1920.3708      0.9969611
   1740000  -663.90371      117.24847     -781.15218      309.71993     -2100.8322      1920.3708      0.9969611
   1741000  -686.39729      113.62309     -800.02037      300.14323     -363.83688      1920.3708      0.9969611
   1742000  -656.02865      116.98953     -773.01818      309.03594     -1047.628       1920.3708      0.9969611
   1743000  -675.71345      107.43616     -783.14961      283.80004      1430.8954      1920.3708      0.9969611
   1744000  -650.2171       120.26988     -770.48697      317.70119     -1803.6693      1920.3708      0.9969611
   1745000  -648.66329      118.60352     -767.26682      313.29941      444.57414      1920.3708      0.9969611
   1746000  -649.76409      126.73135     -776.49544      334.76961     -2873.7478      1920.3708      0.9969611
   1747000  -673.98132      112.02563     -786.00694      295.92344      1537.3589      1920.3708      0.9969611
   1748000  -650.3753       115.22145     -765.59675      304.36543      1815.4153      1920.3708      0.9969611
   1749000  -649.32319      130.54066     -779.86385      344.83217     -2026.4083      1920.3708      0.9969611
   1750000  -678.95009      108.69213     -787.64222      287.11778     -4584.5701      1920.3708      0.9969611
   1751000  -650.73107      106.76414     -757.49521      282.02486     -1219.2721      1920.3708      0.9969611
   1752000  -668.26817      120.27765     -788.54581      317.72172     -1727.7687      1920.3708      0.9969611
   1753000  -675.50509      117.46537     -792.97046      310.2929      -2569.2712      1920.3708      0.9969611
   1754000  -660.60091      119.13841     -779.73932      314.71235     -665.34704      1920.3708      0.9969611
   1755000  -676.43929      101.61253     -778.05182      268.41652     -2711.1819      1920.3708      0.9969611
   1756000  -681.44461      106.84583     -788.29044      282.24064     -1896.843       1920.3708      0.9969611
   1757000  -694.66577      118.13576     -812.80154      312.06379      199.61055      1920.3708      0.9969611
   1758000  -674.92626      114.10082     -789.02709      301.40521      522.47496      1920.3708      0.9969611
   1759000  -661.87407      125.49351     -787.36758      331.49977     -1490.2544      1920.3708      0.9969611
   1760000  -681.12301      106.18494     -787.30795      280.49486     -794.22391      1920.3708      0.9969611
   1761000  -651.55668      125.30379     -776.86048      330.99863      1125.0988      1920.3708      0.9969611
   1762000  -672.48975      118.48469     -790.97444      312.98549     -271.72794      1920.3708      0.9969611
   1763000  -672.9223       121.42706     -794.34936      320.75797      3871.9699      1920.3708      0.9969611
   1764000  -707.6344       115.82857     -823.46297      305.96917     -301.90213      1920.3708      0.9969611
   1765000  -656.84327      123.26915     -780.11243      325.62399     -1712.0953      1920.3708      0.9969611
   1766000  -696.45118      115.66876     -812.11994      305.54703      206.84399      1920.3708      0.9969611
   1767000  -660.80516      121.9518      -782.75695      322.1441       283.80607      1920.3708      0.9969611
   1768000  -675.37811      106.70561     -782.08372      281.87024     -1527.8075      1920.3708      0.9969611
   1769000  -645.8891       126.71909     -772.60819      334.73722      66.946211      1920.3708      0.9969611
   1770000  -668.99287      111.48812     -780.48098      294.50356      231.86688      1920.3708      0.9969611
   1771000  -690.48932      98.305764     -788.79509      259.68147     -4261.0012      1920.3708      0.9969611
   1772000  -667.29223      121.59893     -788.89116      321.21199     -1219.6981      1920.3708      0.9969611
   1773000  -697.35666      95.962885     -793.31955      253.49259     -1341.1054      1920.3708      0.9969611
   1774000  -650.34781      117.46726     -767.81507      310.29788      4540.5946      1920.3708      0.9969611
   1775000  -677.76556      111.13887     -788.90444      293.58102     -2124.7487      1920.3708      0.9969611
   1776000  -689.84149      118.97085     -808.81233      314.26972      54.044233      1920.3708      0.9969611
   1777000  -665.58424      117.94222     -783.52646      311.55254     -1069.8009      1920.3708      0.9969611
   1778000  -662.62792      130.49311     -793.12103      344.70656     -1007.4001      1920.3708      0.9969611
   1779000  -679.46527      101.4102      -780.87547      267.88206     -623.59417      1920.3708      0.9969611
   1780000  -673.2459       112.45129     -785.69719      297.04786      449.69952      1920.3708      0.9969611
   1781000  -673.83059      116.64735     -790.47794      308.13203     -468.95389      1920.3708      0.9969611
   1782000  -677.47786      108.02947     -785.50732      285.3673      -561.61836      1920.3708      0.9969611
   1783000  -662.59611      119.14726     -781.74337      314.73573     -3094.2012      1920.3708      0.9969611
   1784000  -673.28562      106.5148      -779.80041      281.3662      -4816.9393      1920.3708      0.9969611
   1785000  -662.05157      115.21727     -777.26885      304.35439     -743.66442      1920.3708      0.9969611
   1786000  -649.18324      113.92235     -763.10559      300.93377      2938.948       1920.3708      0.9969611
   1787000  -637.38898      106.13552     -743.5245       280.36431     -250.3285       1920.3708      0.9969611
   1788000  -665.97242      118.62244     -784.59486      313.34937     -116.86518      1920.3708      0.9969611
   1789000  -692.00386      98.04136      -790.04522      258.98303      424.3893       1920.3708      0.9969611
   1790000  -671.56092      116.51139     -788.0723       307.77288      316.08496      1920.3708      0.9969611
   1791000  -652.21814      128.99838     -781.21652      340.75814      465.19404      1920.3708      0.9969611
   1792000  -704.52984      109.68884     -814.21869      289.75066     -1380.1626      1920.3708      0.9969611
   1793000  -694.38967      110.44068     -804.83035      291.73669     -396.16716      1920.3708      0.9969611
   1794000  -659.04517      97.122345     -756.16751      256.55539     -2676.7686      1920.3708      0.9969611
   1795000  -652.64606      117.38662     -770.03268      310.08486     -2215.9337      1920.3708      0.9969611
   1796000  -689.8908       116.39239     -806.2832       307.45855      587.12585      1920.3708      0.9969611
   1797000  -712.73174      97.375073     -810.10682      257.22299      1798.9025      1920.3708      0.9969611
   1798000  -684.09128      109.71286     -793.80414      289.8141       323.22739      1920.3708      0.9969611
   1799000  -656.75158      119.2407      -775.99228      314.98255      244.12858      1920.3708      0.9969611
   1800000  -682.38602      107.61938     -790.0054       284.28404     -719.03883      1920.3708      0.9969611
   1801000  -662.96974      118.48197     -781.45171      312.97831     -594.33337      1920.3708      0.9969611
   1802000  -693.91663      106.77406     -800.69068      282.05105     -179.19779      1920.3708      0.9969611
   1803000  -713.14767      112.04769     -825.19536      295.98171     -1009.5546      1920.3708      0.9969611
   1804000  -676.10551      118.29141     -794.39692      312.47494      2926.283       1920.3708      0.9969611
   1805000  -699.99949      100.11716     -800.11664      264.46639     -538.29317      1920.3708      0.9969611
   1806000  -680.95838      110.3628      -791.32118      291.53097      1850.683       1920.3708      0.9969611
   1807000  -669.97022      98.481919     -768.45214      260.1468      -721.18467      1920.3708      0.9969611
   1808000  -665.70453      107.61491     -773.31944      284.27221     -808.60824      1920.3708      0.9969611
   1809000  -641.32447      119.14595     -760.47042      314.73225     -242.68637      1920.3708      0.9969611
   1810000  -684.0145       100.70707     -784.72157      266.02468      0.64203458     1920.3708      0.9969611
   1811000  -668.35012      111.91347     -780.26359      295.62716     -797.13971      1920.3708      0.9969611
   1812000  -671.73903      109.72122     -781.46026      289.83619     -1869.8855      1920.3708      0.9969611
   1813000  -654.89225      121.20715     -776.09939      320.17705     -10.799584      1920.3708      0.9969611
   1814000  -684.4405       108.81735     -793.25785      287.44856      2027.6024      1920.3708      0.9969611
   1815000  -679.60792      117.227       -796.83492      309.66322      148.58233      1920.3708      0.9969611
   1816000  -685.69669      117.6127      -803.3094       310.68208     -1641.1129      1920.3708      0.9969611
   1817000  -671.71759      106.95666     -778.67425      282.5334      -927.44689      1920.3708      0.9969611
   1818000  -643.59586      113.41424     -757.0101       299.59156      31.260147      1920.3708      0.9969611
   1819000  -666.5398       103.26369     -769.80349      272.77818      368.89443      1920.3708      0.9969611
   1820000  -634.81399      129.07096     -763.88495      340.94986      1310.5792      1920.3708      0.9969611
   1821000  -681.12186      111.23439     -792.35625      293.83332     -1061.3347      1920.3708      0.9969611
   1822000  -686.35         111.06724     -797.41724      293.39178      565.92619      1920.3708      0.9969611
   1823000  -666.57774      109.56883     -776.14657      289.43364      817.66675      1920.3708      0.9969611
   1824000  -635.02643      131.41467     -766.4411       347.14092      499.45334      1920.3708      0.9969611
   1825000  -672.33312      124.05379     -796.38691      327.69665     -2886.5711      1920.3708      0.9969611
   1826000  -659.61736      116.87413     -776.49148      308.73109     -1068.7869      1920.3708      0.9969611
   1827000  -688.22926      103.36858     -791.59784      273.05525     -3052.4369      1920.3708      0.9969611
   1828000  -679.14493      107.78199     -786.92692      284.71357      1326.3489      1920.3708      0.9969611
   1829000  -674.52635      120.46254     -794.98889      318.21014      2401.471       1920.3708      0.9969611
   1830000  -676.81349      103.7709      -780.58438      274.11799      550.42502      1920.3708      0.9969611
   1831000  -695.41617      109.88833     -805.30451      290.27763     -718.65706      1920.3708      0.9969611
   1832000  -661.10066      113.90434     -775.005        300.8862      -3714.1755      1920.3708      0.9969611
   1833000  -672.04282      111.18445     -783.22727      293.70142     -2753.7034      1920.3708      0.9969611
   1834000  -633.29652      122.0013      -755.29782      322.27486     -455.27767      1920.3708      0.9969611
   1835000  -685.15164      97.816708     -782.96835      258.38959     -986.99374      1920.3708      0.9969611
   1836000  -651.93422      108.30824     -760.24246      286.10369      569.99295      1920.3708      0.9969611
   1837000  -669.18641      109.62454     -778.81095      289.5808      -3444.3446      1920.3708      0.9969611
   1838000  -682.8655       102.57178     -785.43728      270.95044     -489.89705      1920.3708      0.9969611
   1839000  -647.47606      119.15699     -766.63304      314.76141     -1056.3672      1920.3708      0.9969611
   1840000  -667.48086      101.92525     -769.40611      269.24258     -1954.6131      1920.3708      0.9969611
   1841000  -648.41016      116.89275     -765.30291      308.78029     -720.64438      1920.3708      0.9969611
   1842000  -687.74884      100.85019     -788.59903      266.40275     -1744.595       1920.3708      0.9969611
   1843000  -706.68467      107.11784     -813.80251      282.95918     -2381.5251      1920.3708      0.9969611
   1844000  -668.91859      108.88541     -777.804        287.62834     -1260.2632      1920.3708      0.9969611
   1845000  -674.51942      102.91885     -777.43827      271.86726     -3668.8266      1920.3708      0.9969611
   1846000  -672.48442      118.37979     -790.86421      312.7084      -1862.2745      1920.3708      0.9969611
   1847000  -680.65882      108.98206     -789.64089      287.88365      472.57211      1920.3708      0.9969611
   1848000  -669.72949      118.13819     -787.86768      312.07018     -452.81239      1920.3708      0.9969611
   1849000  -698.9819       102.7727      -801.75459      271.48119     -1024.1863      1920.3708      0.9969611
   1850000  -649.26854      122.53501     -771.80355      323.6847      -3141.0099      1920.3708      0.9969611
   1851000  -663.16357      114.46929     -777.63286      302.37855      273.80699      1920.3708      0.9969611
   1852000  -653.69928      116.81064     -770.50991      308.56337     -1481.4073      1920.3708      0.9969611
   1853000  -662.05527      121.31353     -783.3688       320.45807      1052.8035      1920.3708      0.9969611
   1854000  -687.48364      120.22526     -807.7089       317.58333     -210.60712      1920.3708      0.9969611
   1855000  -671.34207      123.97473     -795.3168       327.48781      1672.7883      1920.3708      0.9969611
   1856000  -682.63022      113.6451      -796.27532      300.20139      3200.6752      1920.3708      0.9969611
   1857000  -693.02419      105.8771      -798.9013       279.68169     -1003.9435      1920.3708      0.9969611
   1858000  -670.98912      118.64024     -789.62936      313.39638      1191.4214      1920.3708      0.9969611
   1859000  -670.87239      109.77545     -780.64784      289.97943      2155.2867      1920.3708      0.9969611
   1860000  -671.29505      128.18613     -799.48118      338.61252      1403.5089      1920.3708      0.9969611
   1861000  -687.87082      111.36639     -799.23721      294.18201     -2011.6676      1920.3708      0.9969611
   1862000  -664.09654      121.19337     -785.28991      320.14066     -343.69611      1920.3708      0.9969611
   1863000  -646.23132      127.16228     -773.39359      335.90794     -704.52337      1920.3708      0.9969611
   1864000  -672.34         119.78709     -792.12709      316.42588     -1559.8083      1920.3708      0.9969611
   1865000  -672.38584      110.18561     -782.57145      291.0629       303.63451      1920.3708      0.9969611
   1866000  -643.87737      129.2774      -773.15477      341.49519     -974.58625      1920.3708      0.9969611
   1867000  -673.02441      114.62795     -787.65236      302.79764      34.332705      1920.3708      0.9969611
   1868000  -642.40303      122.62066     -765.02368      323.91094     -1480.6535      1920.3708      0.9969611
   1869000  -669.90086      121.65414     -791.555        321.35782     -83.501348      1920.3708      0.9969611
   1870000  -701.71998      107.37828     -809.09826      283.64715     -1715.8797      1920.3708      0.9969611
   1871000  -682.41721      110.0298      -792.44701      290.65131     -529.87016      1920.3708      0.9969611
   1872000  -665.80927      112.87705     -778.68632      298.17252     -28.08955       1920.3708      0.9969611
   1873000  -694.80252      103.81612     -798.61865      274.23746     -1601.5078      1920.3708      0.9969611
   1874000  -674.22235      112.75768     -786.98003      297.85721      604.93745      1920.3708      0.9969611
   1875000  -650.1434       118.05226     -768.19566      311.84321     -3110.7959      1920.3708      0.9969611
   1876000  -682.7605       94.828372     -777.58887      250.4957      -2291.6941      1920.3708      0.9969611
   1877000  -662.09655      106.9235      -769.02005      282.4458       1046.2307      1920.3708      0.9969611
   1878000  -655.37323      115.15164     -770.52488      304.18103     -3088.2741      1920.3708      0.9969611
   1879000  -656.11778      110.79286     -766.91064      292.667       -3889.9842      1920.3708      0.9969611
   1880000  -653.62341      122.38028     -776.00369      323.27597      32.071073      1920.3708      0.9969611
   1881000  -705.62473      104.20506     -809.8298       275.26488     -272.62675      1920.3708      0.9969611
   1882000  -661.20807      117.95951     -779.16757      311.59819     -955.71945      1920.3708      0.9969611
   1883000  -683.45641      116.9651      -800.42151      308.97141     -1333.3162      1920.3708      0.9969611
   1884000  -662.29851      117.23293     -779.53144      309.67889     -1843.0402      1920.3708      0.9969611
   1885000  -678.06989      113.78053     -791.85042      300.55912      700.89894      1920.3708      0.9969611
   1886000  -653.50742      117.50552     -771.01295      310.39896     -24.090674      1920.3708      0.9969611
   1887000  -670.96873      113.20348     -784.17221      299.03483     -1723.5391      1920.3708      0.9969611
   1888000  -683.9882       110.23368     -794.22188      291.18989     -495.47989      1920.3708      0.9969611
   1889000  -655.54319      116.53235     -772.07553      307.82824     -927.72265      1920.3708      0.9969611
   1890000  -644.93717      126.85216     -771.78933      335.08875     -1840.0333      1920.3708      0.9969611
   1891000  -686.32271      111.19688     -797.51959      293.73424     -3472.7848      1920.3708      0.9969611
   1892000  -689.81723      122.57096     -812.38819      323.77966     -146.92774      1920.3708      0.9969611
   1893000  -697.25389      107.00488     -804.25878      282.66079      617.3273       1920.3708      0.9969611
   1894000  -678.32845      98.103498     -776.43195      259.14717     -3038.8535      1920.3708      0.9969611
   1895000  -680.70754      112.73978     -793.44732      297.80992     -739.11176      1920.3708      0.9969611
   1896000  -689.68866      114.37093     -804.05959      302.11871      332.30187      1920.3708      0.9969611
   1897000  -703.51431      103.80166     -807.31597      274.19927      254.25571      1920.3708      0.9969611
   1898000  -707.84125      107.65941     -815.50065      284.38976      3486.9444      1920.3708      0.9969611
   1899000  -685.77175      114.90441     -800.67615      303.52793     -2525.2757      1920.3708      0.9969611
   1900000  -668.18211      114.67926     -782.86137      302.9332       2665.6587      1920.3708      0.9969611
   1901000  -674.56565      115.45389     -790.01954      304.97943     -2104.9052      1920.3708      0.9969611
   1902000  -659.99987      119.10744     -779.10731      314.63054      62.482798      1920.3708      0.9969611
   1903000  -671.12705      118.0609      -789.18795      311.86603     -1754.5487      1920.3708      0.9969611
   1904000  -680.85329      104.04964     -784.90293      274.85431     -1435.1534      1920.3708      0.9969611
   1905000  -668.20513      120.89017     -789.0953       319.33974      2731.6474      1920.3708      0.9969611
   1906000  -692.36137      99.326411     -791.68778      262.37758     -162.33235      1920.3708      0.9969611
   1907000  -693.36482      100.12208     -793.4869       264.47939     -235.95702      1920.3708      0.9969611
   1908000  -694.32206      105.18309     -799.50515      277.8484      -2437.6389      1920.3708      0.9969611
   1909000  -683.4385       108.33033     -791.76883      286.16204     -2551.1729      1920.3708      0.9969611
   1910000  -678.17938      127.56146     -805.74084      336.9624       983.79158      1920.3708      0.9969611
   1911000  -674.37229      113.96738     -788.33967      301.05271     -992.32557      1920.3708      0.9969611
   1912000  -664.94759      124.07301     -789.0206       327.74743     -785.51203      1920.3708      0.9969611
   1913000  -658.52198      126.39304     -784.91502      333.87596     -1215.9343      1920.3708      0.9969611
   1914000  -660.90819      125.20833     -786.11652      330.74646     -326.77502      1920.3708      0.9969611
   1915000  -670.35094      117.91379     -788.26474      311.47743     -1621.0389      1920.3708      0.9969611
   1916000  -684.28055      116.04501     -800.32556      306.54091     -1329.3617      1920.3708      0.9969611
   1917000  -678.03335      117.89941     -795.93277      311.43945     -1352.9849      1920.3708      0.9969611
   1918000  -661.44967      114.23701     -775.68668      301.76495     -262.20623      1920.3708      0.9969611
   1919000  -672.23727      113.98875     -786.22601      301.10915      2534.3267      1920.3708      0.9969611
   1920000  -656.99988      121.10667     -778.10655      319.91163     -744.89165      1920.3708      0.9969611
   1921000  -664.28247      120.95074     -785.23321      319.49973      562.08561      1920.3708      0.9969611
   1922000  -662.978        125.91269     -788.89068      332.60707     -1845.5574      1920.3708      0.9969611
   1923000  -693.21711      111.19473     -804.41183      293.72855      2054.7936      1920.3708      0.9969611
   1924000  -729.71412      100.82858     -830.5427       266.34567     -3144.8509      1920.3708      0.9969611
   1925000  -707.15278      110.0747      -817.22748      290.76993     -1744.8847      1920.3708      0.9969611
   1926000  -693.47321      110.05946     -803.53267      290.72968     -1517.4007      1920.3708      0.9969611
   1927000  -671.03502      105.2326      -776.26762      277.97919      127.59752      1920.3708      0.9969611
   1928000  -658.11069      104.42968     -762.54037      275.85822     -2556.7452      1920.3708      0.9969611
   1929000  -668.8385       110.13373     -778.97223      290.92585     -3380.8639      1920.3708      0.9969611
   1930000  -665.62366      122.11471     -787.73837      322.57445      973.70629      1920.3708      0.9969611
   1931000  -686.1576       115.02409     -801.1817       303.84409      943.00879      1920.3708      0.9969611
   1932000  -670.82697      114.13245     -784.95941      301.48874     -3034.798       1920.3708      0.9969611
   1933000  -652.46256      122.63123     -775.09379      323.93886     -254.98662      1920.3708      0.9969611
   1934000  -658.04538      109.70682     -767.7522       289.79813     -715.0882       1920.3708      0.9969611
   1935000  -678.46055      104.63899     -783.09954      276.41113     -2307.3271      1920.3708      0.9969611
   1936000  -697.95279      102.5176      -800.4704       270.80733      230.30155      1920.3708      0.9969611
   1937000  -679.39752      109.85791     -789.25543      290.19726     -991.29276      1920.3708      0.9969611
   1938000  -668.03634      113.20839     -781.24473      299.04777     -2295.9938      1920.3708      0.9969611
   1939000  -674.5992       118.93848     -793.53768      314.18421     -959.14048      1920.3708      0.9969611
   1940000  -684.45472      92.122674     -776.57739      243.34841     -378.60073      1920.3708      0.9969611
   1941000  -679.70067      104.68135     -784.38202      276.52302     -1719.9648      1920.3708      0.9969611
   1942000  -672.00655      102.44361     -774.45016      270.61188      1186.3479      1920.3708      0.9969611
   1943000  -682.8352       108.07594     -790.91115      285.49007     -767.6245       1920.3708      0.9969611
   1944000  -713.49814      107.78547     -821.28362      284.72278      1644.0883      1920.3708      0.9969611
   1945000  -680.76829      111.27547     -792.04376      293.94185     -2407.3076      1920.3708      0.9969611
   1946000  -667.2641       122.06761     -789.3317       322.45002     -2691.7524      1920.3708      0.9969611
   1947000  -685.94799      92.210826     -778.15882      243.58127     -2803.4611      1920.3708      0.9969611
   1948000  -657.78012      124.30678     -782.0869       328.36496      2084.0626      1920.3708      0.9969611
   1949000  -656.87496      127.01884     -783.8938       335.52904     -46.499553      1920.3708      0.9969611
   1950000  -639.98991      126.16906     -766.15898      333.2843      -2923.4426      1920.3708      0.9969611
   1951000  -661.78591      112.82588     -774.61179      298.03737      702.25711      1920.3708      0.9969611
   1952000  -668.28855      119.98306     -788.2716       316.94353     -707.17263      1920.3708      0.9969611
   1953000  -653.41323      120.72398     -774.13721      318.90073     -1015.7407      1920.3708      0.9969611
   1954000  -657.32788      126.27462     -783.60251      333.56314     -4259.4849      1920.3708      0.9969611
   1955000  -646.93545      120.86295     -767.7984       319.26785      2449.2745      1920.3708      0.9969611
   1956000  -681.60575      111.20735     -792.81309      293.76189     -1430.3061      1920.3708      0.9969611
   1957000  -659.74739      107.15799     -766.90537      283.06523     -1777.8135      1920.3708      0.9969611
   1958000  -688.19378      110.41375     -798.60753      291.66555     -1060.9062      1920.3708      0.9969611
   1959000  -676.93159      104.6772      -781.60879      276.51204     -959.56264      1920.3708      0.9969611
   1960000  -704.62352      105.24322     -809.86675      278.00725      97.669579      1920.3708      0.9969611
   1961000  -699.22669      108.59295     -807.81964      286.85579      1250           1920.3708      0.9969611
   1962000  -676.24595      112.63718     -788.88312      297.53888     -519.23032      1920.3708      0.9969611
   1963000  -678.12794      106.65499     -784.78293      281.73653     -2728.1854      1920.3708      0.9969611
   1964000  -663.55323      123.23445     -786.78768      325.53233     -2364.9419      1920.3708      0.9969611
   1965000  -683.75529      112.80299     -796.55828      297.9769       2698.3483      1920.3708      0.9969611
   1966000  -656.62017      118.72943     -775.34961      313.632        2166.9833      1920.3708      0.9969611
   1967000  -639.09811      108.47828     -747.57639      286.55288      1444.586       1920.3708      0.9969611
   1968000  -661.09982      108.31588     -769.41571      286.12389     -1830.4538      1920.3708      0.9969611
   1969000  -670.45894      97.700707     -768.15965      258.08317     -2962.1691      1920.3708      0.9969611
   1970000  -668.47395      111.299       -779.77294      294.00399     -1093.6181      1920.3708      0.9969611
   1971000  -670.75982      105.66592     -776.42574      279.12382      1112.4697      1920.3708      0.9969611
   1972000  -666.93317      108.97755     -775.91072      287.87173      1685.6589      1920.3708      0.9969611
   1973000  -668.34691      118.31168     -786.65858      312.52847     -776.03379      1920.3708      0.9969611
   1974000  -685.1555       116.38529     -801.54079      307.43978     -1080.7321      1920.3708      0.9969611
   1975000  -661.04586      120.13943     -781.18529      317.35662     -2393.0062      1920.3708      0.9969611
   1976000  -670.01208      107.83206     -777.84414      284.84583     -2029.9761      1920.3708      0.9969611
   1977000  -657.95259      125.69668     -783.64927      332.03647     -2287.5127      1920.3708      0.9969611
   1978000  -632.06432      122.06206     -754.12638      322.43536     -2981.8238      1920.3708      0.9969611
   1979000  -682.06862      116.58619     -798.65481      307.97049      552.8276       1920.3708      0.9969611
   1980000  -661.11179      125.44606     -786.55786      331.37444     -1803.2629      1920.3708      0.9969611
   1981000  -675.5139       109.44834     -784.96223      289.11535     -766.20851      1920.3708      0.9969611
   1982000  -661.24273      112.08464     -773.32736      296.07932      536.13158      1920.3708      0.9969611
   1983000  -667.86703      129.79221     -797.65924      342.85508     -59.657509      1920.3708      0.9969611
   1984000  -683.16868      111.32204     -794.49072      294.06487     -3356.2187      1920.3708      0.9969611
   1985000  -700.96479      95.910081     -796.87487      253.35311      2219.9532      1920.3708      0.9969611
   1986000  -696.58854      99.993711     -796.58226      264.1403      -1604.4021      1920.3708      0.9969611
   1987000  -645.72412      105.84574     -751.56986      279.59884     -1844.4385      1920.3708      0.9969611
   1988000  -676.8011       115.23011     -792.03121      304.38831     -2611.3796      1920.3708      0.9969611
   1989000  -634.71955      126.26511     -760.98466      333.53801     -794.40178      1920.3708      0.9969611
   1990000  -681.05439      111.13346     -792.18784      293.5667       835.16051      1920.3708      0.9969611
   1991000  -686.42363      103.24509     -789.66872      272.72904      1237.5224      1920.3708      0.9969611
   1992000  -659.55434      128.57166     -788.126        339.63092     -1177.1737      1920.3708      0.9969611
   1993000  -678.21755      115.24385     -793.46141      304.4246       2004.3768      1920.3708      0.9969611
   1994000  -654.96591      116.51688     -771.48278      307.78738     -1233.0406      1920.3708      0.9969611
   1995000  -649.27345      119.8503      -769.12375      316.59285     -1084.4588      1920.3708      0.9969611
   1996000  -691.74699      101.42696     -793.17394      267.92631     -1470.4619      1920.3708      0.9969611
   1997000  -663.37639      108.86261     -772.23901      287.56812      2546.6579      1920.3708      0.9969611
   1998000  -672.89647      106.98364     -779.88011      282.60469     -571.00756      1920.3708      0.9969611
   1999000  -672.72477      117.66133     -790.3861       310.81055      334.35652      1920.3708      0.9969611
   2000000  -647.70333      106.87858     -754.58191      282.32715     -2835.131       1920.3708      0.9969611
   2001000  -673.74243      111.86607     -785.6085       295.50196     -582.02934      1920.3708      0.9969611
   2002000  -678.13005      108.07386     -786.20391      285.48457     -3325.2458      1920.3708      0.9969611
   2003000  -657.42012      126.38321     -783.80333      333.84998     -1296.0535      1920.3708      0.9969611
   2004000  -641.36982      109.22456     -750.59437      288.52422     -333.50092      1920.3708      0.9969611
   2005000  -677.74719      105.32479     -783.07198      278.22271      1581.2869      1920.3708      0.9969611
   2006000  -687.57415      108.54358     -796.11773      286.72536     -855.73877      1920.3708      0.9969611
   2007000  -684.79463      116.21298     -801.00761      306.98461     -736.05008      1920.3708      0.9969611
   2008000  -674.23918      105.07564     -779.31482      277.56456      1352.4964      1920.3708      0.9969611
   2009000  -687.10341      113.82752     -800.93092      300.68325     -317.63945      1920.3708      0.9969611
   2010000  -692.37411      102.44734     -794.82145      270.62173      1267.7695      1920.3708      0.9969611
   2011000  -664.18832      116.37593     -780.56425      307.41506     -1185.1364      1920.3708      0.9969611
   2012000  -658.51486      127.94754     -786.4624       337.98226     -710.68649      1920.3708      0.9969611
   2013000  -671.49359      119.05908     -790.55267      314.5028      -2318.2942      1920.3708      0.9969611
   2014000  -673.66103      124.42638     -798.08741      328.68087     -2535.5609      1920.3708      0.9969611
   2015000  -692.96707      104.39625     -797.36332      275.76992      1281.2476      1920.3708      0.9969611
   2016000  -691.01248      113.17222     -804.18469      298.95224     -1624.6872      1920.3708      0.9969611
   2017000  -667.23244      119.76272     -786.99516      316.3615       735.48924      1920.3708      0.9969611
   2018000  -669.39915      116.91821     -786.31736      308.84752     -1703.5258      1920.3708      0.9969611
   2019000  -690.80652      115.75636     -806.56288      305.77844     -975.87611      1920.3708      0.9969611
   2020000  -658.15702      122.39234     -780.54936      323.30784     -883.87496      1920.3708      0.9969611
   2021000  -655.66238      122.58218     -778.24456      323.80931     -1471.372       1920.3708      0.9969611
   2022000  -691.68563      110.25252     -801.93815      291.23966      400.38531      1920.3708      0.9969611
   2023000  -666.60594      127.52331     -794.12925      336.86164     -1432.1673      1920.3708      0.9969611
   2024000  -697.39178      98.567039     -795.95882      260.37165     -859.39507      1920.3708      0.9969611
   2025000  -682.67893      108.82837     -791.5073       287.47766     -1948.1937      1920.3708      0.9969611
   2026000  -669.35883      106.58545     -775.94428      281.55284     -1374.0431      1920.3708      0.9969611
   2027000  -677.59832      117.69725     -795.29558      310.90542     -1377.2403      1920.3708      0.9969611
   2028000  -645.24744      124.08827     -769.33571      327.78775      1690.1121      1920.3708      0.9969611
   2029000  -665.14154      114.33277     -779.47431      302.01791     -658.67022      1920.3708      0.9969611
   2030000  -686.79336      108.82674     -795.6201       287.47336      389.69367      1920.3708      0.9969611
   2031000  -648.69627      120.30762     -769.00389      317.80089     -2345.7856      1920.3708      0.9969611
   2032000  -676.18247      114.42106     -790.60353      302.25114     -4913.2244      1920.3708      0.9969611
   2033000  -647.88541      121.12441     -769.00982      319.95851     -2588.7152      1920.3708      0.9969611
   2034000  -665.09011      115.08488     -780.17499      304.00465     -211.9284       1920.3708      0.9969611
   2035000  -648.3642       125.51193     -773.87613      331.54843     -635.98146      1920.3708      0.9969611
   2036000  -685.48163      113.21104     -798.69267      299.05478     -1619.5158      1920.3708      0.9969611
   2037000  -690.57731      101.69841     -792.27572      268.64337     -1052.0941      1920.3708      0.9969611
   2038000  -680.97553      112.78566     -793.7612       297.93112     -626.69097      1920.3708      0.9969611
   2039000  -653.04146      124.20991     -777.25137      328.10906     -585.68348      1920.3708      0.9969611
   2040000  -678.86847      114.71407     -793.58255      303.02515     -2422.6355      1920.3708      0.9969611
   2041000  -659.45343      114.95893     -774.41236      303.67195      1278.307       1920.3708      0.9969611
   2042000  -655.61474      114.22947     -769.8442       301.74503      1926.854       1920.3708      0.9969611
   2043000  -654.22517      124.82299     -779.04816      329.72856      446.53889      1920.3708      0.9969611
   2044000  -666.68901      114.17783     -780.86684      301.60863     -426.34357      1920.3708      0.9969611
   2045000  -703.06277      112.24497     -815.30774      296.50283      2437.9413      1920.3708      0.9969611
   2046000  -674.86191      120.85023     -795.71214      319.23424      1133.3343      1920.3708      0.9969611
   2047000  -700.73594      106.47087     -807.20682      281.25017     -1884.2351      1920.3708      0.9969611
   2048000  -667.44594      106.05645     -773.50239      280.15545     -494.48284      1920.3708      0.9969611
   2049000  -674.45435      108.64631     -783.10067      286.99675     -2234.0873      1920.3708      0.9969611
   2050000  -681.3233       108.48878     -789.81208      286.58061      1535.62        1920.3708      0.9969611
   2051000  -675.43503      110.94277     -786.3778       293.06298      172.30235      1920.3708      0.9969611
   2052000  -691.82419      112.35637     -804.18055      296.79711     -3142.8681      1920.3708      0.9969611
   2053000  -675.11135      110.60265     -785.714        292.16454     -2239.5849      1920.3708      0.9969611
   2054000  -674.40382      109.02844     -783.43227      288.00616     -780.73554      1920.3708      0.9969611
   2055000  -675.1545       117.2161      -792.3706       309.63443      2147.6421      1920.3708      0.9969611
   2056000  -695.90936      112.40148     -808.31084      296.91629     -1179.6466      1920.3708      0.9969611
   2057000  -670.55654      105.65157     -776.20811      279.08592     -1263.1511      1920.3708      0.9969611
   2058000  -680.51221      114.69598     -795.20819      302.97736     -1054.1251      1920.3708      0.9969611
   2059000  -687.4698       112.53121     -800.001        297.25896      1351.3685      1920.3708      0.9969611
   2060000  -666.24705      112.02868     -778.27574      295.93151     -1422.5341      1920.3708      0.9969611
   2061000  -655.3129       118.20496     -773.51787      312.24657      1367.6198      1920.3708      0.9969611
   2062000  -659.90063      125.9521      -785.85272      332.71117     -2865.6367      1920.3708      0.9969611
   2063000  -674.8471       106.73739     -781.58449      281.9542      -2692.0156      1920.3708      0.9969611
   2064000  -640.73757      120.43647     -761.17404      318.14125     -270.8709       1920.3708      0.9969611
   2065000  -677.3058       104.61911     -781.92491      276.3586      -2344.3095      1920.3708      0.9969611
   2066000  -669.62166      109.4256      -779.04726      289.05529     -353.48625      1920.3708      0.9969611
   2067000  -635.43193      124.8606      -760.29252      329.82789      969.62966      1920.3708      0.9969611
   2068000  -690.90536      113.51713     -804.42249      299.86334      252.10124      1920.3708      0.9969611
   2069000  -669.73727      116.63422     -786.37149      308.09736     -933.28138      1920.3708      0.9969611
   2070000  -671.76742      126.41781     -798.18524      333.94138      340.74212      1920.3708      0.9969611
   2071000  -684.54994      96.07744      -780.62738      253.7952       933.77972      1920.3708      0.9969611
   2072000  -651.69768      117.82337     -769.52105      311.23858     -515.75097      1920.3708      0.9969611
   2073000  -663.10732      105.27503     -768.38235      278.09126      2470.797       1920.3708      0.9969611
   2074000  -684.33018      108.0739      -792.40408      285.48467     -1893.15        1920.3708      0.9969611
   2075000  -651.65731      105.67052     -757.32783      279.13598      760.08616      1920.3708      0.9969611
   2076000  -634.09911      117.48225     -751.58137      310.33749      184.44431      1920.3708      0.9969611
   2077000  -665.2037       114.1139      -779.3176       301.43975      1401.2854      1920.3708      0.9969611
   2078000  -664.5463       115.51986     -780.06616      305.1537       214.02334      1920.3708      0.9969611
   2079000  -694.50812      102.59458     -797.10271      271.01069     -947.98688      1920.3708      0.9969611
   2080000  -682.29814      114.92059     -797.21873      303.57068     -2618.0807      1920.3708      0.9969611
   2081000  -666.84742      118.63031     -785.47773      313.37016      440.74181      1920.3708      0.9969611
   2082000  -672.28917      112.5531      -784.84227      297.31679     -150.46025      1920.3708      0.9969611
   2083000  -672.24263      110.13798     -782.38061      290.93709      759.14562      1920.3708      0.9969611
   2084000  -669.30771      117.49759     -786.8053       310.378       -1630.45        1920.3708      0.9969611
   2085000  -673.59745      118.4862      -792.08364      312.98948     -589.63213      1920.3708      0.9969611
   2086000  -643.10651      123.45039     -766.55691      326.10274      508.13475      1920.3708      0.9969611
   2087000  -670.80041      109.90122     -780.70163      290.31168     -641.6329       1920.3708      0.9969611
   2088000  -678.21502      115.2611      -793.47612      304.47017      987.09243      1920.3708      0.9969611
   2089000  -675.58381      117.97983     -793.56363      311.65187      2864.8103      1920.3708      0.9969611
   2090000  -656.01893      115.35118     -771.37012      304.70812     -831.0615       1920.3708      0.9969611
   2091000  -647.91207      118.82013     -766.7322       313.87159     -4056.0268      1920.3708      0.9969611
   2092000  -644.6659       106.66322     -751.32912      281.75827     -2910.3098      1920.3708      0.9969611
   2093000  -670.89774      127.28357     -798.1813       336.22834     -81.497252      1920.3708      0.9969611
   2094000  -685.48367      109.61814     -795.10181      289.56389     -1205.748       1920.3708      0.9969611
   2095000  -677.57428      111.85707     -789.43135      295.47819     -2069.2216      1920.3708      0.9969611
   2096000  -659.75487      132.98773     -792.7426       351.29629     -1028.8867      1920.3708      0.9969611
   2097000  -662.59161      104.69716     -767.28877      276.56479     -783.4112       1920.3708      0.9969611
   2098000  -658.18989      110.74841     -768.9383       292.54957     -3180.6457      1920.3708      0.9969611
   2099000  -673.65781      104.24765     -777.90545      275.37737      2033.9615      1920.3708      0.9969611
   2100000  -677.57749      104.98027     -782.55776      277.31264      2538.3876      1920.3708      0.9969611
   2101000  -671.722        111.91041     -783.63241      295.61907      156.77422      1920.3708      0.9969611
   2102000  -652.41411      121.49521     -773.90932      320.938       -106.01947      1920.3708      0.9969611
   2103000  -680.00286      102.27043     -782.27329      270.15441     -3053.0291      1920.3708      0.9969611
   2104000  -657.7905       119.91295     -777.70345      316.75834     -878.89211      1920.3708      0.9969611
   2105000  -677.45644      102.17535     -779.6318       269.90326      1263.3954      1920.3708      0.9969611
   2106000  -691.67225      111.71941     -803.39166      295.11455      554.98909      1920.3708      0.9969611
   2107000  -653.10673      120.16502     -773.27175      317.4242       2096.0095      1920.3708      0.9969611
   2108000  -681.58427      104.598       -786.18227      276.30285     -549.77425      1920.3708      0.9969611
   2109000  -693.38979      110.10276     -803.49256      290.84406     -467.54004      1920.3708      0.9969611
   2110000  -699.38921      112.01796     -811.40716      295.90318      2647.2781      1920.3708      0.9969611
   2111000  -686.29103      108.65395     -794.94499      287.01693     -693.46172      1920.3708      0.9969611
   2112000  -670.12664      122.98383     -793.11048      324.8703       694.36288      1920.3708      0.9969611
   2113000  -656.48898      114.20385     -770.69283      301.67736     -1035.5123      1920.3708      0.9969611
   2114000  -664.81519      113.80582     -778.62102      300.62595      372.88857      1920.3708      0.9969611
   2115000  -689.60478      111.43182     -801.0366       294.35486     -1403.2305      1920.3708      0.9969611
   2116000  -683.97237      119.67386     -803.64623      316.12676     -2472.4999      1920.3708      0.9969611
   2117000  -645.03829      130.99946     -776.03774      346.04413     -717.0756       1920.3708      0.9969611
   2118000  -663.76566      118.17101     -781.93667      312.15688      473.84417      1920.3708      0.9969611
   2119000  -673.08353      114.84852     -787.93205      303.38031      2834.0534      1920.3708      0.9969611
   2120000  -652.90381      113.42684     -766.33064      299.62483     -2693.4227      1920.3708      0.9969611
   2121000  -653.00794      120.32461     -773.33255      317.84576     -466.67266      1920.3708      0.9969611
   2122000  -674.89329      111.52717     -786.42046      294.60673     -180.60834      1920.3708      0.9969611
   2123000  -673.21666      109.64645     -782.86312      289.63868      1487.2247      1920.3708      0.9969611
   2124000  -630.90201      117.30004     -748.20205      309.85617      2156.3341      1920.3708      0.9969611
   2125000  -657.27268      112.65358     -769.92626      297.58223     -1019.3498      1920.3708      0.9969611
   2126000  -680.47926      108.78539     -789.26465      287.36411      799.18678      1920.3708      0.9969611
   2127000  -656.64706      120.21636     -776.86343      317.55983     -2020.1017      1920.3708      0.9969611
   2128000  -655.33041      125.19881     -780.52922      330.72131      439.75674      1920.3708      0.9969611
   2129000  -680.45013      98.405655     -778.85579      259.94534     -2161.4393      1920.3708      0.9969611
   2130000  -644.21376      119.96925     -764.18301      316.90708     -898.65853      1920.3708      0.9969611
   2131000  -682.10138      115.15919     -797.26056      304.20095     -1993.6571      1920.3708      0.9969611
   2132000  -664.00415      115.92055     -779.92471      306.21215     -2925.428       1920.3708      0.9969611
   2133000  -671.65488      105.41769     -777.07257      278.46812      311.63507      1920.3708      0.9969611
   2134000  -661.20339      94.170174     -755.37356      248.75702      176.40346      1920.3708      0.9969611
   2135000  -646.42784      114.72539     -761.15322      303.05504      2962.6296      1920.3708      0.9969611
   2136000  -688.99249      114.69442     -803.68692      302.97324      1811.2363      1920.3708      0.9969611
   2137000  -666.54458      124.0512      -790.59578      327.68982     -1129.4406      1920.3708      0.9969611
   2138000  -692.65627      106.44254     -799.09881      281.17532     -1776.9131      1920.3708      0.9969611
   2139000  -642.3126       135.75997     -778.07257      358.61935     -994.44976      1920.3708      0.9969611
   2140000  -664.48733      123.11782     -787.60515      325.22424      4700.8383      1920.3708      0.9969611
   2141000  -692.92097      103.62164     -796.54261      273.72372      2621.8762      1920.3708      0.9969611
   2142000  -683.46838      108.946       -792.41438      287.78838      1831.8109      1920.3708      0.9969611
   2143000  -662.42901      121.70234     -784.13135      321.48514     -582.14926      1920.3708      0.9969611
   2144000  -662.57721      119.86537     -782.44257      316.63265     -1620.0766      1920.3708      0.9969611
   2145000  -669.49495      110.65585     -780.15081      292.30508     -3034.3698      1920.3708      0.9969611
   2146000  -660.56024      113.96504     -774.52527      301.04652     -2957.8721      1920.3708      0.9969611
   2147000  -684.49298      102.53913     -787.03211      270.8642       612.64456      1920.3708      0.9969611
   2148000  -680.56152      104.9105      -785.47202      277.12832     -1906.2859      1920.3708      0.9969611
   2149000  -656.85113      114.39715     -771.24827      302.18797     -804.10512      1920.3708      0.9969611
   2150000  -679.98897      105.57076     -785.55972      278.87245     -425.07703      1920.3708      0.9969611
   2151000  -657.7349       115.51763     -773.25253      305.1478      -1873.2418      1920.3708      0.9969611
   2152000  -662.07129      116.97059     -779.04188      308.98589     -2153.2328      1920.3708      0.9969611
   2153000  -668.85854      118.76162     -787.62017      313.71704     -908.57625      1920.3708      0.9969611
   2154000  -708.18043      103.9108      -812.09123      274.48756     -2598.9843      1920.3708      0.9969611
   2155000  -672.9492       117.98777     -790.93697      311.67285     -643.24095      1920.3708      0.9969611
   2156000  -660.11146      116.88827     -776.99973      308.76846      819.06242      1920.3708      0.9969611
   2157000  -677.82002      113.57397     -791.39399      300.0135      -316.70486      1920.3708      0.9969611
   2158000  -668.97789      121.18137     -790.15926      320.10898     -1072.5434      1920.3708      0.9969611
   2159000  -657.52401      104.94735     -762.47136      277.22569      795.28208      1920.3708      0.9969611
   2160000  -686.30512      117.45186     -803.75698      310.25721     -128.6216       1920.3708      0.9969611
   2161000  -695.42096      109.47003     -804.89098      289.17264     -2133.2524      1920.3708      0.9969611
   2162000  -672.84713      128.89947     -801.7466       340.49686     -2076.0921      1920.3708      0.9969611
   2163000  -679.94486      115.29085     -795.23571      304.54874      216.23946      1920.3708      0.9969611
   2164000  -660.42911      114.44825     -774.87737      302.32297     -1648.9872      1920.3708      0.9969611
   2165000  -672.27147      109.4489      -781.72038      289.11684      574.95054      1920.3708      0.9969611
   2166000  -660.41896      115.7594      -776.17835      305.78644     -1273.2597      1920.3708      0.9969611
   2167000  -644.73638      117.90705     -762.64343      311.45962      3896.3279      1920.3708      0.9969611
   2168000  -654.22726      115.663       -769.89026      305.53182      1421.8661      1920.3708      0.9969611
   2169000  -669.84046      122.3627      -792.20315      323.22952      187.31496      1920.3708      0.9969611
   2170000  -678.52523      124.35506     -802.88029      328.49249     -1705.8273      1920.3708      0.9969611
   2171000  -694.86547      97.619354     -792.48482      257.86827      103.48167      1920.3708      0.9969611
   2172000  -637.91562      122.64133     -760.55695      323.96555     -1402.141       1920.3708      0.9969611
   2173000  -675.32819      114.09893     -789.42712      301.40021     -243.41721      1920.3708      0.9969611
   2174000  -663.86274      104.27793     -768.14067      275.45736     -2425.1408      1920.3708      0.9969611
   2175000  -667.66199      101.11378     -768.77577      267.09905     -727.01947      1920.3708      0.9969611
   2176000  -650.10052      116.65598     -766.7565       308.15484      500.57082      1920.3708      0.9969611
   2177000  -681.8254       111.15198     -792.97738      293.61563     -1666.2424      1920.3708      0.9969611
   2178000  -663.69722      115.37347     -779.07069      304.767       -1665.3007      1920.3708      0.9969611
   2179000  -670.19827      110.22189     -780.42016      291.15874     -2568.8492      1920.3708      0.9969611
   2180000  -704.67872      95.009732     -799.68845      250.97477     -354.3018       1920.3708      0.9969611
   2181000  -675.71566      92.923065     -768.63873      245.4627      -68.751828      1920.3708      0.9969611
   2182000  -689.19731      103.62921     -792.82652      273.74371     -1471.0939      1920.3708      0.9969611
   2183000  -671.28224      107.8333      -779.11554      284.84912     -2092.4583      1920.3708      0.9969611
   2184000  -668.58185      116.41149     -784.99334      307.509       -644.46481      1920.3708      0.9969611
   2185000  -656.39928      116.71039     -773.10967      308.29855     -727.31304      1920.3708      0.9969611
   2186000  -691.0211       109.96333     -800.98443      290.47575     -3974.2875      1920.3708      0.9969611
   2187000  -673.66204      117.40125     -791.06329      310.12353     -1729.4354      1920.3708      0.9969611
   2188000  -651.57262      120.24243     -771.81505      317.62868     -422.43735      1920.3708      0.9969611
   2189000  -681.4653       115.7918      -797.2571       305.87203     -2467.3151      1920.3708      0.9969611
   2190000  -672.73606      102.57654     -775.3126       270.96301      1326.1252      1920.3708      0.9969611
   2191000  -670.87587      118.19381     -789.06968      312.21713      1058.5952      1920.3708      0.9969611
   2192000  -684.9223       113.69443     -798.61672      300.33168      178.63213      1920.3708      0.9969611
   2193000  -691.01995      116.22809     -807.24804      307.02454     -979.10908      1920.3708      0.9969611
   2194000  -664.44761      121.58103     -786.02864      321.1647      -1599.7181      1920.3708      0.9969611
   2195000  -685.81398      113.90899     -799.72298      300.89848     -422.73092      1920.3708      0.9969611
   2196000  -674.16621      106.04087     -780.20707      280.11428      3191.7828      1920.3708      0.9969611
   2197000  -679.27161      110.36597     -789.63758      291.53934     -3435.5973      1920.3708      0.9969611
   2198000  -682.52751      106.36235     -788.88986      280.96351      2238.4245      1920.3708      0.9969611
   2199000  -690.17917      105.27084     -795.45001      278.08019     -1987.1833      1920.3708      0.9969611
   2200000  -675.1458       110.39086     -785.53666      291.6051      -2842.0947      1920.3708      0.9969611
   2201000  -656.25186      117.69674     -773.94859      310.90407     -1146.2709      1920.3708      0.9969611
   2202000  -674.00444      112.53077     -786.53521      297.2578      -1376.9991      1920.3708      0.9969611
   2203000  -613.58755      132.19712     -745.78467      349.20783      3280.9041      1920.3708      0.9969611
   2204000  -667.41188      115.79905     -783.21094      305.8912      -2183.3298      1920.3708      0.9969611
   2205000  -655.06843      114.35207     -769.4205       302.06889     -1976.4919      1920.3708      0.9969611
   2206000  -668.32511      114.31598     -782.64109      301.97357     -2508.4349      1920.3708      0.9969611
   2207000  -659.62895      111.86381     -771.49276      295.49598      1639.7857      1920.3708      0.9969611
   2208000  -681.1583       100.31293     -781.47122      264.98353      553.99798      1920.3708      0.9969611
   2209000  -696.46692      109.1988      -805.66572      288.45617     -828.29292      1920.3708      0.9969611
   2210000  -672.70578      126.93156     -799.63734      335.29849      2586.7004      1920.3708      0.9969611
   2211000  -689.40974      114.50056     -803.9103       302.46115     -102.81393      1920.3708      0.9969611
   2212000  -669.11721      126.65939     -795.7766       334.57954      1434.7841      1920.3708      0.9969611
   2213000  -667.38073      104.4406      -771.82133      275.88706      2943.7831      1920.3708      0.9969611
   2214000  -660.50792      107.08209     -767.59001      282.86474      2217.0414      1920.3708      0.9969611
   2215000  -621.35043      121.1897      -742.54013      320.13098      1040.4202      1920.3708      0.9969611
   2216000  -671.37274      117.46697     -788.83971      310.29711     -891.62508      1920.3708      0.9969611
   2217000  -672.40925      113.81274     -786.22199      300.64421      2607.8683      1920.3708      0.9969611
   2218000  -686.3347       107.74749     -794.08219      284.62245      1191.9864      1920.3708      0.9969611
   2219000  -677.40758      115.19959     -792.60717      304.30768     -948.32234      1920.3708      0.9969611
   2220000  -639.57754      127.80774     -767.38528      337.61298     -743.53286      1920.3708      0.9969611
   2221000  -669.66459      116.12211     -785.7867       306.74458     -326.14866      1920.3708      0.9969611
   2222000  -657.12217      115.78051     -772.90268      305.84223     -1253.3375      1920.3708      0.9969611
   2223000  -682.29948      98.786212     -781.08569      260.95061     -147.33763      1920.3708      0.9969611
   2224000  -644.56934      126.77523     -771.34458      334.88553     -1790.7681      1920.3708      0.9969611
   2225000  -669.46904      116.23368     -785.70272      307.03929     -1755.8959      1920.3708      0.9969611
   2226000  -673.17654      112.47577     -785.65232      297.11253      508.99158      1920.3708      0.9969611
   2227000  -679.5868       110.33037     -789.91717      291.44531      602.00293      1920.3708      0.9969611
   2228000  -671.4955       123.65423     -795.14974      326.64121     -683.73639      1920.3708      0.9969611
   2229000  -691.98524      98.484217     -790.46946      260.15286     -1372.0137      1920.3708      0.9969611
   2230000  -672.92005      107.74493     -780.66499      284.61568     -421.63108      1920.3708      0.9969611
   2231000  -675.76768      111.85729     -787.62496      295.47876     -1498.6226      1920.3708      0.9969611
   2232000  -665.68557      118.83042     -784.51598      313.89876      100.35599      1920.3708      0.9969611
   2233000  -676.79042      103.78998     -780.5804       274.1684      -2345.5087      1920.3708      0.9969611
   2234000  -691.17186      113.67727     -804.84913      300.28635     -753.40477      1920.3708      0.9969611
   2235000  -697.53744      107.44085     -804.97828      283.81242     -1274.5417      1920.3708      0.9969611
   2236000  -677.05446      111.18252     -788.23698      293.6963      -1788.5646      1920.3708      0.9969611
   2237000  -669.81531      114.53547     -784.35078      302.55337     -1276.1167      1920.3708      0.9969611
   2238000  -659.36976      106.23485     -765.6046       280.62669     -175.54673      1920.3708      0.9969611
   2239000  -681.08998      104.04887     -785.13884      274.85227     -268.66314      1920.3708      0.9969611
   2240000  -653.74948      114.87446     -768.62394      303.44882     -834.00507      1920.3708      0.9969611
   2241000  -660.39558      125.71157     -786.10714      332.0758      -1055.9602      1920.3708      0.9969611
   2242000  -681.70602      106.96812     -788.67414      282.56369      742.26485      1920.3708      0.9969611
   2243000  -639.32233      124.59697     -763.9193       329.13151     -2436.0399      1920.3708      0.9969611
   2244000  -656.0272       100.43964     -756.46684      265.31824     -2562.8756      1920.3708      0.9969611
   2245000  -671.8977       109.47568     -781.37339      289.18758     -1039.457       1920.3708      0.9969611
   2246000  -663.27093      116.0161      -779.28703      306.46454     -224.70681      1920.3708      0.9969611
   2247000  -680.34423      120.90917     -801.25339      319.38992     -800.98879      1920.3708      0.9969611
   2248000  -665.47973      112.75717     -778.2369       297.85585      983.47424      1920.3708      0.9969611
   2249000  -666.16329      116.15173     -782.31502      306.82282     -37.74984       1920.3708      0.9969611
   2250000  -693.76067      102.00991     -795.77059      269.46623     -2620.9459      1920.3708      0.9969611
   2251000  -664.50519      120.64328     -785.14847      318.68756     -2381.2285      1920.3708      0.9969611
   2252000  -657.49188      111.91453     -769.40642      295.62998      3127.7955      1920.3708      0.9969611
   2253000  -670.18744      109.74084     -779.92827      289.888       -42.643931      1920.3708      0.9969611
   2254000  -655.00257      126.3028      -781.30537      333.63758     -2857.8801      1920.3708      0.9969611
   2255000  -687.48628      112.73214     -800.21842      297.78975     -1572.3477      1920.3708      0.9969611
   2256000  -677.23692      106.69155     -783.92847      281.8331       950.15307      1920.3708      0.9969611
   2257000  -687.51661      110.00678     -797.5234       290.59052     -653.62873      1920.3708      0.9969611
   2258000  -674.07476      108.78494     -782.8597       287.36294      3469.8848      1920.3708      0.9969611
   2259000  -617.28081      126.87033     -744.15114      335.13674     -860.7733       1920.3708      0.9969611
   2260000  -643.99815      113.84864     -757.84679      300.73906      3266.957       1920.3708      0.9969611
   2261000  -667.23492      113.15268     -780.3876       298.90063      619.5992       1920.3708      0.9969611
   2262000  -683.68948      117.00552     -800.69501      309.07818     -1659.8474      1920.3708      0.9969611
   2263000  -660.74119      119.11347     -779.85466      314.64647     -123.57651      1920.3708      0.9969611
   2264000  -657.03264      125.85146     -782.8841       332.44532      1049.3831      1920.3708      0.9969611
   2265000  -662.94519      112.95184     -775.89703      298.3701      -1857.9658      1920.3708      0.9969611
   2266000  -684.24242      99.700141     -783.94256      263.36481     -1789.5815      1920.3708      0.9969611
   2267000  -676.32684      110.38471     -786.71156      291.58885     -985.20838      1920.3708      0.9969611
   2268000  -666.29799      124.70741     -791.0054       329.42325      65.009562      1920.3708      0.9969611
   2269000  -647.50402      132.72021     -780.22424      350.58961     -2250.1614      1920.3708      0.9969611
   2270000  -685.98025      120.82424     -806.80449      319.16558     -2330.2732      1920.3708      0.9969611
   2271000  -669.37028      122.44911     -791.81939      323.45778     -1175.8404      1920.3708      0.9969611
   2272000  -657.50156      119.28525     -776.78681      315.10022     -3349.3999      1920.3708      0.9969611
   2273000  -685.34284      105.16356     -790.5064       277.79681      302.16106      1920.3708      0.9969611
   2274000  -721.92815      92.640752     -814.5689       244.71695     -384.76284      1920.3708      0.9969611
   2275000  -688.28443      104.73784     -793.02227      276.67224      430.4953       1920.3708      0.9969611
   2276000  -670.99875      116.1939      -787.19265      306.93422     -885.00734      1920.3708      0.9969611
   2277000  -662.0092       109.96632     -771.97552      290.48365      143.11227      1920.3708      0.9969611
   2278000  -669.0007       108.17377     -777.17447      285.74849     -237.69261      1920.3708      0.9969611
   2279000  -710.03146      89.889494     -799.92095      237.44931      1012.6488      1920.3708      0.9969611
   2280000  -659.29057      117.52417     -776.81474      310.44823      1587.5777      1920.3708      0.9969611
   2281000  -645.19635      137.88161     -783.07796      364.22381     -1785.8861      1920.3708      0.9969611
   2282000  -672.11559      107.43169     -779.54729      283.78825     -684.38489      1920.3708      0.9969611
   2283000  -661.0679       118.55103     -779.61893      313.16075      509.75572      1920.3708      0.9969611
   2284000  -686.77905      115.23302     -802.01207      304.39599      2479.5955      1920.3708      0.9969611
   2285000  -666.76828      112.35329     -779.12156      296.78897     -528.15782      1920.3708      0.9969611
   2286000  -676.98365      122.04626     -799.02991      322.39363     -1666.1064      1920.3708      0.9969611
   2287000  -677.14398      111.22743     -788.37141      293.81493      25.397534      1920.3708      0.9969611
   2288000  -693.50951      106.93518     -800.44469      282.47668     -684.94119      1920.3708      0.9969611
   2289000  -667.35852      124.21365     -791.57218      328.11895     -2834.9227      1920.3708      0.9969611
   2290000  -710.43714      95.33993      -805.77707      251.84701     -1000.3087      1920.3708      0.9969611
   2291000  -671.91609      121.57052     -793.48661      321.13693     -733.66248      1920.3708      0.9969611
   2292000  -664.33014      126.24437     -790.57451      333.48323      558.39165      1920.3708      0.9969611
   2293000  -664.46921      111.41897     -775.88818      294.32092      551.13141      1920.3708      0.9969611
   2294000  -671.37442      102.86813     -774.24255      271.73328     -1172.6337      1920.3708      0.9969611
   2295000  -663.10161      112.08395     -775.18556      296.0775      -691.15074      1920.3708      0.9969611
   2296000  -647.2701       117.35498     -764.62508      310.00128     -2720.8263      1920.3708      0.9969611
   2297000  -634.80311      119.67155     -754.47466      316.12068      1521.2046      1920.3708      0.9969611
   2298000  -651.24161      118.54863     -769.79024      313.15439     -1556.2796      1920.3708      0.9969611
   2299000  -654.53695      117.56828     -772.10523      310.56474     -2244.6152      1920.3708      0.9969611
   2300000  -644.5873       123.45282     -768.04011      326.10914     -982.29344      1920.3708      0.9969611
   2301000  -700.63388      101.2741      -801.90798      267.52253     -580.22793      1920.3708      0.9969611
   2302000  -678.57877      112.91812     -791.49689      298.28102     -1304.3248      1920.3708      0.9969611
   2303000  -674.99307      108.07839     -783.07146      285.49653      2510.0673      1920.3708      0.9969611
   2304000  -693.2458       103.68935     -796.93514      273.90257     -354.35214      1920.3708      0.9969611
   2305000  -661.0816       115.80693     -776.88853      305.912       -615.70383      1920.3708      0.9969611
   2306000  -685.08419      98.7232       -783.80739      260.78416     -1342.0333      1920.3708      0.9969611
   2307000  -659.43159      113.25782     -772.68941      299.17835     -174.48146      1920.3708      0.9969611
   2308000  -670.6219       112.83766     -783.45956      298.06848     -2713.0788      1920.3708      0.9969611
   2309000  -685.80071      114.16931     -799.97002      301.58612     -1304.2415      1920.3708      0.9969611
   2310000  -680.73882      103.34509     -784.08391      272.99321     -337.19148      1920.3708      0.9969611
   2311000  -680.3509       114.42102     -794.77192      302.25103      52.912801      1920.3708      0.9969611
   2312000  -657.79298      112.81494     -770.60792      298.00846      446.22417      1920.3708      0.9969611
   2313000  -657.16493      110.66893     -767.83386      292.33964      2463.004       1920.3708      0.9969611
   2314000  -662.3004       102.45506     -764.75546      270.64213      13.305245      1920.3708      0.9969611
   2315000  -665.99844      102.89409     -768.89253      271.80184      1357.9352      1920.3708      0.9969611
   2316000  -685.65238      113.36683     -799.01921      299.46631     -2316.7196      1920.3708      0.9969611
   2317000  -636.72293      128.28304     -765.00597      338.86852      1198.9946      1920.3708      0.9969611
   2318000  -667.00868      113.83173     -780.84041      300.69437     -2788.1286      1920.3708      0.9969611
   2319000  -670.25402      110.78625     -781.04027      292.64955      1001.1889      1920.3708      0.9969611
   2320000  -648.17125      129.73953     -777.91078      342.71593      2870.1483      1920.3708      0.9969611
   2321000  -663.01092      117.68443     -780.69535      310.87156     -803.62532      1920.3708      0.9969611
   2322000  -649.02388      117.66657     -766.69046      310.82439     -1187.3107      1920.3708      0.9969611
   2323000  -675.99786      117.02727     -793.02513      309.13561      208.11517      1920.3708      0.9969611
   2324000  -639.32667      118.66292     -757.98958      313.45629     -263.06285      1920.3708      0.9969611
   2325000  -682.88575      110.77809     -793.66384      292.62799     -2226.6098      1920.3708      0.9969611
   2326000  -672.35355      111.12427     -783.47782      293.54244      1356.2904      1920.3708      0.9969611
   2327000  -694.37938      97.385703     -791.76508      257.25107     -270.55409      1920.3708      0.9969611
   2328000  -673.78486      114.4078      -788.19266      302.21611      261.92324      1920.3708      0.9969611
   2329000  -663.94647      118.85871     -782.80518      313.97349      599.94039      1920.3708      0.9969611
   2330000  -665.94814      118.27474     -784.22288      312.43091      87.68699       1920.3708      0.9969611
   2331000  -688.27839      109.13257     -797.41096      288.28122      263.03607      1920.3708      0.9969611
   2332000  -674.48857      112.6372      -787.12577      297.53894     -3431.0253      1920.3708      0.9969611
   2333000  -658.43768      118.64168     -777.07936      313.40019     -604.6486       1920.3708      0.9969611
   2334000  -647.94893      106.75181     -754.70074      281.99228     -810.45969      1920.3708      0.9969611
   2335000  -688.51301      100.09349     -788.60651      264.40388     -796.20557      1920.3708      0.9969611
   2336000  -644.20406      105.37457     -749.57863      278.35421      2218.7255      1920.3708      0.9969611
   2337000  -668.6433       104.10291     -772.74621      274.99502      458.45351      1920.3708      0.9969611
   2338000  -694.59988      103.13434     -797.73422      272.43649     -2045.0957      1920.3708      0.9969611
   2339000  -684.59611      111.87788     -796.47399      295.53316     -235.92239      1920.3708      0.9969611
   2340000  -688.26054      110.61336     -798.8739       292.19283      963.18667      1920.3708      0.9969611
   2341000  -669.45109      111.95605     -781.40713      295.73964     -2430.6726      1920.3708      0.9969611
   2342000  -669.27729      107.54138     -776.81866      284.07798     -736.84849      1920.3708      0.9969611
   2343000  -662.75239      104.6824      -767.43479      276.5258      -42.703615      1920.3708      0.9969611
   2344000  -641.17859      121.49481     -762.67341      320.93694     -1242.0311      1920.3708      0.9969611
   2345000  -669.79483      116.04449     -785.83932      306.53954     -905.12177      1920.3708      0.9969611
   2346000  -676.96502      103.61172     -780.57673      273.69751     -1682.8043      1920.3708      0.9969611
   2347000  -649.11816      113.15701     -762.27517      298.91207      68.110523      1920.3708      0.9969611
   2348000  -650.8602       117.20262     -768.06282      309.59882      1717.9943      1920.3708      0.9969611
   2349000  -693.8228       106.63806     -800.46086      281.6918       541.30405      1920.3708      0.9969611
   2350000  -662.3759       109.44521     -771.82111      289.10708     -1036.4479      1920.3708      0.9969611
   2351000  -691.94804      101.84836     -793.7964       269.03948      1996.3389      1920.3708      0.9969611
   2352000  -687.67369      104.8855      -792.55919      277.0623       837.53668      1920.3708      0.9969611
   2353000  -665.94783      112.92027     -778.8681       298.2867      -2502.7225      1920.3708      0.9969611
   2354000  -658.68567      124.54109     -783.22676      328.98389     -75.752662      1920.3708      0.9969611
   2355000  -639.31012      128.83653     -768.14665      340.3306      -1152.6447      1920.3708      0.9969611
   2356000  -655.21081      116.41349     -771.6243       307.51429     -1098.97        1920.3708      0.9969611
   2357000  -651.07115      108.72863     -759.79978      287.21419      397.52609      1920.3708      0.9969611
   2358000  -689.5982       115.94019     -805.53839      306.26403     -634.17792      1920.3708      0.9969611
   2359000  -667.50465      118.80516     -786.30982      313.83205     -1184.0821      1920.3708      0.9969611
   2360000  -672.17741      112.9662      -785.14361      298.40803     -2599.9999      1920.3708      0.9969611
   2361000  -656.00189      127.29746     -783.29935      336.26504     -1131.6083      1920.3708      0.9969611
   2362000  -681.03081      111.29093     -792.32173      293.98267     -1677.5222      1920.3708      0.9969611
   2363000  -646.37501      120.32878     -766.70379      317.85679      113.89092      1920.3708      0.9969611
   2364000  -665.27112      116.00558     -781.2767       306.43677     -3734.9699      1920.3708      0.9969611
   2365000  -698.79299      106.33848     -805.13147      280.90044     -1205.5653      1920.3708      0.9969611
   2366000  -671.60513      117.97773     -789.58287      311.64634     -1492.0909      1920.3708      0.9969611
   2367000  -634.10658      125.08378     -759.19037      330.41746     -854.58748      1920.3708      0.9969611
   2368000  -671.63209      111.73881     -783.3709       295.16578     -978.99788      1920.3708      0.9969611
   2369000  -650.86275      116.70736     -767.57011      308.29056     -2828.5368      1920.3708      0.9969611
   2370000  -645.13725      118.19606     -763.33331      312.22305     -765.66178      1920.3708      0.9969611
   2371000  -669.35711      94.12823      -763.48534      248.64622      331.59673      1920.3708      0.9969611
   2372000  -652.42429      114.28299     -766.70728      301.88641     -1451.6504      1920.3708      0.9969611
   2373000  -653.17098      108.8176      -761.98858      287.44921     -1347.1212      1920.3708      0.9969611
   2374000  -660.73245      118.64584     -779.37829      313.41118     -14.736247      1920.3708      0.9969611
   2375000  -677.80722      101.84349     -779.65071      269.02662     -1020.4239      1920.3708      0.9969611
   2376000  -684.98863      105.12037     -790.109        277.68273     -448.57284      1920.3708      0.9969611
   2377000  -654.73651      111.42827     -766.16478      294.34547      2530.8821      1920.3708      0.9969611
   2378000  -657.23575      114.7876      -772.02335      303.21938     -530.66132      1920.3708      0.9969611
   2379000  -656.51211      120.95342     -777.46553      319.50682      3.7303718      1920.3708      0.9969611
   2380000  -688.22873      105.28421     -793.51294      278.11552     -1604.0455      1920.3708      0.9969611
   2381000  -672.13375      104.47374     -776.60749      275.97461     -1111.8971      1920.3708      0.9969611
   2382000  -640.85231      112.56508     -753.41738      297.34843     -572.18407      1920.3708      0.9969611
   2383000  -640.56274      116.36349     -756.92623      307.3822      -147.93078      1920.3708      0.9969611
   2384000  -672.14776      112.31079     -784.45855      296.67671     -1742.0531      1920.3708      0.9969611
   2385000  -686.35752      100.08805     -786.44557      264.38951      579.29969      1920.3708      0.9969611
   2386000  -673.2946       112.99769     -786.29229      298.49121      428.52503      1920.3708      0.9969611
   2387000  -669.68473      106.57635     -776.26108      281.5288       1958.9151      1920.3708      0.9969611
   2388000  -674.35953      103.50343     -777.86296      273.41146      818.38845      1920.3708      0.9969611
   2389000  -664.87662      115.99485     -780.87147      306.40841      1746.1987      1920.3708      0.9969611
   2390000  -680.40863      106.6124      -787.02103      281.62401      44.931625      1920.3708      0.9969611
   2391000  -673.36539      111.19473     -784.56012      293.72857      587.16361      1920.3708      0.9969611
   2392000  -654.8356       113.43009     -768.26569      299.63342     -1316.26        1920.3708      0.9969611
   2393000  -644.23195      116.14393     -760.37588      306.80223      103.80118      1920.3708      0.9969611
   2394000  -681.74627      110.37166     -792.11794      291.55437     -1774.9637      1920.3708      0.9969611
   2395000  -676.79903      116.37222     -793.17125      307.40527     -1195.262       1920.3708      0.9969611
   2396000  -665.15732      112.22838     -777.3857       296.45903      2899.8412      1920.3708      0.9969611
   2397000  -664.8755       115.66709     -780.54259      305.54262      2217.1253      1920.3708      0.9969611
   2398000  -697.13164      103.37155     -800.5032       273.0631       3177.1529      1920.3708      0.9969611
   2399000  -674.03931      111.09441     -785.13372      293.46356     -1733.8796      1920.3708      0.9969611
   2400000  -691.89656      93.634543     -785.53111      247.34212      2485.1975      1920.3708      0.9969611
   2401000  -648.08737      116.29857     -764.38593      307.2107      -714.12419      1920.3708      0.9969611
   2402000  -658.45775      112.04013     -770.49788      295.96175     -2766.3991      1920.3708      0.9969611
   2403000  -664.38446      106.11114     -770.4956       280.29992      522.524        1920.3708      0.9969611
   2404000  -653.4765       122.22788     -775.70438      322.87339     -255.12705      1920.3708      0.9969611
   2405000  -662.81644      122.52452     -785.34096      323.657       -391.841        1920.3708      0.9969611
   2406000  -684.94973      112.49404     -797.44377      297.16079      1630.1133      1920.3708      0.9969611
   2407000  -699.81277      108.83427     -808.64704      287.49324     -1695.2134      1920.3708      0.9969611
   2408000  -671.38485      123.52556     -794.91041      326.30131      652.94216      1920.3708      0.9969611
   2409000  -649.40415      128.11796     -777.52211      338.43245     -1873.7063      1920.3708      0.9969611
   2410000  -687.68915      107.94152     -795.63067      285.13499     -509.92848      1920.3708      0.9969611
   2411000  -678.14243      112.08987     -790.2323       296.09313     -2570.3402      1920.3708      0.9969611
   2412000  -671.24827      113.75851     -785.00678      300.50096     -913.15523      1920.3708      0.9969611
   2413000  -699.43968      114.18167     -813.62135      301.61877     -1994.2421      1920.3708      0.9969611
   2414000  -666.65006      109.85956     -776.50962      290.20163      139.15329      1920.3708      0.9969611
   2415000  -707.58869      104.03234     -811.62103      274.80862     -2978.4752      1920.3708      0.9969611
   2416000  -679.92682      117.86658     -797.7934       311.35272     -636.72859      1920.3708      0.9969611
   2417000  -695.03443      111.77898     -806.81341      295.27191     -2895.1983      1920.3708      0.9969611
   2418000  -677.20749      112.18993     -789.39742      296.35745      247.96558      1920.3708      0.9969611
   2419000  -670.71808      125.53348     -796.25155      331.60536     -559.08639      1920.3708      0.9969611
   2420000  -670.04783      119.34637     -789.3942       315.26169     -356.7341       1920.3708      0.9969611
   2421000  -690.73035      106.19263     -796.92298      280.51518     -133.22442      1920.3708      0.9969611
   2422000  -678.75042      105.91888     -784.66929      279.79204     -2884.0361      1920.3708      0.9969611
   2423000  -705.91706      89.741061     -795.65812      237.05721     -1067.1206      1920.3708      0.9969611
   2424000  -686.78448      108.29243     -795.07691      286.06194      307.96182      1920.3708      0.9969611
   2425000  -647.50259      127.23674     -774.73934      336.10465     -1993.691       1920.3708      0.9969611
   2426000  -689.48901      111.88935     -801.37835      295.56344      120.62515      1920.3708      0.9969611
   2427000  -646.05806      120.04837     -766.10643      317.11607     -2106.3031      1920.3708      0.9969611
   2428000  -646.51052      128.84198     -775.3525       340.34499      1250.8761      1920.3708      0.9969611
   2429000  -654.38203      113.8872      -768.26924      300.84092      1662.204       1920.3708      0.9969611
   2430000  -694.8941       90.169602     -785.0637       238.18924      2949.5225      1920.3708      0.9969611
   2431000  -667.00834      122.34338     -789.35172      323.17849      483.16825      1920.3708      0.9969611
   2432000  -663.00989      117.57445     -780.58434      310.58103     -358.98113      1920.3708      0.9969611
   2433000  -686.02696      106.97058     -792.99755      282.57018      1418.6063      1920.3708      0.9969611
   2434000  -676.76799      118.96526     -795.73325      314.25496     -565.60303      1920.3708      0.9969611
   2435000  -674.41389      112.89488     -787.30877      298.21963     -1170.8449      1920.3708      0.9969611
   2436000  -651.23106      118.59457     -769.82563      313.27576      195.58859      1920.3708      0.9969611
   2437000  -646.74898      105.15387     -751.90285      277.7712       530.7448       1920.3708      0.9969611
   2438000  -633.10218      116.92003     -750.0222       308.85233      172.72904      1920.3708      0.9969611
   2439000  -662.21247      106.24773     -768.46019      280.66071     -1587.9763      1920.3708      0.9969611
   2440000  -667.05697      115.7336      -782.79057      305.7183      -954.09001      1920.3708      0.9969611
   2441000  -668.9749       102.45735     -771.43225      270.64816     -523.69556      1920.3708      0.9969611
   2442000  -663.96259      101.82514     -765.78773      268.97814     -1707.8112      1920.3708      0.9969611
   2443000  -658.11886      109.91034     -768.0292       290.33576     -185.86737      1920.3708      0.9969611
   2444000  -641.3058       112.31484     -753.62064      296.6874      -3533.2231      1920.3708      0.9969611
   2445000  -671.18044      110.9599      -782.14034      293.10825     -1861.4597      1920.3708      0.9969611
   2446000  -651.31137      120.86719     -772.17856      319.27904      1179.0168      1920.3708      0.9969611
   2447000  -647.44703      122.88606     -770.33309      324.61203      276.61843      1920.3708      0.9969611
   2448000  -694.51826      107.55839     -802.07664      284.12292     -2559.9305      1920.3708      0.9969611
   2449000  -680.53561      105.16288     -785.69848      277.795        1365.6413      1920.3708      0.9969611
   2450000  -675.3769       118.88675     -794.26365      314.04757     -2013.3483      1920.3708      0.9969611
   2451000  -670.71826      112.25105     -782.96931      296.5189       564.12667      1920.3708      0.9969611
   2452000  -665.78376      123.7315      -789.51526      326.84531     -1628.5462      1920.3708      0.9969611
   2453000  -662.0418       124.25515     -786.29695      328.22857     -2545.1467      1920.3708      0.9969611
   2454000  -684.09362      110.54313     -794.63675      292.00732     -159.77177      1920.3708      0.9969611
   2455000  -700.74619      99.19666      -799.94285      262.03483     -78.822764      1920.3708      0.9969611
   2456000  -683.56207      118.2642      -801.82627      312.40305      659.43277      1920.3708      0.9969611
   2457000  -712.07956      110.00464     -822.08419      290.58485      1685.7966      1920.3708      0.9969611
   2458000  -714.50137      117.46037     -831.96175      310.27969      788.50568      1920.3708      0.9969611
   2459000  -699.99111      117.77389     -817.765        311.10787     -588.50074      1920.3708      0.9969611
   2460000  -698.85777      109.96818     -808.82595      290.48855     -574.66966      1920.3708      0.9969611
   2461000  -683.97038      126.15242     -810.1228       333.24033      1235.7073      1920.3708      0.9969611
   2462000  -685.74296      109.71514     -795.4581       289.82013     -156.27965      1920.3708      0.9969611
   2463000  -680.35667      125.78501     -806.14168      332.26979     -467.88065      1920.3708      0.9969611
   2464000  -691.75204      101.13061     -792.88265      267.1435      -49.043462      1920.3708      0.9969611
   2465000  -664.61153      112.96747     -777.57899      298.41137     -1381.0186      1920.3708      0.9969611
   2466000  -649.42392      111.87604     -761.29996      295.5283      -1089.822       1920.3708      0.9969611
   2467000  -674.97599      95.65128      -770.62727      252.66947     -640.26549      1920.3708      0.9969611
   2468000  -674.67471      105.00804     -779.68275      277.38599     -1748.0806      1920.3708      0.9969611
   2469000  -660.84413      121.32953     -782.17366      320.50035      654.93079      1920.3708      0.9969611
   2470000  -672.68273      105.5008      -778.18353      278.68766      1799.8847      1920.3708      0.9969611
   2471000  -651.9948       123.46622     -775.46102      326.14455     -5491.8488      1920.3708      0.9969611
   2472000  -668.18291      105.85337     -774.03629      279.619        436.90386      1920.3708      0.9969611
   2473000  -669.82982      112.29736     -782.12718      296.64123      428.08669      1920.3708      0.9969611
   2474000  -676.51414      100.07815     -776.59229      264.36336     -443.37889      1920.3708      0.9969611
   2475000  -658.60151      113.257       -771.8585       299.17619      938.23609      1920.3708      0.9969611
   2476000  -656.7594       112.25476     -769.01416      296.52869      197.05325      1920.3708      0.9969611
   2477000  -647.21257      115.90847     -763.12104      306.18023     -1356.1594      1920.3708      0.9969611
   2478000  -650.94711      122.49265     -773.43976      323.57281      1228.7929      1920.3708      0.9969611
   2479000  -629.09596      134.39173     -763.48769      355.00504     -280.71525      1920.3708      0.9969611
   2480000  -664.15722      103.87318     -768.0304       274.38818      3131.1015      1920.3708      0.9969611
   2481000  -670.32381      107.45657     -777.78038      283.85394      1945.2333      1920.3708      0.9969611
   2482000  -630.24607      106.97959     -737.22566      282.59397     -360.30513      1920.3708      0.9969611
   2483000  -680.98053      117.42624     -798.40678      310.18954     -1216.0207      1920.3708      0.9969611
   2484000  -653.43771      118.5627      -772.00041      313.19156     -363.54749      1920.3708      0.9969611
   2485000  -663.46706      112.34997     -775.81703      296.78021     -178.31904      1920.3708      0.9969611
   2486000  -683.83475      112.0452      -795.87995      295.97515      5.4689137      1920.3708      0.9969611
   2487000  -665.12195      123.06914     -788.19109      325.09564      2668.6677      1920.3708      0.9969611
   2488000  -660.28689      125.86726     -786.15415      332.48707     -12.659203      1920.3708      0.9969611
   2489000  -684.11327      114.22387     -798.33714      301.73025      270.44713      1920.3708      0.9969611
   2490000  -660.74148      115.81138     -776.55286      305.92377      225.89951      1920.3708      0.9969611
   2491000  -664.34246      118.5031      -782.84556      313.03412      865.89047      1920.3708      0.9969611
   2492000  -663.52092      112.8999      -776.42083      298.2329      -3340.3898      1920.3708      0.9969611
   2493000  -682.21363      108.1152      -790.32883      285.59378     -2214.4353      1920.3708      0.9969611
   2494000  -676.58046      108.30845     -784.88891      286.10425      3144.487       1920.3708      0.9969611
   2495000  -705.73972      106.95559     -812.69531      282.53058     -2974.3149      1920.3708      0.9969611
   2496000  -689.54601      105.86487     -795.41088      279.64937     -934.32283      1920.3708      0.9969611
   2497000  -685.85732      108.45324     -794.31056      286.48673     -1584.6614      1920.3708      0.9969611
   2498000  -679.1495       127.1418      -806.29129      335.85384     -101.90087      1920.3708      0.9969611
   2499000  -698.24611      114.50187     -812.74797      302.46459     -3992.5388      1920.3708      0.9969611
   2500000  -706.19364      99.382505     -805.57614      262.52576     -833.33834      1920.3708      0.9969611
   2501000  -702.58073      108.05677     -810.6375       285.43943     -1842.7151      1920.3708      0.9969611
   2502000  -685.62705      115.30518     -800.93223      304.5866       533.5707       1920.3708      0.9969611
   2503000  -678.507        131.39928     -809.90627      347.10027     -898.1625       1920.3708      0.9969611
   2504000  -657.17534      115.66043     -772.83577      305.52502      172.09179      1920.3708      0.9969611
   2505000  -677.40928      119.52455     -796.93383      315.73237      697.61046      1920.3708      0.9969611
   2506000  -685.77956      117.35173     -803.13129      309.99271     -2144.4783      1920.3708      0.9969611
   2507000  -703.22629      108.6221      -811.84839      286.93278     -768.45554      1920.3708      0.9969611
   2508000  -673.31853      123.42773     -796.74626      326.04287      323.58882      1920.3708      0.9969611
   2509000  -661.08925      115.369       -776.45825      304.75518     -774.07425      1920.3708      0.9969611
   2510000  -679.3244       114.05662     -793.38101      301.28844      1138.4164      1920.3708      0.9969611
   2511000  -677.33087      119.22351     -796.55438      314.93713     -795.22611      1920.3708      0.9969611
   2512000  -660.14284      115.48155     -775.62438      305.05249      1995.5778      1920.3708      0.9969611
   2513000  -653.05087      120.3905      -773.44137      318.01982      686.34176      1920.3708      0.9969611
   2514000  -675.31267      117.62643     -792.9391       310.71836     -2076.654       1920.3708      0.9969611
   2515000  -636.92862      134.78647     -771.71509      356.04778     -480.75667      1920.3708      0.9969611
   2516000  -676.25396      111.04574     -787.2997       293.33499     -2935.933       1920.3708      0.9969611
   2517000  -670.14668      115.55775     -785.70443      305.2538      -640.50748      1920.3708      0.9969611
   2518000  -693.52573      100.56966     -794.0954       265.66172     -23.230504      1920.3708      0.9969611
   2519000  -678.80191      123.22172     -802.02363      325.49869      724.77281      1920.3708      0.9969611
   2520000  -697.10342      108.62611     -805.72953      286.94337     -2493.331       1920.3708      0.9969611
   2521000  -694.78431      101.54852     -796.33283      268.24744     -1075.1439      1920.3708      0.9969611
   2522000  -680.82588      110.17223     -790.99811      291.02756     -2336.304       1920.3708      0.9969611
   2523000  -687.22019      102.91176     -790.13195      271.84853     -1300.7004      1920.3708      0.9969611
   2524000  -685.68093      106.94621     -792.62715      282.50581     -1690.9781      1920.3708      0.9969611
   2525000  -657.70107      120.14458     -777.84565      317.37022      2250.3788      1920.3708      0.9969611
   2526000  -644.46974      119.31604     -763.78578      315.18156      3120.1612      1920.3708      0.9969611
   2527000  -660.74386      111.99413     -772.738        295.84025     -2251.503       1920.3708      0.9969611
   2528000  -680.57566      106.73518     -787.31085      281.94836     -1474.2585      1920.3708      0.9969611
   2529000  -661.61679      106.63887     -768.25566      281.69395      2469.0191      1920.3708      0.9969611
   2530000  -655.11178      108.32657     -763.43835      286.15212      742.91217      1920.3708      0.9969611
   2531000  -657.2918       117.01842     -774.31022      309.11223      174.76618      1920.3708      0.9969611
   2532000  -672.46981      105.87004     -778.33984      279.66302     -2215.2685      1920.3708      0.9969611
   2533000  -661.91408      122.5799      -784.49398      323.80327     -2129.4405      1920.3708      0.9969611
   2534000  -690.59373      106.14433     -796.73807      280.38759     -896.8208       1920.3708      0.9969611
   2535000  -673.42718      111.90797     -785.33514      295.61263     -771.57012      1920.3708      0.9969611
   2536000  -647.26691      113.14524     -760.41214      298.88096     -3294.4847      1920.3708      0.9969611
   2537000  -676.6838       115.78178     -792.46558      305.84558     -3843.8351      1920.3708      0.9969611
   2538000  -647.07227      120.20374     -767.27601      317.52648      3710.4972      1920.3708      0.9969611
   2539000  -663.61821      115.10234     -778.72055      304.05079      1512.4348      1920.3708      0.9969611
   2540000  -655.80282      116.05165     -771.85448      306.55846     -1684.3417      1920.3708      0.9969611
   2541000  -678.13143      116.65833     -794.78976      308.16103     -1104.102       1920.3708      0.9969611
   2542000  -658.25204      120.45434     -778.70638      318.18847     -1879.7505      1920.3708      0.9969611
   2543000  -691.32372      108.21689     -799.54061      285.86238     -768.21444      1920.3708      0.9969611
   2544000  -654.4901       115.57046     -770.06055      305.28735     -3521.7025      1920.3708      0.9969611
   2545000  -661.84607      112.72312     -774.56918      297.7659      -201.76204      1920.3708      0.9969611
   2546000  -703.41921      96.918252     -800.33747      256.01626     -1390.7641      1920.3708      0.9969611
   2547000  -681.5068       115.37324     -796.88004      304.76639     -1490.4703      1920.3708      0.9969611
   2548000  -681.95181      111.16001     -793.11181      293.63684      754.9476       1920.3708      0.9969611
   2549000  -665.71529      119.97185     -785.68714      316.91393     -1411.8898      1920.3708      0.9969611
   2550000  -677.74844      109.81255     -787.56099      290.07743      730.25501      1920.3708      0.9969611
   2551000  -676.41961      103.84148     -780.26109      274.30444     -2341.6932      1920.3708      0.9969611
   2552000  -686.0915       111.15131     -797.24281      293.61388      413.83453      1920.3708      0.9969611
   2553000  -662.22848      116.3         -778.52848      307.21448     -1126.1689      1920.3708      0.9969611
   2554000  -700.68272      107.10041     -807.78313      282.91315     -2111.7316      1920.3708      0.9969611
   2555000  -687.56176      120.50618     -808.06794      318.32539     -336.66938      1920.3708      0.9969611
   2556000  -679.07684      109.67777     -788.75461      289.72141      2108.5766      1920.3708      0.9969611
   2557000  -655.22836      125.849       -781.07736      332.43883      591.64098      1920.3708      0.9969611
   2558000  -655.33239      111.74711     -767.0795       295.1877      -1773.7472      1920.3708      0.9969611
   2559000  -664.50929      117.95462     -782.46391      311.58528     -266.42231      1920.3708      0.9969611
   2560000  -670.01766      103.43183     -773.44949      273.22233     -553.70838      1920.3708      0.9969611
   2561000  -668.62076      113.3192      -781.93997      299.34051     -2482.1445      1920.3708      0.9969611
   2562000  -686.28707      93.708348     -779.99542      247.53708     -1248.2113      1920.3708      0.9969611
   2563000  -645.01787      128.19369     -773.21156      338.63249     -1710.2085      1920.3708      0.9969611
   2564000  -635.38682      124.81946     -760.20628      329.71923     -2381.9097      1920.3708      0.9969611
   2565000  -680.58375      114.65001     -795.23376      302.85593     -257.43263      1920.3708      0.9969611
   2566000  -673.63911      106.33243     -779.97154      280.88445     -4680.336       1920.3708      0.9969611
   2567000  -648.72022      121.2841      -770.00433      320.38034      280.59748      1920.3708      0.9969611
   2568000  -657.68435      122.26661     -779.95096      322.97571      484.93207      1920.3708      0.9969611
   2569000  -653.52082      104.56372     -758.08454      276.2123      -1476.2143      1920.3708      0.9969611
   2570000  -657.05664      122.38716     -779.44379      323.29414      222.00949      1920.3708      0.9969611
   2571000  -663.39798      113.505       -776.90298      299.83131     -3469.0299      1920.3708      0.9969611
   2572000  -637.21976      126.63126     -763.85101      334.50521     -1826.8783      1920.3708      0.9969611
   2573000  -662.44502      121.11626     -783.56128      319.93697      1346.4081      1920.3708      0.9969611
   2574000  -660.31744      122.07187     -782.38931      322.46128      29.266321      1920.3708      0.9969611
   2575000  -649.53789      118.33885     -767.87675      312.60026     -2322.5752      1920.3708      0.9969611
   2576000  -670.48956      111.31351     -781.80307      294.04233      727.76735      1920.3708      0.9969611
   2577000  -678.13294      106.63197     -784.76491      281.67572     -637.77976      1920.3708      0.9969611
   2578000  -661.34972      124.69775     -786.04746      329.39772      2380.8289      1920.3708      0.9969611
   2579000  -708.07036      99.629916     -807.70027      263.17931     -452.09653      1920.3708      0.9969611
   2580000  -660.40753      114.08041     -774.48794      301.35129     -2774.1702      1920.3708      0.9969611
   2581000  -659.68649      101.2415      -760.92799      267.43641     -638.27926      1920.3708      0.9969611
   2582000  -664.37755      120.00213     -784.37969      316.99393     -1848.8465      1920.3708      0.9969611
   2583000  -668.83368      106.22531     -775.05899      280.60151     -224.35319      1920.3708      0.9969611
   2584000  -663.72115      114.39203     -778.11318      302.17445      355.13625      1920.3708      0.9969611
   2585000  -686.91723      99.901406     -786.81864      263.89647      71.145037      1920.3708      0.9969611
   2586000  -644.80985      112.36711     -757.17696      296.82549     -537.82576      1920.3708      0.9969611
   2587000  -652.13366      114.79228     -766.92593      303.23173     -4766.6078      1920.3708      0.9969611
   2588000  -630.86485      118.92834     -749.79319      314.15742     -318.20518      1920.3708      0.9969611
   2589000  -659.91563      117.47424     -777.38987      310.31633     -1627.4083      1920.3708      0.9969611
   2590000  -692.29231      107.34289     -799.6352       283.55366     -2823.581       1920.3708      0.9969611
   2591000  -657.93413      116.4585      -774.39263      307.63317     -75.162661      1920.3708      0.9969611
   2592000  -688.30688      104.73765     -793.04453      276.67174     -785.26037      1920.3708      0.9969611
   2593000  -681.56826      105.71245     -787.2807       279.24673     -3160.9397      1920.3708      0.9969611
   2594000  -678.67023      105.22547     -783.8957       277.96036     -3568.107       1920.3708      0.9969611
   2595000  -676.05816      111.32536     -787.38352      294.07363     -2827.8625      1920.3708      0.9969611
   2596000  -666.11298      110.94985     -777.06283      293.08169      151.72974      1920.3708      0.9969611
   2597000  -656.15006      104.97865     -761.12871      277.30836      853.23176      1920.3708      0.9969611
   2598000  -671.14403      111.59163     -782.73566      294.77701     -706.859        1920.3708      0.9969611
   2599000  -664.2354       118.96538     -783.20078      314.25527     -1113.9327      1920.3708      0.9969611
   2600000  -690.61987      98.64613      -789.266        260.58057     -717.8767       1920.3708      0.9969611
   2601000  -662.28696      113.54377     -775.83073      299.93372     -1786.736       1920.3708      0.9969611
   2602000  -650.31101      124.21319     -774.52419      328.11772     -1477.3947      1920.3708      0.9969611
   2603000  -676.58872      106.84731     -783.43603      282.24456      162.19012      1920.3708      0.9969611
   2604000  -694.09801      95.111825     -789.20983      251.24446     -2324.099       1920.3708      0.9969611
   2605000  -692.28262      105.70806     -797.99068      279.23515     -623.43048      1920.3708      0.9969611
   2606000  -676.72916      114.97795     -791.70711      303.7222      -1236.0692      1920.3708      0.9969611
   2607000  -695.55234      116.12196     -811.6743       306.74419      1859.3819      1920.3708      0.9969611
   2608000  -658.20487      114.63193     -772.83679      302.80815     -1418.8163      1920.3708      0.9969611
   2609000  -662.79908      114.95398     -777.75306      303.65889     -1188.1726      1920.3708      0.9969611
   2610000  -675.10639      105.89154     -780.99793      279.71983      255.66442      1920.3708      0.9969611
   2611000  -664.58838      125.36272     -789.95111      331.1543      -911.07273      1920.3708      0.9969611
   2612000  -656.16088      120.2456      -776.40648      317.63705     -1885.5986      1920.3708      0.9969611
   2613000  -682.17518      115.33755     -797.51273      304.67211     -31.816008      1920.3708      0.9969611
   2614000  -682.26322      115.85415     -798.11737      306.03673     -982.60077      1920.3708      0.9969611
   2615000  -661.23826      115.92967     -777.16793      306.23624     -237.16137      1920.3708      0.9969611
   2616000  -667.30419      117.64388     -784.94807      310.76444      881.55194      1920.3708      0.9969611
   2617000  -667.10434      119.42635     -786.53069      315.47296     -1834.6086      1920.3708      0.9969611
   2618000  -643.94758      103.68684     -747.63442      273.89596     -84.494175      1920.3708      0.9969611
   2619000  -648.08991      118.33915     -766.42906      312.60105     -2016.8496      1920.3708      0.9969611
   2620000  -655.79851      123.93125     -779.72976      327.37296      644.13284      1920.3708      0.9969611
   2621000  -665.02364      103.91242     -768.93605      274.49183      3660.7564      1920.3708      0.9969611
   2622000  -689.42765      99.088707     -788.51635      261.74967      945.34381      1920.3708      0.9969611
   2623000  -692.34732      91.293132     -783.64045      241.15712     -2991.1846      1920.3708      0.9969611
   2624000  -659.41615      118.35802     -777.77417      312.65089      1396.0249      1920.3708      0.9969611
   2625000  -660.44863      109.84186     -770.29049      290.15485     -1478.0798      1920.3708      0.9969611
   2626000  -677.93647      104.11437     -782.05084      275.02531      1412.4127      1920.3708      0.9969611
   2627000  -644.9329       119.40464     -764.33755      315.41562     -1748.4844      1920.3708      0.9969611
   2628000  -662.66423      119.96166     -782.62589      316.88701      537.6107       1920.3708      0.9969611
   2629000  -672.93667      111.18527     -784.12194      293.70357      54.730866      1920.3708      0.9969611
   2630000  -679.13951      111.77853     -790.91805      295.27072     -1339.0727      1920.3708      0.9969611
   2631000  -688.14024      103.59111     -791.73136      273.64309     -1862.7554      1920.3708      0.9969611
   2632000  -674.15136      108.51044     -782.6618       286.63781      573.11344      1920.3708      0.9969611
   2633000  -671.75509      111.04073     -782.79582      293.32176     -3411.2737      1920.3708      0.9969611
   2634000  -665.97504      114.50172     -780.47676      302.46421      1812.6718      1920.3708      0.9969611
   2635000  -671.66828      131.51643     -803.18471      347.40975     -321.54137      1920.3708      0.9969611
   2636000  -677.15065      104.93251     -782.08317      277.18649      1116.4396      1920.3708      0.9969611
   2637000  -673.79672      102.23375     -776.03047      270.05752     -2368.3701      1920.3708      0.9969611
   2638000  -675.99202      110.34326     -786.33528      291.47934     -2491.1795      1920.3708      0.9969611
   2639000  -670.57611      114.69019     -785.2663       302.96206     -849.69432      1920.3708      0.9969611
   2640000  -667.94104      111.28996     -779.23101      293.98013      503.19444      1920.3708      0.9969611
   2641000  -682.31295      109.37655     -791.6895       288.92572     -1033.0331      1920.3708      0.9969611
   2642000  -676.93235      111.90158     -788.83393      295.59576     -1236.8136      1920.3708      0.9969611
   2643000  -648.91997      115.01335     -763.93333      303.81572      1157.4529      1920.3708      0.9969611
   2644000  -670.6234       107.10862     -777.73202      282.93482      259.69317      1920.3708      0.9969611
   2645000  -655.86164      105.51257     -761.37421      278.71875      2059.4687      1920.3708      0.9969611
   2646000  -670.21443      116.40309     -786.61752      307.48681     -273.47371      1920.3708      0.9969611
   2647000  -678.91683      111.36215     -790.27898      294.17081     -17.071835      1920.3708      0.9969611
   2648000  -678.00158      103.01375     -781.01533      272.11794     -1121.8341      1920.3708      0.9969611
   2649000  -665.21506      125.49465     -790.70971      331.50279      730.48066      1920.3708      0.9969611
   2650000  -668.43928      104.37503     -772.81431      275.71384      534.47595      1920.3708      0.9969611
   2651000  -686.64037      109.62047     -796.26084      289.57003     -360.88769      1920.3708      0.9969611
   2652000  -708.00466      103.48513     -811.48978      273.36311     -653.94234      1920.3708      0.9969611
   2653000  -669.32841      114.75257     -784.08098      303.12684     -836.86234      1920.3708      0.9969611
   2654000  -666.33491      124.79292     -791.12783      329.64913      1511.7768      1920.3708      0.9969611
   2655000  -656.40045      107.17812     -763.57857      283.11841     -2436.1907      1920.3708      0.9969611
   2656000  -653.57475      117.30312     -770.87787      309.86429      540.88537      1920.3708      0.9969611
   2657000  -671.34855      110.94081     -782.28936      293.05782     -646.57847      1920.3708      0.9969611
   2658000  -695.54284      101.93302     -797.47586      269.26313     -497.47217      1920.3708      0.9969611
   2659000  -679.51252      108.01808     -787.5306       285.33722      2247.2589      1920.3708      0.9969611
   2660000  -679.3415       121.67697     -801.01847      321.41812      1121.2851      1920.3708      0.9969611
   2661000  -665.63515      122.4926      -788.12775      323.57267     -2899.8849      1920.3708      0.9969611
   2662000  -692.71126      96.482178     -789.19344      254.86434     -3011.3668      1920.3708      0.9969611
   2663000  -687.51161      115.27499     -802.7866       304.50685     -791.15567      1920.3708      0.9969611
   2664000  -654.74311      128.82608     -783.56919      340.303       -357.88799      1920.3708      0.9969611
   2665000  -660.7485       123.18055     -783.92904      325.38993      2275.4421      1920.3708      0.9969611
   2666000  -664.24754      120.94282     -785.19036      319.47883     -2230.4273      1920.3708      0.9969611
   2667000  -699.79232      113.86316     -813.65549      300.77742     -2510.8509      1920.3708      0.9969611
   2668000  -668.6459       114.12809     -782.77399      301.47724      293.99925      1920.3708      0.9969611
   2669000  -694.91437      104.3368      -799.25117      275.61287      558.12834      1920.3708      0.9969611
   2670000  -662.49643      111.45277     -773.94919      294.41019     -1211.1959      1920.3708      0.9969611
   2671000  -683.3421       122.06327     -805.40537      322.43855      2804.746       1920.3708      0.9969611
   2672000  -674.04532      105.77323     -779.81855      279.4073      -1397.6255      1920.3708      0.9969611
   2673000  -662.29938      127.16925     -789.46863      335.92637     -1273.1886      1920.3708      0.9969611
   2674000  -674.93519      113.46883     -788.40403      299.73577      808.524        1920.3708      0.9969611
   2675000  -691.15881      112.98533     -804.14415      298.45857     -694.53992      1920.3708      0.9969611
   2676000  -669.32565      106.35968     -775.68533      280.95645     -41.342405      1920.3708      0.9969611
   2677000  -680.48713      107.64712     -788.13425      284.35732      507.26686      1920.3708      0.9969611
   2678000  -695.51424      101.59692     -797.11116      268.37529     -1570.2937      1920.3708      0.9969611
   2679000  -683.83843      112.45414     -796.29257      297.05537     -1869.3184      1920.3708      0.9969611
   2680000  -680.3875       109.72508     -790.11258      289.84638     -1127.2562      1920.3708      0.9969611
   2681000  -692.52442      115.29843     -807.82285      304.56877     -516.70178      1920.3708      0.9969611
   2682000  -691.81173      126.19081     -818.00254      333.34176     -1040.6112      1920.3708      0.9969611
   2683000  -661.19569      116.54185     -777.73753      307.85334      590.68828      1920.3708      0.9969611
   2684000  -680.77784      114.58957     -795.3674       302.69626     -1982.8548      1920.3708      0.9969611
   2685000  -673.29676      111.35641     -784.65317      294.15566     -3065.781       1920.3708      0.9969611
   2686000  -671.60137      108.8877      -780.48908      287.6344       290.07679      1920.3708      0.9969611
   2687000  -691.08436      101.93673     -793.02109      269.27292      1675.3633      1920.3708      0.9969611
   2688000  -667.46256      119.58464     -787.0472       315.89109     -781.80444      1920.3708      0.9969611
   2689000  -674.92023      106.93142     -781.85165      282.46674      214.64658      1920.3708      0.9969611
   2690000  -671.65345      119.35242     -791.00587      315.27767      850.25994      1920.3708      0.9969611
   2691000  -703.1714       106.82179     -809.99319      282.17715     -1028.6914      1920.3708      0.9969611
   2692000  -677.61357      121.80078     -799.41435      321.74517      785.60169      1920.3708      0.9969611
   2693000  -659.92757      127.8026      -787.73017      337.59939      1614.608       1920.3708      0.9969611
   2694000  -674.42165      120.25391     -794.67556      317.65902     -3045.9786      1920.3708      0.9969611
   2695000  -677.1844       116.03208     -793.21648      306.50675     -1013.8771      1920.3708      0.9969611
   2696000  -682.29649      100.97648     -783.27297      266.73636      1663.7379      1920.3708      0.9969611
   2697000  -686.0606       115.13893     -801.19953      304.14744     -3562.7974      1920.3708      0.9969611
   2698000  -692.85577      100.74165     -793.59742      266.11603     -1551.6342      1920.3708      0.9969611
   2699000  -664.08332      101.63001     -765.71333      268.46269     -3115.1622      1920.3708      0.9969611
   2700000  -702.07284      102.53259     -804.60544      270.84693      397.09228      1920.3708      0.9969611
   2701000  -663.98139      117.62688     -781.60827      310.71954      2442.9602      1920.3708      0.9969611
   2702000  -702.56712      105.276       -807.84312      278.09383     -554.82624      1920.3708      0.9969611
   2703000  -659.56178      116.8821      -776.44388      308.75214      2123.6318      1920.3708      0.9969611
   2704000  -682.65436      110.92398     -793.57835      293.01337     -383.78822      1920.3708      0.9969611
   2705000  -647.9938       112.1262      -760.11999      296.1891      -771.07793      1920.3708      0.9969611
   2706000  -674.64391      101.13661     -775.78052      267.15933      1508.0616      1920.3708      0.9969611
   2707000  -659.89491      107.70615     -767.60106      284.51325      465.8095       1920.3708      0.9969611
   2708000  -674.93844      108.05437     -782.99281      285.43309     -1125.6691      1920.3708      0.9969611
   2709000  -655.21467      114.40172     -769.61639      302.20006     -579.29292      1920.3708      0.9969611
   2710000  -664.6026       103.60645     -768.20905      273.68361     -1364.6811      1920.3708      0.9969611
   2711000  -643.63823      121.23083     -764.86906      320.23962      1636.8137      1920.3708      0.9969611
   2712000  -688.40594      99.230559     -787.6365       262.12438     -593.66459      1920.3708      0.9969611
   2713000  -671.90835      119.39391     -791.30226      315.38727     -277.42977      1920.3708      0.9969611
   2714000  -659.92693      120.66345     -780.59037      318.74083     -3786.5056      1920.3708      0.9969611
   2715000  -680.89043      106.44498     -787.33541      281.18176     -2175.7592      1920.3708      0.9969611
   2716000  -658.93255      113.76656     -772.69911      300.52223     -2122.7418      1920.3708      0.9969611
   2717000  -664.25376      106.49151     -770.74527      281.30468     -3108.8076      1920.3708      0.9969611
   2718000  -680.24333      110.4403      -790.68363      291.7357      -608.25297      1920.3708      0.9969611
   2719000  -666.96687      110.66037     -777.62723      292.317       -1152.3508      1920.3708      0.9969611
   2720000  -668.72955      115.64839     -784.37794      305.49321     -4.112678       1920.3708      0.9969611
   2721000  -668.52464      117.85262     -786.37726      311.31585     -1377.8518      1920.3708      0.9969611
   2722000  -678.9829       103.05881     -782.0417       272.23696     -2878.0673      1920.3708      0.9969611
   2723000  -649.97492      121.62951     -771.60443      321.29275      1147.7066      1920.3708      0.9969611
   2724000  -665.89666      122.09886     -787.99552      322.53258     -772.05939      1920.3708      0.9969611
   2725000  -696.29316      96.821549     -793.11471      255.76081     -2188.9854      1920.3708      0.9969611
   2726000  -669.09568      102.08395     -771.17963      269.66181      79.265909      1920.3708      0.9969611
   2727000  -687.44436      113.37133     -800.81569      299.47819     -2146.8635      1920.3708      0.9969611
   2728000  -696.22058      116.27533     -812.49591      307.14932     -801.48139      1920.3708      0.9969611
   2729000  -662.03774      118.46412     -780.50186      312.93117     -699.49425      1920.3708      0.9969611
   2730000  -644.45228      121.14343     -765.59571      320.00875     -194.90653      1920.3708      0.9969611
   2731000  -657.91841      113.88774     -771.80615      300.84233     -99.516356      1920.3708      0.9969611
   2732000  -645.77173      117.65181     -763.42354      310.7854      -1093.0791      1920.3708      0.9969611
   2733000  -683.10458      109.98447     -793.08905      290.53157      1302.7811      1920.3708      0.9969611
   2734000  -651.58316      125.3808      -776.96396      331.20206      1521.8354      1920.3708      0.9969611
   2735000  -661.8465       127.47541     -789.32192      336.73512      2669.6053      1920.3708      0.9969611
   2736000  -670.13182      119.50944     -789.64126      315.69244     -183.80375      1920.3708      0.9969611
   2737000  -671.73454      112.19623     -783.93077      296.3741      -1031.2454      1920.3708      0.9969611
   2738000  -683.66464      109.26894     -792.93359      288.64147     -246.92658      1920.3708      0.9969611
   2739000  -687.66905      120.75862     -808.42768      318.99225      1610.7023      1920.3708      0.9969611
   2740000  -690.34831      105.61672     -795.96503      278.99387     -802.35907      1920.3708      0.9969611
   2741000  -651.62812      124.79715     -776.42527      329.6603       105.33516      1920.3708      0.9969611
   2742000  -680.98981      102.33071     -783.32051      270.31363     -2385.2978      1920.3708      0.9969611
   2743000  -663.50153      119.14875     -782.65028      314.73966      841.01849      1920.3708      0.9969611
   2744000  -656.74465      125.46392     -782.20857      331.42162     -2976.9686      1920.3708      0.9969611
   2745000  -661.25754      102.57198     -763.82953      270.95098      266.76972      1920.3708      0.9969611
   2746000  -676.54685      113.24632     -789.79317      299.14798     -555.23685      1920.3708      0.9969611
   2747000  -693.31385      100.7516      -794.06545      266.1423       683.74095      1920.3708      0.9969611
   2748000  -677.26269      102.53694     -779.79964      270.85842     -696.96632      1920.3708      0.9969611
   2749000  -712.80975      95.119787     -807.92954      251.26549     -1371.7655      1920.3708      0.9969611
   2750000  -669.2286       112.20759     -781.43619      296.4041       1689.7845      1920.3708      0.9969611
   2751000  -667.44205      99.698471     -767.14052      263.3604       45.695173      1920.3708      0.9969611
   2752000  -653.3616       120.45317     -773.81477      318.18537     -2389.3705      1920.3708      0.9969611
   2753000  -670.3728       116.02664     -786.39945      306.49239      1659.9378      1920.3708      0.9969611
   2754000  -649.25093      114.02321     -763.27414      301.2002       1897.364       1920.3708      0.9969611
   2755000  -680.63738      106.01671     -786.65409      280.05047     -211.4236       1920.3708      0.9969611
   2756000  -662.32846      102.95452     -765.28298      271.96149      288.30639      1920.3708      0.9969611
   2757000  -680.91568      107.87358     -788.78926      284.95551      907.48635      1920.3708      0.9969611
   2758000  -665.39011      101.4292      -766.81931      267.93223     -3563.1743      1920.3708      0.9969611
   2759000  -665.77857      127.38009     -793.15865      336.4833       133.85851      1920.3708      0.9969611
   2760000  -699.41604      109.52306     -808.93911      289.31274      313.02669      1920.3708      0.9969611
   2761000  -692.47715      104.01935     -796.4965       274.7743      -1224.8877      1920.3708      0.9969611
   2762000  -677.75893      106.40605     -784.16498      281.07894      865.51161      1920.3708      0.9969611
   2763000  -687.70315      106.02201     -793.72516      280.06446     -1285.4995      1920.3708      0.9969611
   2764000  -673.75171      115.78208     -789.53379      305.84638     -2186.6532      1920.3708      0.9969611
   2765000  -679.31086      109.2965      -788.60736      288.71426     -2862.5277      1920.3708      0.9969611
   2766000  -675.66643      106.48486     -782.15129      281.28711      788.5773       1920.3708      0.9969611
   2767000  -668.39647      100.48305     -768.87952      265.43292     -869.57364      1920.3708      0.9969611
   2768000  -664.55933      110.71145     -775.27078      292.45195      1000.4793      1920.3708      0.9969611
   2769000  -684.38128      117.78192     -802.1632       311.12909     -1334.5229      1920.3708      0.9969611
   2770000  -659.55692      112.07409     -771.63101      296.05146      186.59836      1920.3708      0.9969611
   2771000  -687.17722      97.211207     -784.38842      256.79012     -2082.4204      1920.3708      0.9969611
   2772000  -669.46582      117.08557     -786.55139      309.28964      2013.6506      1920.3708      0.9969611
   2773000  -679.86935      107.84789     -787.71724      284.88767     -182.95514      1920.3708      0.9969611
   2774000  -690.74801      110.19597     -800.94398      291.09026     -3203.6193      1920.3708      0.9969611
   2775000  -689.65863      112.27017     -801.92881      296.56942     -1897.8539      1920.3708      0.9969611
   2776000  -680.29273      112.92584     -793.21857      298.30142     -437.66235      1920.3708      0.9969611
   2777000  -688.26683      105.88097     -794.1478       279.6919       728.40281      1920.3708      0.9969611
   2778000  -662.17486      123.00201     -785.17687      324.91831     -324.81467      1920.3708      0.9969611
   2779000  -691.55697      111.67843     -803.2354       295.00629     -2084.8094      1920.3708      0.9969611
   2780000  -722.60819      96.017613     -818.6258       253.63716     -2780.2526      1920.3708      0.9969611
   2781000  -675.87596      108.15497     -784.03093      285.69883      140.29099      1920.3708      0.9969611
   2782000  -636.89018      131.6031      -768.49327      347.63868      859.68356      1920.3708      0.9969611
   2783000  -653.78874      123.96542     -777.75416      327.46322      1141.5791      1920.3708      0.9969611
   2784000  -668.98624      112.5215      -781.50775      297.23333      3163.0621      1920.3708      0.9969611
   2785000  -689.1343       99.471931     -788.60623      262.76198      88.139247      1920.3708      0.9969611
   2786000  -700.70098      110.059       -810.75999      290.72846      650.40422      1920.3708      0.9969611
   2787000  -699.28412      111.87526     -811.15938      295.52623     -2463.9647      1920.3708      0.9969611
   2788000  -680.97171      108.60575     -789.57746      286.88959     -1760.049       1920.3708      0.9969611
   2789000  -687.75154      108.15324     -795.90478      285.69426      478.9245       1920.3708      0.9969611
   2790000  -688.28577      115.89683     -804.18259      306.14948     -2600.7007      1920.3708      0.9969611
   2791000  -667.70221      105.55013     -773.25234      278.81796     -872.16682      1920.3708      0.9969611
   2792000  -668.71275      104.84511     -773.55786      276.95561     -708.13916      1920.3708      0.9969611
   2793000  -669.36234      100.23554     -769.59787      264.7791      -812.56419      1920.3708      0.9969611
   2794000  -653.49013      120.89702     -774.38715      319.35784     -547.32975      1920.3708      0.9969611
   2795000  -656.29351      114.81482     -771.10833      303.29128      361.57097      1920.3708      0.9969611
   2796000  -684.01082      107.04984     -791.06066      282.77955     -793.41509      1920.3708      0.9969611
   2797000  -654.64089      120.23651     -774.8774       317.61306     -477.00404      1920.3708      0.9969611
   2798000  -661.69657      116.34877     -778.04534      307.34331      1809.3501      1920.3708      0.9969611
   2799000  -661.05266      114.07204     -775.12469      301.32917     -122.72763      1920.3708      0.9969611
   2800000  -683.86764      107.82894     -791.69658      284.83761     -609.91115      1920.3708      0.9969611
   2801000  -687.16675      104.88741     -792.05416      277.06735     -569.69539      1920.3708      0.9969611
   2802000  -645.20692      122.57672     -767.78364      323.79488     -979.98426      1920.3708      0.9969611
   2803000  -671.16402      101.25064     -772.41466      267.46057     -566.65091      1920.3708      0.9969611
   2804000  -669.14681      117.44692     -786.59373      310.24415      410.95976      1920.3708      0.9969611
   2805000  -681.80685      103.12996     -784.93682      272.42492      1780.3329      1920.3708      0.9969611
   2806000  -656.07782      108.98982     -765.06764      287.90415      824.75268      1920.3708      0.9969611
   2807000  -684.25371      99.995655     -784.24937      264.14543     -2088.8233      1920.3708      0.9969611
   2808000  -652.38897      115.43083     -767.81979      304.9185      -1662.1162      1920.3708      0.9969611
   2809000  -689.73374      111.98033     -801.71407      295.80377     -1713.709       1920.3708      0.9969611
   2810000  -668.77046      119.46821     -788.23867      315.58354     -463.47055      1920.3708      0.9969611
   2811000  -660.2418       118.80374     -779.04554      313.8283       1189.303       1920.3708      0.9969611
   2812000  -674.70951      117.77569     -792.4852       311.11263      478.2802       1920.3708      0.9969611
   2813000  -679.90466      105.59174     -785.4964       278.92787      1422.9115      1920.3708      0.9969611
   2814000  -682.62465      117.6067      -800.23135      310.66623      1121.2514      1920.3708      0.9969611
   2815000  -665.64624      126.76095     -792.40719      334.84782      4019.5323      1920.3708      0.9969611
   2816000  -686.70457      110.42538     -797.12995      291.69626      2051.7634      1920.3708      0.9969611
   2817000  -664.12377      114.19599     -778.31976      301.6566      -2241.2156      1920.3708      0.9969611
   2818000  -666.45027      121.05812     -787.50838      319.78338     -1223.2031      1920.3708      0.9969611
   2819000  -671.0647       108.06396     -779.12865      285.45841      1364.0815      1920.3708      0.9969611
   2820000  -652.31226      119.40209     -771.71434      315.40886      909.85098      1920.3708      0.9969611
   2821000  -626.29448      126.91395     -753.20843      335.25196     -498.85408      1920.3708      0.9969611
   2822000  -668.79276      106.07507     -774.86783      280.20464     -4377.7757      1920.3708      0.9969611
   2823000  -666.78104      133.05804     -799.83907      351.482        205.90584      1920.3708      0.9969611
   2824000  -676.51109      108.28413     -784.79522      286.04001      3305.5345      1920.3708      0.9969611
   2825000  -679.06375      102.00201     -781.06577      269.44537      207.15738      1920.3708      0.9969611
   2826000  -674.13039      111.5353      -785.66569      294.6282      -3518.5324      1920.3708      0.9969611
   2827000  -672.48794      109.1082      -781.59614      288.21685     -2552.7523      1920.3708      0.9969611
   2828000  -671.87671      119.60428     -791.48099      315.94297      1442.7231      1920.3708      0.9969611
   2829000  -655.99054      117.45094     -773.44148      310.25477     -1850.5786      1920.3708      0.9969611
   2830000  -669.79747      114.74204     -784.53952      303.09903      1718.4989      1920.3708      0.9969611
   2831000  -670.80173      106.53029     -777.33203      281.40714     -686.15121      1920.3708      0.9969611
   2832000  -689.44412      112.20294     -801.64706      296.39183     -3186.5086      1920.3708      0.9969611
   2833000  -678.17468      116.46889     -794.64357      307.66062      1682.0619      1920.3708      0.9969611
   2834000  -671.46546      111.93036     -783.39582      295.67177      1531.3281      1920.3708      0.9969611
   2835000  -688.25359      103.06083     -791.31442      272.24229      400.7578       1920.3708      0.9969611
   2836000  -685.58687      110.76576     -796.35263      292.59541     -1290.2887      1920.3708      0.9969611
   2837000  -671.11273      105.7774      -776.89012      279.4183      -689.20958      1920.3708      0.9969611
   2838000  -676.43601      105.66649     -782.1025       279.12532     -738.28364      1920.3708      0.9969611
   2839000  -662.82307      114.34365     -777.16672      302.04666     -630.19412      1920.3708      0.9969611
   2840000  -667.77967      110.91398     -778.69365      292.98694     -849.19022      1920.3708      0.9969611
   2841000  -682.27209      113.6779      -795.95         300.28804     -1215.0732      1920.3708      0.9969611
   2842000  -678.38169      114.61033     -792.99202      302.75112      2297.9702      1920.3708      0.9969611
   2843000  -666.58903      114.46617     -781.0552       302.37029      1245.6525      1920.3708      0.9969611
   2844000  -669.99051      105.13699     -775.1275       277.72664     -1061.3294      1920.3708      0.9969611
   2845000  -686.12885      112.36714     -798.49599      296.82556     -1113.4824      1920.3708      0.9969611
   2846000  -647.05364      119.19201     -766.24565      314.85392     -4572.2029      1920.3708      0.9969611
   2847000  -669.14562      108.78        -777.92561      287.34988      1529.5259      1920.3708      0.9969611
   2848000  -662.09353      103.89003     -765.98355      274.43269     -647.78655      1920.3708      0.9969611
   2849000  -677.91685      108.45674     -786.37359      286.49597     -1396.8624      1920.3708      0.9969611
   2850000  -650.59067      126.72826     -777.31893      334.76144     -1285.9198      1920.3708      0.9969611
   2851000  -659.07887      103.49429     -762.57316      273.38731     -1942.3998      1920.3708      0.9969611
   2852000  -698.58559      102.66949     -801.25508      271.20855     -1530.9383      1920.3708      0.9969611
   2853000  -677.77846      113.96029     -791.73875      301.03397      57.850749      1920.3708      0.9969611
   2854000  -666.42953      120.07074     -786.50027      317.17515      973.46676      1920.3708      0.9969611
   2855000  -695.71819      109.05305     -804.77124      288.07118      2349.7011      1920.3708      0.9969611
   2856000  -673.53768      106.85098     -780.38866      282.25426     -340.50723      1920.3708      0.9969611
   2857000  -682.62368      112.10443     -794.72811      296.1316      -1790.388       1920.3708      0.9969611
   2858000  -676.16877      113.60961     -789.77838      300.10765     -2423.7616      1920.3708      0.9969611
   2859000  -638.96414      118.71116     -757.6753       313.58374     -130.7656       1920.3708      0.9969611
   2860000  -673.04024      107.51422     -780.55446      284.00624      2010.5609      1920.3708      0.9969611
   2861000  -684.34037      104.12288     -788.46326      275.04779     -699.03194      1920.3708      0.9969611
   2862000  -670.59394      125.23306     -795.82699      330.81177     -1219.0132      1920.3708      0.9969611
   2863000  -664.81932      121.60511     -786.42443      321.22831     -2331.103       1920.3708      0.9969611
   2864000  -682.14345      116.49326     -798.63671      307.72499     -1575.3947      1920.3708      0.9969611
   2865000  -642.41021      105.63615     -748.04637      279.04519     -826.44223      1920.3708      0.9969611
   2866000  -689.91995      100.65298     -790.57293      265.8818      -2898.0889      1920.3708      0.9969611
   2867000  -685.32524      116.43655     -801.76179      307.57521     -2008.0853      1920.3708      0.9969611
   2868000  -679.19144      112.11204     -791.30348      296.15169     -785.22157      1920.3708      0.9969611
   2869000  -656.23805      113.39033     -769.62838      299.5284      -1954.8513      1920.3708      0.9969611
   2870000  -686.59857      110.89579     -797.49436      292.9389      -919.33536      1920.3708      0.9969611
   2871000  -665.78063      110.79708     -776.57771      292.67815     -1375.8258      1920.3708      0.9969611
   2872000  -677.62748      100.67782     -778.3053       265.94743     -111.12832      1920.3708      0.9969611
   2873000  -682.49736      108.6753      -791.17266      287.07333     -1001.7005      1920.3708      0.9969611
   2874000  -675.61657      104.58732     -780.20389      276.27463     -60.720953      1920.3708      0.9969611
   2875000  -691.75426      107.26858     -799.02283      283.35736     -1380.4167      1920.3708      0.9969611
   2876000  -662.76907      126.98997     -789.75903      335.45277     -1545.0081      1920.3708      0.9969611
   2877000  -708.35842      109.52039     -817.87881      289.30569     -667.49268      1920.3708      0.9969611
   2878000  -694.26549      102.23193     -796.49742      270.0527       1694.2874      1920.3708      0.9969611
   2879000  -702.85665      113.50773     -816.36438      299.83851     -518.28901      1920.3708      0.9969611
   2880000  -668.49741      114.37022     -782.86763      302.11683     -1225.0585      1920.3708      0.9969611
   2881000  -688.54288      120.28431     -808.82719      317.73931      1029.7406      1920.3708      0.9969611
   2882000  -698.37467      110.70552     -809.08019      292.43627     -2008.6956      1920.3708      0.9969611
   2883000  -679.879        112.97462     -792.85363      298.43027     -1314.4534      1920.3708      0.9969611
   2884000  -692.89443      103.67677     -796.5712       273.86934      208.22934      1920.3708      0.9969611
   2885000  -674.8772       116.07638     -790.95358      306.62378     -2446.9986      1920.3708      0.9969611
   2886000  -671.53393      105.83176     -777.36569      279.56191     -619.43676      1920.3708      0.9969611
   2887000  -700.04232      101.98071     -802.02303      269.3891       162.28953      1920.3708      0.9969611
   2888000  -690.6588       110.88277     -801.54157      292.9045       987.46633      1920.3708      0.9969611
   2889000  -666.38592      115.86801     -782.25393      306.07336     -1949.4394      1920.3708      0.9969611
   2890000  -682.76377      108.64649     -791.41026      286.99721     -215.89796      1920.3708      0.9969611
   2891000  -672.54286      112.50757     -785.05043      297.19653     -2512.341       1920.3708      0.9969611
   2892000  -671.35545      122.01552     -793.37097      322.31243     -1062.4243      1920.3708      0.9969611
   2893000  -688.40262      103.99328     -792.3959       274.70543     -3977.7008      1920.3708      0.9969611
   2894000  -686.42775      112.82131     -799.24906      298.02528     -3173.3543      1920.3708      0.9969611
   2895000  -684.32855      113.77803     -798.10658      300.55254     -1340.0511      1920.3708      0.9969611
   2896000  -669.57875      109.43051     -779.00926      289.06825     -1539.2106      1920.3708      0.9969611
   2897000  -676.48097      102.21253     -778.6935       270.00146      957.05523      1920.3708      0.9969611
   2898000  -692.58167      121.47536     -814.05704      320.88557     -2407.701       1920.3708      0.9969611
   2899000  -680.35986      109.09193     -789.45179      288.17388     -3714.0065      1920.3708      0.9969611
   2900000  -676.59599      115.45902     -792.05501      304.99297     -686.63514      1920.3708      0.9969611
   2901000  -707.69672      97.489829     -805.18655      257.52612     -4862.7371      1920.3708      0.9969611
   2902000  -673.07451      117.44994     -790.52445      310.25214     -122.28919      1920.3708      0.9969611
   2903000  -682.52045      107.50789     -790.02835      283.98953      1413.2568      1920.3708      0.9969611
   2904000  -677.73624      112.8689      -790.60515      298.151       -1854.8523      1920.3708      0.9969611
   2905000  -673.36509      114.98663     -788.35172      303.74513     -326.77584      1920.3708      0.9969611
   2906000  -672.79086      111.72671     -784.51757      295.13382     -1379.0107      1920.3708      0.9969611
   2907000  -676.83116      101.4472      -778.27836      267.9798       666.96095      1920.3708      0.9969611
   2908000  -653.74551      111.41966     -765.16517      294.32272      422.71439      1920.3708      0.9969611
   2909000  -678.45588      106.54968     -785.00556      281.45835     -991.16765      1920.3708      0.9969611
   2910000  -672.99008      105.11137     -778.10145      277.65896      239.58704      1920.3708      0.9969611
   2911000  -674.87222      116.64215     -791.51437      308.1183      -1124.5144      1920.3708      0.9969611
   2912000  -649.13424      119.13038     -768.26463      314.69114     -1856.2566      1920.3708      0.9969611
   2913000  -674.58005      105.9206      -780.50065      279.79659     -1780.2759      1920.3708      0.9969611
   2914000  -659.55119      102.95292     -762.50411      271.95725      1094.2117      1920.3708      0.9969611
   2915000  -674.43933      108.03656     -782.4759       285.38604     -80.321578      1920.3708      0.9969611
   2916000  -690.4348       101.74133     -792.17613      268.75676     -360.205        1920.3708      0.9969611
   2917000  -666.63371      112.32476     -778.95847      296.71361     -3196.1732      1920.3708      0.9969611
   2918000  -659.27806      109.89111     -769.16917      290.28496     -2725.2454      1920.3708      0.9969611
   2919000  -695.68881      96.864131     -792.55294      255.8733      -132.09138      1920.3708      0.9969611
   2920000  -680.2586       122.22763     -802.48623      322.87273     -1540.3537      1920.3708      0.9969611
   2921000  -686.02428      114.23248     -800.25676      301.75299     -2430.0206      1920.3708      0.9969611
   2922000  -662.07889      129.17272     -791.25162      341.21868     -2076.5534      1920.3708      0.9969611
   2923000  -664.9496       120.3015      -785.2511       317.78471     -116.18064      1920.3708      0.9969611
   2924000  -648.74228      119.10029     -767.84256      314.61164      460.50873      1920.3708      0.9969611
   2925000  -664.55297      114.34002     -778.89299      302.03706     -567.71653      1920.3708      0.9969611
   2926000  -676.12058      114.18622     -790.3068       301.63078      76.227137      1920.3708      0.9969611
   2927000  -681.22347      113.50934     -794.73282      299.84277     -835.93852      1920.3708      0.9969611
   2928000  -689.06719      111.15928     -800.22647      293.63493      1106.7969      1920.3708      0.9969611
   2929000  -675.38741      115.53847     -790.92588      305.20285      2417.9507      1920.3708      0.9969611
   2930000  -662.73694      114.68454     -777.42148      302.94714      3667.0152      1920.3708      0.9969611
   2931000  -672.82069      102.55307     -775.37376      270.90102     -2521.8206      1920.3708      0.9969611
   2932000  -659.87403      110.05833     -769.93236      290.72669      3189.5217      1920.3708      0.9969611
   2933000  -673.74576      110.45334     -784.1991       291.77012     -1813.5892      1920.3708      0.9969611
   2934000  -659.84539      109.40235     -769.24774      288.99386     -1544.9273      1920.3708      0.9969611
   2935000  -651.14223      113.40728     -764.54951      299.57316     -2976.4648      1920.3708      0.9969611
   2936000  -665.52944      116.96065     -782.49009      308.95963     -2710.6544      1920.3708      0.9969611
   2937000  -669.25262      106.41806     -775.67069      281.11067     -1938.9475      1920.3708      0.9969611
   2938000  -679.01862      108.27486     -787.29348      286.01553     -2677.2819      1920.3708      0.9969611
   2939000  -646.67679      118.19778     -764.87458      312.22761     -1997.6395      1920.3708      0.9969611
   2940000  -672.66341      109.07151     -781.73492      288.11994     -1621.034       1920.3708      0.9969611
   2941000  -674.63438      115.32897     -789.96336      304.64946     -2883.2559      1920.3708      0.9969611
   2942000  -665.0602       129.98619     -795.0464       343.36751      1257.8659      1920.3708      0.9969611
   2943000  -663.4909       120.12742     -783.61833      317.32489     -3987.6022      1920.3708      0.9969611
   2944000  -658.37207      121.47035     -779.84242      320.87233     -129.78287      1920.3708      0.9969611
   2945000  -686.83316      112.56262     -799.39578      297.34194     -547.21187      1920.3708      0.9969611
   2946000  -635.35504      124.6812      -760.03623      329.354       -1494.5935      1920.3708      0.9969611
   2947000  -675.87265      110.43514     -786.30779      291.72205      892.19923      1920.3708      0.9969611
   2948000  -668.64235      113.97289     -782.61525      301.06728     -1682.8447      1920.3708      0.9969611
   2949000  -693.50167      100.11426     -793.61593      264.45873     -1309.3341      1920.3708      0.9969611
   2950000  -670.29835      122.33543     -792.63378      323.15749      387.11043      1920.3708      0.9969611
   2951000  -697.37121      104.99836     -802.36957      277.36043     -2724.5772      1920.3708      0.9969611
   2952000  -679.15417      113.77465     -792.92882      300.5436      -3364.6957      1920.3708      0.9969611
   2953000  -666.04741      108.36569     -774.4131       286.25546     -1224.4143      1920.3708      0.9969611
   2954000  -683.32399      106.01925     -789.34323      280.05717     -2560.8873      1920.3708      0.9969611
   2955000  -671.88416      123.01        -794.89416      324.93941     -2457.2546      1920.3708      0.9969611
   2956000  -659.86555      117.30968     -777.17523      309.88162     -1871.4439      1920.3708      0.9969611
   2957000  -671.61647      121.67943     -793.29589      321.42461     -905.23139      1920.3708      0.9969611
   2958000  -667.11462      119.17182     -786.28644      314.80059     -2021.6788      1920.3708      0.9969611
   2959000  -667.34476      99.1217       -766.46646      261.83682     -1286.6166      1920.3708      0.9969611
   2960000  -683.62683      109.03386     -792.66069      288.02048     -2532.7101      1920.3708      0.9969611
   2961000  -700.62387      106.52362     -807.14749      281.38951     -4093.4518      1920.3708      0.9969611
   2962000  -683.81405      105.90217     -789.71622      279.7479       1136.7218      1920.3708      0.9969611
   2963000  -672.93191      99.394326     -772.32624      262.55698     -869.05663      1920.3708      0.9969611
   2964000  -661.28947      117.01732     -778.30679      309.10935      1173.278       1920.3708      0.9969611
   2965000  -674.57555      116.5669      -791.14245      307.91952     -3231.9081      1920.3708      0.9969611
   2966000  -676.48452      120.49565     -796.98017      318.29759     -204.95007      1920.3708      0.9969611
   2967000  -676.24903      99.0595       -775.30853      261.67251     -1798.7895      1920.3708      0.9969611
   2968000  -681.77421      102.06022     -783.83443      269.59912     -808.48803      1920.3708      0.9969611
   2969000  -680.99749      103.51924     -784.51674      273.45324     -855.42515      1920.3708      0.9969611
   2970000  -663.59551      116.68651     -780.28202      308.23549      1660.312       1920.3708      0.9969611
   2971000  -659.72725      102.606       -762.33325      271.04084     -2108.3549      1920.3708      0.9969611
   2972000  -661.35119      129.24519     -790.59638      341.41009     -1026.0483      1920.3708      0.9969611
   2973000  -675.2965       109.39227     -784.68877      288.96723     -393.93882      1920.3708      0.9969611
   2974000  -684.37527      105.87461     -790.24988      279.67509     -624.98912      1920.3708      0.9969611
   2975000  -714.04826      100.72755     -814.77582      266.0788      -1468.3848      1920.3708      0.9969611
   2976000  -674.45388      123.04473     -797.49861      325.03116      508.84843      1920.3708      0.9969611
   2977000  -684.06182      115.39281     -799.45463      304.81809      1387.9086      1920.3708      0.9969611
   2978000  -690.2453       114.98199     -805.22729      303.73287     -1077.0919      1920.3708      0.9969611
   2979000  -662.44985      109.58382     -772.03368      289.47324      928.86585      1920.3708      0.9969611
   2980000  -674.79448      111.53981     -786.33429      294.64011     -2480.3368      1920.3708      0.9969611
   2981000  -658.36143      118.95678     -777.31821      314.23256     -1188.556       1920.3708      0.9969611
   2982000  -674.91599      115.15141     -790.0674       304.1804      -1455.9567      1920.3708      0.9969611
   2983000  -698.82842      103.11063     -801.93905      272.37386     -593.55067      1920.3708      0.9969611
   2984000  -680.28178      107.4188      -787.70059      283.75419     -2359.7711      1920.3708      0.9969611
   2985000  -684.58147      119.05637     -803.63784      314.49563     -836.63369      1920.3708      0.9969611
   2986000  -676.06299      107.59828     -783.66128      284.2283       318.77379      1920.3708      0.9969611
   2987000  -684.77861      114.87188     -799.65049      303.44202     -465.1167       1920.3708      0.9969611
   2988000  -694.13361      103.5946      -797.72821      273.6523      -2003.9384      1920.3708      0.9969611
   2989000  -686.72946      108.1521      -794.88157      285.69126     -1336.4345      1920.3708      0.9969611
   2990000  -674.88968      111.18478     -786.07446      293.70229      1685.4094      1920.3708      0.9969611
   2991000  -662.62953      111.0726      -773.70213      293.40594     -1164.3549      1920.3708      0.9969611
   2992000  -682.18062      119.50645     -801.68708      315.68456      49.776101      1920.3708      0.9969611
   2993000  -659.88641      128.99122     -788.87763      340.73923      2250.858       1920.3708      0.9969611
   2994000  -664.82962      112.02639     -776.85602      295.92546     -4175.8233      1920.3708      0.9969611
   2995000  -677.9016       113.34902     -791.25062      299.41927     -3521.6506      1920.3708      0.9969611
   2996000  -677.28822      101.81562     -779.10384      268.953       -1308.2555      1920.3708      0.9969611
   2997000  -658.70175      118.92656     -777.62831      314.15272     -1042.754       1920.3708      0.9969611
   2998000  -642.15043      105.27236     -747.4228       278.08422      1082.8392      1920.3708      0.9969611
   2999000  -666.56003      109.21996     -775.78         288.51209      1022.6674      1920.3708      0.9969611
   3000000  -717.16725      109.12318     -826.29044      288.25643     -1587.5871      1920.3708      0.9969611
Loop time of 1781.22 on 1 procs for 2000000 steps with 192 atoms

Performance: 97.012 ns/day, 0.247 hours/ns, 1122.825 timesteps/s
99.7% CPU use with 1 MPI tasks x 1 OpenMP threads

MPI task timing breakdown:
Section |  min time  |  avg time  |  max time  |%varavg| %total
---------------------------------------------------------------
Pair    | 1426.4     | 1426.4     | 1426.4     |   0.0 | 80.08
Bond    | 0.11768    | 0.11768    | 0.11768    |   0.0 |  0.01
Kspace  | 233.42     | 233.42     | 233.42     |   0.0 | 13.10
Neigh   | 68.094     | 68.094     | 68.094     |   0.0 |  3.82
Comm    | 26.83      | 26.83      | 26.83      |   0.0 |  1.51
Output  | 0.4374     | 0.4374     | 0.4374     |   0.0 |  0.02
Modify  | 21.399     | 21.399     | 21.399     |   0.0 |  1.20
Other   |            | 4.538      |            |       |  0.25

Nlocal:            192 ave         192 max         192 min
Histogram: 1 0 0 0 0 0 0 0 0 0
Nghost:           4713 ave        4713 max        4713 min
Histogram: 1 0 0 0 0 0 0 0 0 0
Neighs:          69326 ave       69326 max       69326 min
Histogram: 1 0 0 0 0 0 0 0 0 0

Total # of neighbors = 69326
Ave neighs/atom = 361.07292
Ave special neighs/atom = 2
Neighbor list builds = 53264
Dangerous builds = 0

# write data file
write_data data.after_prod.lmp
System init for write_data ...
PPPM initialization ...
  using 12-bit tables for long-range coulomb (src/kspace.cpp:342)
  G vector (1/distance) = 0.31260513
  grid = 12 12 12
  stencil order = 5
  estimated absolute RMS force accuracy = 0.0021455329
  estimated relative force accuracy = 6.4612085e-06
  using double precision FFTW3
  3d grid and FFT values/proc = 6859 1728
Generated 1 of 1 mixed pair_coeff terms from geometric mixing rule

# clean up
undump dPROD
unfix fTHERMO
unfix fMOM
unfix fSHAKE
Total wall time: 0:44:29
