LAMMPS (23 Jun 2022 - Update 4)
  using 1 OpenMP thread(s) per MPI task
# created by fftool

# System settings
units real
boundary p p p  # Periodic boundary conditions

# definition of atoms, bonds, angles
atom_style full
bond_style harmonic
angle_style harmonic

# definition of pair potentials
special_bonds lj/coul 0.0 0.0 0.5
pair_style lj/cut/coul/long 10.0 10.0
pair_modify mix geometric tail yes
kspace_style pppm 1.0e-5

# read data file
read_data data.lmp
Reading data file ...
  orthogonal box = (0 0 0) to (9.865483 9.865483 9.865483)
  1 by 1 by 1 MPI processor grid
  reading atoms ...
  96 atoms
  scanning bonds ...
  1 = max bonds/atom
  scanning angles ...
  1 = max angles/atom
  reading bonds ...
  64 bonds
  reading angles ...
  32 angles
Finding 1-2 1-3 1-4 neighbors ...
  special bond factors lj:    0        0        0.5
  special bond factors coul:  0        0        0.5
     2 = max # of 1-2 neighbors
     1 = max # of 1-3 neighbors
     1 = max # of 1-4 neighbors
     2 = max # of special neighbors
  special bonds CPU = 0.000 seconds
  read_data CPU = 0.004 seconds

# definition of LJ parameters
pair_coeff    1    1     0.000000     0.000000  # Hw Hw
pair_coeff    2    2     0.163785     3.164813  # Ow-Ow

############################################

# remove energy hotspots
minimize 1.0e-4 1.0e-6 100 1000
WARNING: Using 'neigh_modify every 1 delay 0 check yes' setting during minimization (src/min.cpp:187)
PPPM initialization ...
  using 12-bit tables for long-range coulomb (src/kspace.cpp:342)
  G vector (1/distance) = 0.30847861
  grid = 9 9 9
  stencil order = 5
  estimated absolute RMS force accuracy = 0.0027675926
  estimated relative force accuracy = 8.334523e-06
  using double precision FFTW3
  3d grid and FFT values/proc = 4096 729
Generated 1 of 1 mixed pair_coeff terms from geometric mixing rule
Neighbor list info ...
  update every 1 steps, delay 0 steps, check yes
  max neighbors/atom: 2000, page size: 100000
  master list distance cutoff = 12
  ghost atom cutoff = 12
  binsize = 6, bins = 2 2 2
  1 neighbor lists, perpetual/occasional/extra = 1 0 0
  (1) pair lj/cut/coul/long, perpetual
      attributes: half, newton on
      pair build: half/bin/newton
      stencil: half/bin/3d
      bin: standard
Per MPI rank memory allocation (min/avg/max) = 8.317 | 8.317 | 8.317 Mbytes
   Step          Temp          E_pair         E_mol          TotEng         Press
         0   0              829.0832       6.7900184e-09  829.0832       266910.94
       100   0             -469.56139      31.68663      -437.87476     -8766.1806
Loop time of 0.111255 on 1 procs for 100 steps with 96 atoms

99.6% CPU use with 1 MPI tasks x 1 OpenMP threads

Minimization stats:
  Stopping criterion = max iterations
  Energy initial, next-to-last, final =
      829.083196716802  -436.569873816159  -437.874756578882
  Force two-norm initial, final = 4636.1704 45.172817
  Force max component initial, final = 2218.098 16.363137
  Final line search alpha, max atom move = 0.0059965744 0.098122766
  Iterations, force evaluations = 100 183

MPI task timing breakdown:
Section |  min time  |  avg time  |  max time  |%varavg| %total
---------------------------------------------------------------
Pair    | 0.094962   | 0.094962   | 0.094962   |   0.0 | 85.35
Bond    | 0.0003614  | 0.0003614  | 0.0003614  |   0.0 |  0.32
Kspace  | 0.01111    | 0.01111    | 0.01111    |   0.0 |  9.99
Neigh   | 0.0021312  | 0.0021312  | 0.0021312  |   0.0 |  1.92
Comm    | 0.0021113  | 0.0021113  | 0.0021113  |   0.0 |  1.90
Output  | 8.234e-06  | 8.234e-06  | 8.234e-06  |   0.0 |  0.01
Modify  | 0          | 0          | 0          |   0.0 |  0.00
Other   |            | 0.0005713  |            |       |  0.51

Nlocal:             96 ave          96 max          96 min
Histogram: 1 0 0 0 0 0 0 0 0 0
Nghost:           3866 ave        3866 max        3866 min
Histogram: 1 0 0 0 0 0 0 0 0 0
Neighs:          34716 ave       34716 max       34716 min
Histogram: 1 0 0 0 0 0 0 0 0 0

Total # of neighbors = 34716
Ave neighs/atom = 361.625
Ave special neighs/atom = 2
Neighbor list builds = 3
Dangerous builds = 0
reset_timestep 0

# constrain water bonds and angles
fix fSHAKE all shake 0.0001 20 0 b 1 a 1
       0 = # of size 2 clusters
       0 = # of size 3 clusters
       0 = # of size 4 clusters
      32 = # of frozen angles
  find clusters CPU = 0.000 seconds

# remove Center of Mass movement every 100 steps
fix fMOM all momentum 100 linear 1 1 1

# define the neighbor list
neighbor 2.0 bin

# IMPORTANT: timestep and temperature and pressure
timestep 1.0
variable vTK equal 298.15
variable vPBAR equal 1.0

# randomize velocities
velocity all create ${vTK} 94711
velocity all create 298.15 94711

# thermostat (solving the ODE)
fix fTHERMO all nvt temp ${vTK} ${vTK} 100
fix fTHERMO all nvt temp 298.15 ${vTK} 100
fix fTHERMO all nvt temp 298.15 298.15 100

# print settings
thermo 1000
thermo_style custom step etotal ke pe temp press vol density
# trajectory output
dump dEQUI all custom 1000 equi.lammpstrj id element xu yu zu
dump_modify dEQUI element H O sort id

# equilibration
# 1 ns
run 1000000
PPPM initialization ...
  using 12-bit tables for long-range coulomb (src/kspace.cpp:342)
  G vector (1/distance) = 0.30847861
  grid = 9 9 9
  stencil order = 5
  estimated absolute RMS force accuracy = 0.0027675926
  estimated relative force accuracy = 8.334523e-06
  using double precision FFTW3
  3d grid and FFT values/proc = 4096 729
Generated 1 of 1 mixed pair_coeff terms from geometric mixing rule
Per MPI rank memory allocation (min/avg/max) = 9.326 | 9.326 | 9.326 Mbytes
   Step         TotEng         KinEng         PotEng          Temp          Press          Volume        Density
         0  -413.57149      55.989897     -469.56139      298.15         36.45226       960.18531      0.99696118
      1000  -323.65684      51.625673     -375.28251      274.91021      923.99836      960.18531      0.99696118
      2000  -332.96162      52.420411     -385.38203      279.14225     -4354.2352      960.18531      0.99696118
      3000  -333.00238      63.628655     -396.63104      338.82691      3834.6092      960.18531      0.99696118
      4000  -353.10808      42.443785     -395.55187      226.01604      2857.9939      960.18531      0.99696118
      5000  -324.9437       69.404177     -394.34788      369.58196     -998.96141      960.18531      0.99696118
      6000  -320.17189      57.060258     -377.23215      303.84975      647.33286      960.18531      0.99696118
      7000  -344.65884      53.415219     -398.07406      284.43967     -1365.1618      960.18531      0.99696118
      8000  -323.56163      54.943303     -378.50494      292.57682     -1583.9334      960.18531      0.99696118
      9000  -325.7839       57.224456     -383.00836      304.72411      1754.231       960.18531      0.99696118
     10000  -326.22488      58.752722     -384.97761      312.86223      1124.2479      960.18531      0.99696118
     11000  -328.02581      47.625646     -375.65145      253.6098       4485.9592      960.18531      0.99696118
     12000  -324.63011      57.459357     -382.08947      305.97498     -1855.6441      960.18531      0.99696118
     13000  -333.11073      50.459407     -383.57014      268.69977      848.52135      960.18531      0.99696118
     14000  -319.82312      48.200092     -368.02321      256.66876     -2960.8221      960.18531      0.99696118
     15000  -315.73126      59.616237     -375.3475       317.46051      2076.5912      960.18531      0.99696118
     16000  -329.39292      52.84857      -382.24149      281.42222     -2694.0602      960.18531      0.99696118
     17000  -323.01522      58.845174     -381.8604       313.35455      2491.2396      960.18531      0.99696118
     18000  -323.43833      52.21722      -375.65555      278.06024     -2463.0344      960.18531      0.99696118
     19000  -312.9843       67.853933     -380.83823      361.3268       38.005254      960.18531      0.99696118
     20000  -329.84884      54.484341     -384.33319      290.13282     -2778.1231      960.18531      0.99696118
     21000  -319.19954      70.430207     -389.62975      375.04563      224.95016      960.18531      0.99696118
     22000  -350.15633      49.548901     -399.70523      263.85126     -726.03519      960.18531      0.99696118
     23000  -318.17741      58.231108     -376.40852      310.0846      -4349.3858      960.18531      0.99696118
     24000  -308.73807      65.652838     -374.39091      349.60582     -1352.263       960.18531      0.99696118
     25000  -316.05898      60.955123     -377.0141       324.59017     -1969.8417      960.18531      0.99696118
     26000  -327.96481      46.319492     -374.2843       246.65444      1429.2281      960.18531      0.99696118
     27000  -316.15014      56.805772     -372.95591      302.49459     -3856.9876      960.18531      0.99696118
     28000  -314.53384      60.192959     -374.7268       320.53159      111.66606      960.18531      0.99696118
     29000  -326.97415      52.304399     -379.27855      278.52448     -5287.2832      960.18531      0.99696118
     30000  -320.40358      61.220456     -381.62404      326.00308      566.18223      960.18531      0.99696118
     31000  -318.20019      63.322109     -381.5223       337.19453      488.41398      960.18531      0.99696118
     32000  -329.73912      58.398236     -388.13736      310.97457     -1907.3736      960.18531      0.99696118
     33000  -318.36594      60.980411     -379.34635      324.72483      448.56361      960.18531      0.99696118
     34000  -312.92531      64.567998     -377.49331      343.82898      3420.1231      960.18531      0.99696118
     35000  -323.92151      54.054903     -377.97642      287.84603     -2429.6373      960.18531      0.99696118
     36000  -308.67051      57.458324     -366.12884      305.96947     -1947.8695      960.18531      0.99696118
     37000  -334.6532       52.627982     -387.28119      280.24758     -1100.4565      960.18531      0.99696118
     38000  -342.92018      55.658631     -398.57881      296.38599     -623.97229      960.18531      0.99696118
     39000  -325.25863      51.841112     -377.09974      276.05744     -4466.168       960.18531      0.99696118
     40000  -337.96836      55.560281     -393.52864      295.86227     -4241.0725      960.18531      0.99696118
     41000  -317.90333      61.050645     -378.95398      325.09883     -4863.139       960.18531      0.99696118
     42000  -318.42354      60.275334     -378.69887      320.97024     -732.21004      960.18531      0.99696118
     43000  -310.04796      64.082085     -374.13004      341.24145      4836.6137      960.18531      0.99696118
     44000  -320.91514      56.183798     -377.09894      299.18254      1819.6207      960.18531      0.99696118
     45000  -318.10223      54.8095       -372.91173      291.86431     -751.32939      960.18531      0.99696118
     46000  -327.33131      61.078996     -388.41031      325.2498       298.90325      960.18531      0.99696118
     47000  -309.4322       59.538575     -368.97078      317.04695      1304.4614      960.18531      0.99696118
     48000  -329.60217      52.478076     -382.08024      279.44931      1568.6473      960.18531      0.99696118
     49000  -345.58924      52.998722     -398.58796      282.22179     -857.65377      960.18531      0.99696118
     50000  -319.1522       59.154473     -378.30667      315.00158     -2746.0227      960.18531      0.99696118
     51000  -334.98895      49.643295     -384.63224      264.35391     -973.13625      960.18531      0.99696118
     52000  -313.78308      59.007637     -372.79072      314.21967     -2433.3633      960.18531      0.99696118
     53000  -339.98349      50.624064     -390.60756      269.57658     -4128.0712      960.18531      0.99696118
     54000  -320.37522      56.177205     -376.55243      299.14743     -647.79719      960.18531      0.99696118
     55000  -317.96444      65.103792     -383.06823      346.68211     -2172.765       960.18531      0.99696118
     56000  -335.36474      46.714066     -382.0788       248.75557     -953.67151      960.18531      0.99696118
     57000  -321.05478      58.976876     -380.03166      314.05587     -1385.1622      960.18531      0.99696118
     58000  -331.35567      55.392922     -386.74859      294.97107     -3264.7459      960.18531      0.99696118
     59000  -339.39131      56.323785     -395.71509      299.92798     -438.80618      960.18531      0.99696118
     60000  -313.73263      63.378163     -377.11079      337.49302      1558.3196      960.18531      0.99696118
     61000  -326.75935      56.359543     -383.1189       300.11839     -3160.7839      960.18531      0.99696118
     62000  -311.06276      50.433989     -361.49675      268.56442     -2609.9714      960.18531      0.99696118
     63000  -335.3515       57.697041     -393.04854      307.24066     -368.81297      960.18531      0.99696118
     64000  -322.62923      51.907483     -374.53671      276.41087      1161.7696      960.18531      0.99696118
     65000  -325.43824      48.492648     -373.93089      258.22664     -335.07836      960.18531      0.99696118
     66000  -331.33633      48.434261     -379.77059      257.91573      5.5715046      960.18531      0.99696118
     67000  -333.05844      55.2786       -388.33704      294.3623      -4350.9804      960.18531      0.99696118
     68000  -306.61037      52.432886     -359.04326      279.20868      3737.9624      960.18531      0.99696118
     69000  -319.66665      64.323029     -383.98968      342.5245      -1654.3646      960.18531      0.99696118
     70000  -302.19487      66.013993     -368.20886      351.529       -498.86942      960.18531      0.99696118
     71000  -335.95677      49.493793     -385.45056      263.55781      549.56901      960.18531      0.99696118
     72000  -321.29944      62.111869     -383.41131      330.74992      6183.1528      960.18531      0.99696118
     73000  -317.07562      54.164515     -371.24013      288.42972      904.53503      960.18531      0.99696118
     74000  -333.68393      57.592804     -391.27673      306.68559      1374.4221      960.18531      0.99696118
     75000  -337.98807      50.35075      -388.33882      268.12116     -3086.9646      960.18531      0.99696118
     76000  -317.37927      59.227907     -376.60717      315.39262     -1464.3615      960.18531      0.99696118
     77000  -323.82477      46.92606      -370.75083      249.88445     -1226.4576      960.18531      0.99696118
     78000  -338.63134      54.642809     -393.27414      290.97667      844.97892      960.18531      0.99696118
     79000  -320.12758      63.558413     -383.686        338.45286      851.2226       960.18531      0.99696118
     80000  -324.95743      58.169741     -383.12717      309.75782     -1706.7634      960.18531      0.99696118
     81000  -318.48834      62.312304     -380.80064      331.81725      4250.9596      960.18531      0.99696118
     82000  -303.64988      69.641543     -373.29143      370.84594      1322.8492      960.18531      0.99696118
     83000  -318.85707      56.844119     -375.70119      302.69879      432.04747      960.18531      0.99696118
     84000  -313.78987      63.738252     -377.52812      339.41052     -55.524148      960.18531      0.99696118
     85000  -304.98373      60.669565     -365.6533       323.06955      1130.1261      960.18531      0.99696118
     86000  -318.81689      56.7301       -375.54699      302.09163      4188.9988      960.18531      0.99696118
     87000  -326.21095      54.750723     -380.96168      291.55132     -3619.6138      960.18531      0.99696118
     88000  -324.56436      50.148057     -374.71242      267.04181      2711.9442      960.18531      0.99696118
     89000  -328.25169      47.299309     -375.551        251.87203     -3108.1019      960.18531      0.99696118
     90000  -301.67208      59.331236     -361.00332      315.94286     -1139.1664      960.18531      0.99696118
     91000  -330.14049      50.865848     -381.00634      270.86409     -1646.4012      960.18531      0.99696118
     92000  -316.47855      63.464003     -379.94256      337.95012      510.62686      960.18531      0.99696118
     93000  -308.90001      61.171197     -370.07121      325.74077      230.55911      960.18531      0.99696118
     94000  -327.56267      46.021238     -373.5839       245.06622     -3757.526       960.18531      0.99696118
     95000  -294.46548      64.050173     -358.51565      341.07152     -1939.8093      960.18531      0.99696118
     96000  -311.56177      58.566619     -370.12839      311.87122     -4533.1336      960.18531      0.99696118
     97000  -304.6901       63.533007     -368.2231       338.31758     -1998.5892      960.18531      0.99696118
     98000  -328.18295      56.700056     -384.88301      301.93165     -2146.2421      960.18531      0.99696118
     99000  -322.09         59.488763     -381.57876      316.7817      -3728.4826      960.18531      0.99696118
    100000  -315.09269      57.553814     -372.6465       306.47797     -797.44647      960.18531      0.99696118
    101000  -310.05279      64.507033     -374.55982      343.50433     -1516.6112      960.18531      0.99696118
    102000  -300.89694      52.322342     -353.21928      278.62002     -2589.6203      960.18531      0.99696118
    103000  -326.01904      54.230292     -380.24933      288.77998      1731.5924      960.18531      0.99696118
    104000  -310.15122      65.039602     -375.19082      346.34029      27.331352      960.18531      0.99696118
    105000  -327.70965      55.329659     -383.03931      294.63419      527.19347      960.18531      0.99696118
    106000  -312.33614      59.276216     -371.61235      315.64987      859.91508      960.18531      0.99696118
    107000  -304.49096      67.872773     -372.36374      361.42713     -4035.5522      960.18531      0.99696118
    108000  -314.77813      56.55858      -371.33671      301.17828     -3160.317       960.18531      0.99696118
    109000  -296.36148      70.904918     -367.2664       377.5735       1424.651       960.18531      0.99696118
    110000  -308.93073      49.899729     -358.83046      265.71944     -753.34292      960.18531      0.99696118
    111000  -337.48601      47.753973     -385.23998      254.29315     -2828.3131      960.18531      0.99696118
    112000  -313.12781      70.464607     -383.59242      375.22882     -698.37481      960.18531      0.99696118
    113000  -323.77216      55.707255     -379.47941      296.64492     -797.43301      960.18531      0.99696118
    114000  -318.63479      63.723625     -382.35841      339.33263     -1466.7718      960.18531      0.99696118
    115000  -319.34323      57.833375     -377.1766       307.96665     -1809.688       960.18531      0.99696118
    116000  -322.73124      41.89821      -364.62945      223.11081     -1339.4777      960.18531      0.99696118
    117000  -301.42635      64.457422     -365.88377      343.24015     -3533.952       960.18531      0.99696118
    118000  -319.71166      58.591756     -378.30341      312.00508     -2525.4572      960.18531      0.99696118
    119000  -304.65781      70.279398     -374.9372       374.24256     -2132.3678      960.18531      0.99696118
    120000  -329.09889      59.097735     -388.19663      314.69945     -1643.3387      960.18531      0.99696118
    121000  -328.02523      47.949277     -375.9745       255.33316     -629.02684      960.18531      0.99696118
    122000  -328.43087      47.440004     -375.87088      252.62124     -107.25691      960.18531      0.99696118
    123000  -317.6334       64.454372     -382.08778      343.22391     -970.06885      960.18531      0.99696118
    124000  -335.44239      58.299019     -393.74141      310.44623     -781.08502      960.18531      0.99696118
    125000  -329.55424      56.638821     -386.19306      301.60557     -731.61847      960.18531      0.99696118
    126000  -329.43299      66.649856     -396.08285      354.91501      1973.0154      960.18531      0.99696118
    127000  -323.82742      55.662712     -379.49014      296.40772     -2018.4504      960.18531      0.99696118
    128000  -323.6817       59.876494     -383.55819      318.84639     -641.58756      960.18531      0.99696118
    129000  -329.06713      50.359884     -379.42702      268.1698       148.02749      960.18531      0.99696118
    130000  -321.2773       46.607517     -367.88481      248.18819     -157.29444      960.18531      0.99696118
    131000  -330.27801      56.171225     -386.44924      299.11559      1039.5967      960.18531      0.99696118
    132000  -317.6675       60.622018     -378.28951      322.81636     -1397.1449      960.18531      0.99696118
    133000  -337.14275      57.943766     -395.08651      308.55449     -1267.8892      960.18531      0.99696118
    134000  -341.366        49.652027     -391.01802      264.40041     -2688.3934      960.18531      0.99696118
    135000  -319.9482       59.007473     -378.95567      314.2188      -2292.5301      960.18531      0.99696118
    136000  -313.83215      58.11592      -371.94807      309.47122     -797.49538      960.18531      0.99696118
    137000  -312.94869      59.245155     -372.19384      315.48447     -80.874154      960.18531      0.99696118
    138000  -332.5869       51.78269      -384.36959      275.74634     -3893.6961      960.18531      0.99696118
    139000  -336.43818      49.798212     -386.23639      265.17886     -591.97413      960.18531      0.99696118
    140000  -319.64484      67.10597      -386.75081      357.34384      335.25535      960.18531      0.99696118
    141000  -299.51309      61.501467     -361.01455      327.49949     -584.30001      960.18531      0.99696118
    142000  -326.05981      59.94852      -386.00833      319.22994      276.42213      960.18531      0.99696118
    143000  -318.67192      52.800382     -371.47231      281.16562      2772.5829      960.18531      0.99696118
    144000  -332.95677      52.748882     -385.70565      280.89138     -1836.1928      960.18531      0.99696118
    145000  -317.87398      57.50079      -375.37477      306.19561     -409.98809      960.18531      0.99696118
    146000  -329.16639      55.811754     -384.97814      297.20138      2045.923       960.18531      0.99696118
    147000  -319.62101      63.229328     -382.85034      336.70047      3905.2758      960.18531      0.99696118
    148000  -326.13013      55.875309     -382.00543      297.53981      1054.2862      960.18531      0.99696118
    149000  -328.63103      52.762735     -381.39377      280.96514     -2098.8246      960.18531      0.99696118
    150000  -316.89061      55.170222     -372.06084      293.78518     -234.4166       960.18531      0.99696118
    151000  -335.65339      53.334554     -388.98794      284.01012      113.56688      960.18531      0.99696118
    152000  -334.39852      49.706437     -384.10495      264.69015     -799.26151      960.18531      0.99696118
    153000  -318.56047      59.062146     -377.62261      314.50994     -2738.4949      960.18531      0.99696118
    154000  -309.89748      66.511729     -376.40921      354.17947     -1051.2153      960.18531      0.99696118
    155000  -320.75958      60.842735     -381.60232      323.99169      2055.1284      960.18531      0.99696118
    156000  -321.9267       59.067413     -380.99411      314.53799      1299.6198      960.18531      0.99696118
    157000  -322.50088      48.764806     -371.26568      259.6759      -245.11403      960.18531      0.99696118
    158000  -314.02568      62.681498     -376.70718      333.78323     -912.49531      960.18531      0.99696118
    159000  -328.7938       55.732423     -384.52623      296.77893     -2198.4973      960.18531      0.99696118
    160000  -319.29515      57.745562     -377.04071      307.49904      2875.2141      960.18531      0.99696118
    161000  -334.57632      55.649985     -390.2263       296.33995     -760.93756      960.18531      0.99696118
    162000  -319.62946      60.779467     -380.40893      323.65479     -378.43139      960.18531      0.99696118
    163000  -328.84303      57.092401     -385.93543      304.02091      3765.9621      960.18531      0.99696118
    164000  -328.41521      56.75655      -385.17177      302.23248     -1400.923       960.18531      0.99696118
    165000  -315.21172      62.947557     -378.15928      335.20001     -1192.3645      960.18531      0.99696118
    166000  -323.22338      56.217233     -379.44061      299.36058      853.97351      960.18531      0.99696118
    167000  -342.54862      54.585488     -397.1341       290.67143     -1687.8739      960.18531      0.99696118
    168000  -335.81766      53.896128     -389.71379      287.00054     -792.03019      960.18531      0.99696118
    169000  -329.71073      60.889779     -390.60051      324.24221     -1854.7696      960.18531      0.99696118
    170000  -321.91335      55.234108     -377.14746      294.12538      4046.6285      960.18531      0.99696118
    171000  -332.19582      51.60605      -383.80187      274.80572     -353.86708      960.18531      0.99696118
    172000  -340.76177      46.087414     -386.84919      245.41861      1199.8934      960.18531      0.99696118
    173000  -329.22449      48.969749     -378.19424      260.76724     -3847.9111      960.18531      0.99696118
    174000  -328.8526       50.761176     -379.61378      270.30671     -337.74033      960.18531      0.99696118
    175000  -336.50519      52.346126     -388.85132      278.74667     -1469.1365      960.18531      0.99696118
    176000  -339.13772      53.097416     -392.23514      282.74735     -2087.623       960.18531      0.99696118
    177000  -331.93241      62.965632     -394.89804      335.29627     -1951.9243      960.18531      0.99696118
    178000  -343.2664       48.398765     -391.66516      257.72671     -2660.3986      960.18531      0.99696118
    179000  -335.77742      62.207747     -397.98517      331.26048      2607.5044      960.18531      0.99696118
    180000  -321.02999      63.966411     -384.99641      340.62548      5050.2009      960.18531      0.99696118
    181000  -336.65676      48.186579     -384.84334      256.5968       3498.3961      960.18531      0.99696118
    182000  -339.72876      56.784171     -396.51293      302.37957     -4482.8278      960.18531      0.99696118
    183000  -328.82053      54.2645       -383.08503      288.96215      2965.3139      960.18531      0.99696118
    184000  -325.60658      49.592135     -375.19872      264.08148      1075.807       960.18531      0.99696118
    185000  -331.89115      53.611816     -385.50296      285.48656      2734.9663      960.18531      0.99696118
    186000  -321.58478      60.865551     -382.45033      324.11319      1836.563       960.18531      0.99696118
    187000  -334.85949      44.928496     -379.78799      239.24729     -177.36135      960.18531      0.99696118
    188000  -318.08012      60.522251     -378.60237      322.2851      -466.89511      960.18531      0.99696118
    189000  -323.04372      49.819197     -372.86292      265.2906      -2120.7634      960.18531      0.99696118
    190000  -340.21714      60.712781     -400.92992      323.29968      200.27155      960.18531      0.99696118
    191000  -330.63631      59.993521     -390.62983      319.46957     -1114.4227      960.18531      0.99696118
    192000  -331.06632      49.363262     -380.42958      262.86272     -3889.3111      960.18531      0.99696118
    193000  -360.09375      37.511769     -397.60552      199.75271      1628.873       960.18531      0.99696118
    194000  -326.89344      51.325712     -378.21916      273.3129      -841.45905      960.18531      0.99696118
    195000  -336.50396      63.71768      -400.22164      339.30097     -648.76483      960.18531      0.99696118
    196000  -339.98933      57.158439     -397.14777      304.37257     -546.10368      960.18531      0.99696118
    197000  -330.13315      60.34044      -390.47359      321.31694      1747.0381      960.18531      0.99696118
    198000  -328.59941      60.306499     -388.90591      321.1362      -1038.0813      960.18531      0.99696118
    199000  -336.26312      51.976176     -388.23929      276.77667     -932.9298       960.18531      0.99696118
    200000  -326.43159      46.624408     -373.056        248.27814      1260.343       960.18531      0.99696118
    201000  -310.8728       58.235123     -369.10792      310.10598     -2098.7219      960.18531      0.99696118
    202000  -340.42992      49.71583      -390.14575      264.74017     -3170.4856      960.18531      0.99696118
    203000  -331.56753      59.892886     -391.46041      318.93369     -230.58781      960.18531      0.99696118
    204000  -322.6257       62.453686     -385.07938      332.57012     -2325.4149      960.18531      0.99696118
    205000  -305.73363      71.458799     -377.19243      380.52295      2152.6566      960.18531      0.99696118
    206000  -330.57408      57.650232     -388.22431      306.9914       1064.9404      960.18531      0.99696118
    207000  -316.3681       63.440096     -379.8082       337.82282      294.39883      960.18531      0.99696118
    208000  -306.20705      56.515205     -362.72226      300.9473      -1178.9012      960.18531      0.99696118
    209000  -326.16037      63.88085      -390.04121      340.16986      947.09455      960.18531      0.99696118
    210000  -338.15908      56.039075     -394.19815      298.41188      2748.903       960.18531      0.99696118
    211000  -319.44087      59.862883     -379.30376      318.77391      546.04068      960.18531      0.99696118
    212000  -311.69969      60.787119     -372.48681      323.69553      4859.962       960.18531      0.99696118
    213000  -331.02075      59.915404     -390.93615      319.05359     -4985.9138      960.18531      0.99696118
    214000  -316.88176      63.786427     -380.66819      339.66705      1306.8556      960.18531      0.99696118
    215000  -328.09044      46.923151     -375.01359      249.86897      228.85491      960.18531      0.99696118
    216000  -316.97959      60.839139     -377.81873      323.97254      101.86943      960.18531      0.99696118
    217000  -343.20818      48.658457     -391.86664      259.10959      421.56334      960.18531      0.99696118
    218000  -327.68275      62.557982     -390.24073      333.1255      -1003.3442      960.18531      0.99696118
    219000  -326.68576      55.658631     -382.34439      296.38599      823.33326      960.18531      0.99696118
    220000  -323.31526      62.05752      -385.37278      330.46051     -2713.0216      960.18531      0.99696118
    221000  -319.45476      59.406928     -378.86169      316.34592      231.39866      960.18531      0.99696118
    222000  -333.06426      57.100231     -390.16449      304.06261      1006.8478      960.18531      0.99696118
    223000  -344.82862      58.713568     -403.54219      312.65374      581.61305      960.18531      0.99696118
    224000  -330.42995      60.910938     -391.34088      324.35488      2149.9772      960.18531      0.99696118
    225000  -330.67443      55.049788     -385.72421      293.14386      526.88253      960.18531      0.99696118
    226000  -303.53904      60.848672     -364.38771      324.02331      2648.8139      960.18531      0.99696118
    227000  -313.89332      54.535967     -368.42928      290.40772     -2520.7854      960.18531      0.99696118
    228000  -320.51828      60.007086     -380.52537      319.54181     -424.02501      960.18531      0.99696118
    229000  -324.26942      58.012555     -382.28198      308.9208      -1312.6977      960.18531      0.99696118
    230000  -321.83002      57.834092     -379.66412      307.97047     -2841.053       960.18531      0.99696118
    231000  -335.86662      49.784828     -385.65145      265.10759     -2289.4749      960.18531      0.99696118
    232000  -318.84497      53.882983     -372.72796      286.93054     -418.52042      960.18531      0.99696118
    233000  -319.97839      59.923462     -379.90186      319.0965       1445.2341      960.18531      0.99696118
    234000  -312.96247      54.987994     -367.95046      292.8148       374.93963      960.18531      0.99696118
    235000  -339.45151      53.218872     -392.67038      283.39411     -380.54423      960.18531      0.99696118
    236000  -323.74292      63.367694     -387.11061      337.43727      2599.7901      960.18531      0.99696118
    237000  -319.27508      64.675417     -383.9505       344.40099      7103.945       960.18531      0.99696118
    238000  -329.51557      54.17465      -383.69023      288.48369     -2446.1869      960.18531      0.99696118
    239000  -336.86195      57.889827     -394.75178      308.26726      2049.507       960.18531      0.99696118
    240000  -334.78827      55.869427     -390.6577       297.50849     -2077.0922      960.18531      0.99696118
    241000  -317.07199      60.481242     -377.55324      322.06672      442.66622      960.18531      0.99696118
    242000  -336.63352      47.99164      -384.62516      255.55874     -24.828112      960.18531      0.99696118
    243000  -319.20696      57.863877     -377.07084      308.12907      1336.2269      960.18531      0.99696118
    244000  -336.11976      60.461757     -396.58151      321.96296      3872.3891      960.18531      0.99696118
    245000  -330.59368      57.174311     -387.768        304.45709      4290.4057      960.18531      0.99696118
    246000  -308.09662      55.553858     -363.65048      295.82807      2120.9354      960.18531      0.99696118
    247000  -336.02717      51.196877     -387.22405      272.62684      1321.079       960.18531      0.99696118
    248000  -338.73467      57.86763      -396.6023       308.14906     -1300.1571      960.18531      0.99696118
    249000  -333.36991      48.53558      -381.90549      258.45526     -1107.8125      960.18531      0.99696118
    250000  -331.10002      54.098805     -385.19883      288.07981      606.2725       960.18531      0.99696118
    251000  -340.5185       58.161674     -398.68018      309.71486      3313.0513      960.18531      0.99696118
    252000  -330.41972      65.117326     -395.53705      346.75418      3186.478       960.18531      0.99696118
    253000  -318.31231      62.854586     -381.1669       334.70493      2081.7297      960.18531      0.99696118
    254000  -328.61497      53.215732     -381.8307       283.37738      3687.9941      960.18531      0.99696118
    255000  -310.33295      71.397131     -381.73008      380.19457     -397.11039      960.18531      0.99696118
    256000  -338.34003      55.033747     -393.37377      293.05844      1963.6853      960.18531      0.99696118
    257000  -337.8925       51.494487     -389.38699      274.21164      517.14131      960.18531      0.99696118
    258000  -335.31945      53.666546     -388.986        285.778       -1631.4192      960.18531      0.99696118
    259000  -327.80323      52.862982     -380.66621      281.49897     -2019.2559      960.18531      0.99696118
    260000  -329.75011      50.424568     -380.17468      268.51425      2368.4066      960.18531      0.99696118
    261000  -326.66742      57.692619     -384.36004      307.21711      4233.3153      960.18531      0.99696118
    262000  -334.79196      51.60648      -386.39844      274.80801     -551.02559      960.18531      0.99696118
    263000  -312.15725      54.610292     -366.76754      290.80351      2665.2092      960.18531      0.99696118
    264000  -319.14342      49.705006     -368.84843      264.68253     -871.14611      960.18531      0.99696118
    265000  -329.7968       54.915741     -384.71254      292.43005     -624.20766      960.18531      0.99696118
    266000  -324.38973      55.400061     -379.78979      295.00908     -337.21068      960.18531      0.99696118
    267000  -338.26135      53.971709     -392.23306      287.40301      3474.1683      960.18531      0.99696118
    268000  -312.98443      57.495813     -370.48024      306.16911     -274.70936      960.18531      0.99696118
    269000  -320.49158      66.397791     -386.88937      353.57274      2268.0155      960.18531      0.99696118
    270000  -332.41606      53.264003     -385.68006      283.63443     -4467.6245      960.18531      0.99696118
    271000  -308.91026      59.240742     -368.151        315.46097      1424.7329      960.18531      0.99696118
    272000  -329.73406      52.58037      -382.31443      279.99404     -3914.2587      960.18531      0.99696118
    273000  -343.659        51.861412     -395.52042      276.16554     -2474.1908      960.18531      0.99696118
    274000  -315.00015      58.241258     -373.24141      310.13865     -477.43637      960.18531      0.99696118
    275000  -333.7821       53.619527     -387.40162      285.52762     -2570.2997      960.18531      0.99696118
    276000  -317.05673      60.50968      -377.56641      322.21815     -254.03806      960.18531      0.99696118
    277000  -331.37963      53.594952     -384.97458      285.39676     -1664.4163      960.18531      0.99696118
    278000  -310.62664      64.032989     -374.65963      340.98002     -3763.9575      960.18531      0.99696118
    279000  -312.39048      65.042526     -377.43301      346.35587      771.95948      960.18531      0.99696118
    280000  -343.82022      47.827061     -391.64728      254.68235     -2499.4311      960.18531      0.99696118
    281000  -330.7874       55.479947     -386.26734      295.43448      763.05224      960.18531      0.99696118
    282000  -320.80586      55.000997     -375.80686      292.88404     -2434.2759      960.18531      0.99696118
    283000  -323.09187      64.387274     -387.47915      342.86661      889.96153      960.18531      0.99696118
    284000  -313.7438       59.399697     -373.1435       316.30742      16.50391       960.18531      0.99696118
    285000  -324.34917      52.450843     -376.80001      279.3043      -4291.3758      960.18531      0.99696118
    286000  -341.96008      59.331318     -401.2914       315.9433      -4501.4989      960.18531      0.99696118
    287000  -340.50705      53.972944     -394.48         287.40959     -1225.1137      960.18531      0.99696118
    288000  -322.56756      58.567078     -381.13464      311.87366      4587.6782      960.18531      0.99696118
    289000  -326.34211      53.546356     -379.88847      285.13798      2534.4547      960.18531      0.99696118
    290000  -327.76437      53.39922      -381.16359      284.35447     -212.30118      960.18531      0.99696118
    291000  -326.30187      52.574521     -378.87639      279.96289      514.62781      960.18531      0.99696118
    292000  -314.67789      61.392906     -376.07079      326.92139      1.9806537      960.18531      0.99696118
    293000  -323.43239      56.617462     -380.04985      301.49183      2029.4116      960.18531      0.99696118
    294000  -328.69387      57.920033     -386.6139       308.42811      181.0763       960.18531      0.99696118
    295000  -326.44641      54.344245     -380.79065      289.38679     -2890.9617      960.18531      0.99696118
    296000  -321.45938      56.19446      -377.65384      299.23931      1260.1907      960.18531      0.99696118
    297000  -312.3111       59.819376     -372.13048      318.54224     -245.9091       960.18531      0.99696118
    298000  -299.81325      59.377915     -359.19116      316.19143     -3835.2629      960.18531      0.99696118
    299000  -339.5717       48.715112     -388.28682      259.41128     -4282.6699      960.18531      0.99696118
    300000  -326.40203      60.250392     -386.65242      320.83743      2606.6339      960.18531      0.99696118
    301000  -331.15788      48.549156     -379.70704      258.52755     -2437.3958      960.18531      0.99696118
    302000  -326.95597      69.013758     -395.96973      367.50295      2441.3885      960.18531      0.99696118
    303000  -340.10593      51.855295     -391.96123      276.13297     -2529.7322      960.18531      0.99696118
    304000  -319.70925      52.899486     -372.60873      281.69335      1242.2747      960.18531      0.99696118
    305000  -325.74312      50.074481     -375.8176       266.65001      2992.9051      960.18531      0.99696118
    306000  -333.9691       55.155119     -389.12422      293.70476     -1902.9403      960.18531      0.99696118
    307000  -336.11507      49.120337     -385.23541      261.56913     -774.1552       960.18531      0.99696118
    308000  -335.84969      56.380716     -392.2304       300.23114     -2304.0175      960.18531      0.99696118
    309000  -317.9687       61.108302     -379.077        325.40586     -1758.1371      960.18531      0.99696118
    310000  -314.38444      67.923464     -382.30791      361.69706     -5026.051       960.18531      0.99696118
    311000  -326.96012      57.06033      -384.02045      303.85013      361.24749      960.18531      0.99696118
    312000  -291.1292       71.057603     -362.1868       378.38656     -67.719647      960.18531      0.99696118
    313000  -321.69562      50.453437     -372.14906      268.66797     -2949.2821      960.18531      0.99696118
    314000  -322.21252      49.933014     -372.14554      265.89669     -3105.2407      960.18531      0.99696118
    315000  -309.83811      57.229001     -367.06711      304.74831     -1328.897       960.18531      0.99696118
    316000  -316.19025      62.124489     -378.31474      330.81712     -1368.9215      960.18531      0.99696118
    317000  -298.20434      60.266939     -358.47128      320.92554     -1095.7049      960.18531      0.99696118
    318000  -319.19468      52.316994     -371.51167      278.59155     -2573.2826      960.18531      0.99696118
    319000  -313.00477      55.003814     -368.00859      292.89905      104.77161      960.18531      0.99696118
    320000  -319.32916      56.259416     -375.58857      299.58521     -3300.6023      960.18531      0.99696118
    321000  -331.6929       60.671272     -392.36418      323.07864     -572.91368      960.18531      0.99696118
    322000  -338.78103      48.43575      -387.21678      257.92365     -1545.3754      960.18531      0.99696118
    323000  -313.27655      61.753703     -375.03026      328.84266      2218.8547      960.18531      0.99696118
    324000  -322.91438      52.921983     -375.83636      281.81315      944.6377       960.18531      0.99696118
    325000  -335.90452      43.865838     -379.77036      233.58857      447.74353      960.18531      0.99696118
    326000  -332.18183      50.874506     -383.05633      270.9102      -1970.972       960.18531      0.99696118
    327000  -330.92316      62.957352     -393.88051      335.25217     -2836.5763      960.18531      0.99696118
    328000  -324.8693       48.639438     -373.50874      259.00831     -243.36382      960.18531      0.99696118
    329000  -344.93442      50.128785     -395.06321      266.93918     -3061.978       960.18531      0.99696118
    330000  -323.25724      57.238189     -380.49543      304.79724      1241.1673      960.18531      0.99696118
    331000  -326.84426      50.819497     -377.66376      270.61727     -2976.9642      960.18531      0.99696118
    332000  -328.27053      51.80512      -380.07565      275.86578     -2731.0157      960.18531      0.99696118
    333000  -342.57161      52.726158     -395.29777      280.77037     -44.330384      960.18531      0.99696118
    334000  -342.31955      62.561387     -404.88094      333.14363     -1105.4998      960.18531      0.99696118
    335000  -322.51045      59.141639     -381.65209      314.93324     -2549.2753      960.18531      0.99696118
    336000  -354.29406      51.386309     -405.68037      273.63558     -1755.5161      960.18531      0.99696118
    337000  -319.11186      57.104901     -376.21676      304.08747     -1750.1397      960.18531      0.99696118
    338000  -333.07346      67.164514     -400.23797      357.6556      -519.50739      960.18531      0.99696118
    339000  -321.88131      61.601064     -383.48237      328.02985      77.173573      960.18531      0.99696118
    340000  -329.4261       49.388718     -378.81481      262.99828     -2112.6647      960.18531      0.99696118
    341000  -325.9889       59.070015     -385.05892      314.55184     -2583.7114      960.18531      0.99696118
    342000  -321.90185      62.563867     -384.46571      333.15684      3188.1658      960.18531      0.99696118
    343000  -324.57625      57.821058     -382.39731      307.90106     -979.67662      960.18531      0.99696118
    344000  -325.01031      55.348925     -380.35923      294.73678     -3232.8974      960.18531      0.99696118
    345000  -327.72485      59.559403     -387.28426      317.15786     -1302.8609      960.18531      0.99696118
    346000  -326.08266      59.787764     -385.87043      318.3739       5053.8561      960.18531      0.99696118
    347000  -335.49676      58.394492     -393.89125      310.95463     -585.49252      960.18531      0.99696118
    348000  -343.46581      59.327025     -402.79284      315.92043     -346.76108      960.18531      0.99696118
    349000  -333.813        57.055725     -390.86872      303.82561     -820.54076      960.18531      0.99696118
    350000  -339.22512      52.57613      -391.80125      279.97146     -2551.8423      960.18531      0.99696118
    351000  -339.17056      56.645235     -395.8158       301.63972     -2665.0796      960.18531      0.99696118
    352000  -332.83914      62.727175     -395.56631      334.02647     -2186.1417      960.18531      0.99696118
    353000  -315.05134      61.383183     -376.43452      326.86962      1127.1808      960.18531      0.99696118
    354000  -336.80631      51.297559     -388.10387      273.16298     -1843.9882      960.18531      0.99696118
    355000  -319.79406      59.376043     -379.1701       316.18146      2740.8503      960.18531      0.99696118
    356000  -305.87024      60.72368      -366.59392      323.35772      1904.5743      960.18531      0.99696118
    357000  -324.97255      59.935663     -384.90821      319.16147     -853.61755      960.18531      0.99696118
    358000  -308.3487       55.652359     -364.00106      296.35259     -905.31912      960.18531      0.99696118
    359000  -327.3207       53.882833     -381.20353      286.92974      2989.8968      960.18531      0.99696118
    360000  -316.69733      60.558287     -377.25561      322.47699     -215.42913      960.18531      0.99696118
    361000  -315.38315      60.602829     -375.98598      322.71418      2842.7191      960.18531      0.99696118
    362000  -330.13761      45.324036     -375.46164      241.35357     -3058.8561      960.18531      0.99696118
    363000  -326.55618      57.785017     -384.3412       307.70914      1767.3885      960.18531      0.99696118
    364000  -315.59168      55.57179      -371.16347      295.92355     -2538.6662      960.18531      0.99696118
    365000  -331.21854      48.621064     -379.8396       258.91047     -2808.6216      960.18531      0.99696118
    366000  -323.6363       62.286337     -385.92264      331.67898      601.46501      960.18531      0.99696118
    367000  -333.32493      47.571625     -380.89656      253.32214      1717.1275      960.18531      0.99696118
    368000  -330.61701      56.357653     -386.97466      300.10833      493.89983      960.18531      0.99696118
    369000  -328.25024      55.421376     -383.67161      295.12259      1044.3639      960.18531      0.99696118
    370000  -326.75335      54.601274     -381.35462      290.75549     -2119.9635      960.18531      0.99696118
    371000  -338.04978      57.880897     -395.93067      308.21971     -3315.6353      960.18531      0.99696118
    372000  -324.71659      62.261957     -386.97854      331.54915     -904.78511      960.18531      0.99696118
    373000  -315.35409      60.154075     -375.50817      320.32453     -909.13382      960.18531      0.99696118
    374000  -331.01815      48.364176     -379.38233      257.54252     -4267.076       960.18531      0.99696118
    375000  -333.85159      48.94491      -382.7965       260.63497      1394.3015      960.18531      0.99696118
    376000  -339.67754      62.085309     -401.76285      330.60849     -799.70932      960.18531      0.99696118
    377000  -336.25973      54.696563     -390.9563       291.26291      4003.1026      960.18531      0.99696118
    378000  -337.07143      60.488431     -397.55986      322.105       -1383.9654      960.18531      0.99696118
    379000  -323.94656      61.188255     -385.13481      325.83161     -482.37695      960.18531      0.99696118
    380000  -318.51312      66.562078     -385.0752       354.44758     -329.47884      960.18531      0.99696118
    381000  -318.82462      52.923531     -371.74816      281.8214      -1652.5978      960.18531      0.99696118
    382000  -334.26198      54.118408     -388.38039      288.1842       114.73871      960.18531      0.99696118
    383000  -326.4656       54.742752     -381.20836      291.50887      4264.1848      960.18531      0.99696118
    384000  -340.9226       46.905951     -387.82855      249.77737     -2250.6015      960.18531      0.99696118
    385000  -304.4048       58.913579     -363.31838      313.71881     -3738.6281      960.18531      0.99696118
    386000  -327.63304      49.37246      -377.0055       262.9117      -3736.8684      960.18531      0.99696118
    387000  -311.80254      72.032152     -383.83469      383.5761      -89.594428      960.18531      0.99696118
    388000  -335.27265      46.556319     -381.82897      247.91556     -1995.6844      960.18531      0.99696118
    389000  -318.4118       60.330594     -378.74239      321.26451     -5911.3707      960.18531      0.99696118
    390000  -338.663        53.783676     -392.44668      286.40173     -463.8474       960.18531      0.99696118
    391000  -308.34139      73.307561     -381.64895      390.36774      2341.2091      960.18531      0.99696118
    392000  -319.14715      61.464255     -380.61141      327.30133     -1611.5891      960.18531      0.99696118
    393000  -310.67661      64.37675      -375.05336      342.81056      521.26849      960.18531      0.99696118
    394000  -333.02975      49.959695     -382.98945      266.03877     -2776.0832      960.18531      0.99696118
    395000  -315.57086      56.960855     -372.53172      303.32042      215.70933      960.18531      0.99696118
    396000  -333.34338      60.120379     -393.46376      320.1451      -1150.7997      960.18531      0.99696118
    397000  -300.62542      68.523067     -369.14849      364.88998      670.8367       960.18531      0.99696118
    398000  -316.1372       52.541751     -368.67895      279.78839      493.67386      960.18531      0.99696118
    399000  -312.1055       71.294045     -383.39955      379.64563      1703.0922      960.18531      0.99696118
    400000  -318.16618      59.311115     -377.4773       315.83571     -2795.9939      960.18531      0.99696118
    401000  -340.08303      41.385146     -381.46818      220.37871      865.91544      960.18531      0.99696118
    402000  -329.61546      52.450194     -382.06566      279.30084      2150.6443      960.18531      0.99696118
    403000  -312.49083      68.374599     -380.86543      364.09938     -2462.7673      960.18531      0.99696118
    404000  -317.69357      59.357371     -377.05094      316.08203      1251.416       960.18531      0.99696118
    405000  -325.7446       58.152434     -383.89703      309.66566     -5448.5336      960.18531      0.99696118
    406000  -320.40728      54.852703     -375.25998      292.09437     -3876.2992      960.18531      0.99696118
    407000  -312.67302      53.738441     -366.41146      286.16084      927.2738       960.18531      0.99696118
    408000  -332.91241      53.53544      -386.44785      285.07985      2169.7425      960.18531      0.99696118
    409000  -311.53262      59.890352     -371.42297      318.92019     -4867.1911      960.18531      0.99696118
    410000  -285.87949      62.507875     -348.38736      332.85868      4939.3638      960.18531      0.99696118
    411000  -326.60771      54.121251     -380.72896      288.19933      624.31213      960.18531      0.99696118
    412000  -321.92915      50.409037     -372.33818      268.43154     -2493.3223      960.18531      0.99696118
    413000  -327.01579      61.344067     -388.35986      326.66132      618.56371      960.18531      0.99696118
    414000  -332.0905       59.088599     -391.17909      314.6508      -277.31832      960.18531      0.99696118
    415000  -317.22115      59.463589     -376.68474      316.64765     -566.13399      960.18531      0.99696118
    416000  -336.24455      42.396014     -378.64056      225.76165     -938.66991      960.18531      0.99696118
    417000  -333.49041      59.353693     -392.84411      316.06244     -300.34425      960.18531      0.99696118
    418000  -319.90202      61.667794     -381.56982      328.38519     -849.99503      960.18531      0.99696118
    419000  -309.73706      62.040711     -371.77777      330.371       -4122.0084      960.18531      0.99696118
    420000  -343.33452      52.541585     -395.8761       279.78751      3467.5382      960.18531      0.99696118
    421000  -334.87583      44.844568     -379.7204       238.80037     -1269.7191      960.18531      0.99696118
    422000  -323.45893      57.817697     -381.27663      307.88316      422.12356      960.18531      0.99696118
    423000  -318.38106      47.944547     -366.32561      255.30797      291.57448      960.18531      0.99696118
    424000  -332.46831      54.91256      -387.38087      292.41311     -1167.3843      960.18531      0.99696118
    425000  -327.24447      71.763162     -399.00763      382.14371     -1879.5121      960.18531      0.99696118
    426000  -333.91006      58.293134     -392.20319      310.4149      -606.18292      960.18531      0.99696118
    427000  -321.8217       57.39733      -379.21903      305.64468     -38.674477      960.18531      0.99696118
    428000  -315.662        61.029064     -376.69106      324.98391     -1527.1218      960.18531      0.99696118
    429000  -335.2769       58.714619     -393.99152      312.65933      1110.763       960.18531      0.99696118
    430000  -335.50847      52.674251     -388.18272      280.49396     -1270.6235      960.18531      0.99696118
    431000  -302.5595       59.822372     -362.38187      318.55819      2721.5274      960.18531      0.99696118
    432000  -318.06982      62.939961     -381.00978      335.15957      135.10684      960.18531      0.99696118
    433000  -320.34667      54.04445      -374.39112      287.79037     -1939.2473      960.18531      0.99696118
    434000  -324.85205      62.482126     -387.33418      332.72156     -1995.4628      960.18531      0.99696118
    435000  -303.69486      64.458096     -368.15295      343.24374     -3372.2266      960.18531      0.99696118
    436000  -342.05977      55.751493     -397.81127      296.88049     -4026.93        960.18531      0.99696118
    437000  -334.34976      53.041136     -387.3909       282.44765     -2845.1491      960.18531      0.99696118
    438000  -309.20592      67.623404     -376.82933      360.09922     -1057.7607      960.18531      0.99696118
    439000  -344.9901       55.441104     -400.43121      295.22764     -992.49388      960.18531      0.99696118
    440000  -343.18295      49.460826     -392.64377      263.38225     -3720.6863      960.18531      0.99696118
    441000  -330.15015      51.695347     -381.8455       275.28123     -2576.684       960.18531      0.99696118
    442000  -320.05134      58.916777     -378.96812      313.73584     -1131.0701      960.18531      0.99696118
    443000  -333.76264      54.008122     -387.77076      287.59692     -839.43244      960.18531      0.99696118
    444000  -336.77882      58.147734     -394.92655      309.64063      600.5341       960.18531      0.99696118
    445000  -353.53051      45.597214     -399.12772      242.80826      1759.3226      960.18531      0.99696118
    446000  -328.38976      55.767851     -384.15761      296.96759     -1861.9666      960.18531      0.99696118
    447000  -335.02622      51.806081     -386.8323       275.8709      -3793.4765      960.18531      0.99696118
    448000  -315.20859      60.915012     -376.12361      324.37658     -731.63007      960.18531      0.99696118
    449000  -327.19337      41.872734     -369.0661       222.97515     -2031.5733      960.18531      0.99696118
    450000  -319.15264      53.315036     -372.46767      283.90618      27.293267      960.18531      0.99696118
    451000  -338.40275      50.196435     -388.59918      267.29942     -435.83882      960.18531      0.99696118
    452000  -316.60895      57.315534     -373.92448      305.20911     -4405.8593      960.18531      0.99696118
    453000  -322.23208      54.905094     -377.13717      292.37335      719.94456      960.18531      0.99696118
    454000  -344.96456      47.413129     -392.37769      252.47813     -671.36582      960.18531      0.99696118
    455000  -331.54611      54.285651     -385.83176      289.07478     -5868.1054      960.18531      0.99696118
    456000  -321.3617       49.64765      -371.00935      264.3771      -70.913241      960.18531      0.99696118
    457000  -331.38049      61.766657     -393.14715      328.91164     -1449.78        960.18531      0.99696118
    458000  -318.9711       58.87673      -377.84783      313.52258     -1063.4952      960.18531      0.99696118
    459000  -318.90898      62.676979     -381.58595      333.75917      2272.2038      960.18531      0.99696118
    460000  -326.70841      54.961482     -381.66989      292.67363      1592.8479      960.18531      0.99696118
    461000  -307.3266       61.056871     -368.38347      325.13198      1868.6447      960.18531      0.99696118
    462000  -322.44176      61.567801     -384.00956      327.85272     -154.77663      960.18531      0.99696118
    463000  -343.56538      53.745175     -397.31056      286.1967      -2350.0607      960.18531      0.99696118
    464000  -328.6523       55.279448     -383.93175      294.36681      1812.6983      960.18531      0.99696118
    465000  -331.34         54.955992     -386.29599      292.64439      2863.4725      960.18531      0.99696118
    466000  -327.13214      54.933056     -382.0652       292.52225      132.20151      960.18531      0.99696118
    467000  -340.05661      52.737279     -392.79389      280.82959      2230.8874      960.18531      0.99696118
    468000  -321.11226      60.415455     -381.52772      321.7164       1056.1196      960.18531      0.99696118
    469000  -354.38102      56.91371      -411.29473      303.06937      1544.013       960.18531      0.99696118
    470000  -324.59929      57.861418     -382.46071      308.11598      1053.3727      960.18531      0.99696118
    471000  -326.95558      53.652302     -380.60788      285.70215      602.24279      960.18531      0.99696118
    472000  -327.79645      55.168989     -382.96544      293.77861     -39.923808      960.18531      0.99696118
    473000  -321.97154      53.998733     -375.97027      287.54692      689.4416       960.18531      0.99696118
    474000  -345.44862      52.203942     -397.65256      277.98953      1074.7546      960.18531      0.99696118
    475000  -330.77731      57.289478     -388.06679      305.07036     -625.8502       960.18531      0.99696118
    476000  -342.32193      51.644441     -393.96637      275.01015      201.16808      960.18531      0.99696118
    477000  -319.20184      61.638229     -380.84007      328.22776     -828.0435       960.18531      0.99696118
    478000  -305.26603      69.768645     -375.03468      371.52277     -4705.0824      960.18531      0.99696118
    479000  -335.41951      54.605448     -390.02495      290.77772     -954.193        960.18531      0.99696118
    480000  -331.20446      53.233248     -384.43771      283.47066     -1536.4654      960.18531      0.99696118
    481000  -338.31975      57.582923     -395.90268      306.63298     -3660.1509      960.18531      0.99696118
    482000  -319.38483      52.070473     -371.45531      277.2788      -2598.0099      960.18531      0.99696118
    483000  -339.83075      47.899368     -387.73012      255.06739      1963.663       960.18531      0.99696118
    484000  -328.95776      59.06471      -388.02247      314.52359      1102.0508      960.18531      0.99696118
    485000  -322.545        51.612214     -374.15722      274.83854      1677.7719      960.18531      0.99696118
    486000  -330.16138      64.916281     -395.07766      345.6836      -2504.5721      960.18531      0.99696118
    487000  -309.70395      51.2214       -360.92535      272.75743     -1099.6742      960.18531      0.99696118
    488000  -323.77077      50.577293     -374.34806      269.32752     -1905.0675      960.18531      0.99696118
    489000  -313.79212      54.523488     -368.31561      290.34127     -7149.9408      960.18531      0.99696118
    490000  -322.34982      62.691736     -385.04156      333.83775     -982.53274      960.18531      0.99696118
    491000  -349.16818      48.896777     -398.06496      260.37866     -650.59495      960.18531      0.99696118
    492000  -321.71232      59.422433     -381.13475      316.42849      3376.7892      960.18531      0.99696118
    493000  -335.69002      49.096685     -384.7867       261.44318      1956.7342      960.18531      0.99696118
    494000  -308.14727      56.501739     -364.64901      300.8756      -1926.2836      960.18531      0.99696118
    495000  -335.46662      48.001        -383.46762      255.60859      1590.5765      960.18531      0.99696118
    496000  -327.81303      51.831596     -379.64462      276.00677     -3582.2268      960.18531      0.99696118
    497000  -316.37652      60.024323     -376.40084      319.6336       1085.0463      960.18531      0.99696118
    498000  -314.19263      55.803638     -369.99627      297.15816     -2717.1331      960.18531      0.99696118
    499000  -314.83856      55.920933     -370.75949      297.78277     -497.12343      960.18531      0.99696118
    500000  -327.674        57.977832     -385.65184      308.73589      3733.2134      960.18531      0.99696118
    501000  -316.0415       66.72427      -382.76577      355.31127     -1341.9451      960.18531      0.99696118
    502000  -340.85692      58.201415     -399.05834      309.92649     -479.84332      960.18531      0.99696118
    503000  -322.3438       63.307814     -385.65161      337.11841      1577.6709      960.18531      0.99696118
    504000  -298.87645      57.247648     -356.1241       304.84761     -4428.9531      960.18531      0.99696118
    505000  -317.53225      58.311586     -375.84383      310.51315      4218.9282      960.18531      0.99696118
    506000  -303.67021      66.249612     -369.91982      352.78368      1543.8691      960.18531      0.99696118
    507000  -324.58839      54.17675      -378.76514      288.49487     -3377.617       960.18531      0.99696118
    508000  -315.00298      59.074234     -374.07721      314.57431     -271.28385      960.18531      0.99696118
    509000  -323.94524      53.884975     -377.83021      286.94115     -1905.3177      960.18531      0.99696118
    510000  -317.62901      61.78164      -379.41065      328.99143      421.42751      960.18531      0.99696118
    511000  -310.91944      55.123622     -366.04306      293.53703     -2530.3321      960.18531      0.99696118
    512000  -342.13264      44.277987     -386.41062      235.78329      2850.8816      960.18531      0.99696118
    513000  -320.7746       57.158632     -377.93323      304.3736       1868.7922      960.18531      0.99696118
    514000  -322.70492      57.886643     -380.59156      308.2503       4273.0583      960.18531      0.99696118
    515000  -322.91781      56.661166     -379.57898      301.72456     -2125.4449      960.18531      0.99696118
    516000  -332.3569       54.665055     -387.02195      291.09513     -64.232013      960.18531      0.99696118
    517000  -329.02147      52.355955     -381.37742      278.79902     -1934.1792      960.18531      0.99696118
    518000  -328.13649      42.93         -371.06649      228.60517     -3659.5363      960.18531      0.99696118
    519000  -320.45682      63.67835      -384.13517      339.09154      110.29803      960.18531      0.99696118
    520000  -329.56482      56.995729     -386.56055      303.50612      715.22122      960.18531      0.99696118
    521000  -325.51138      55.609308     -381.12069      296.12334     -2349.3612      960.18531      0.99696118
    522000  -329.44335      62.782228     -392.22558      334.31962      112.48374      960.18531      0.99696118
    523000  -334.45806      59.307397     -393.76546      315.81591      1742.2767      960.18531      0.99696118
    524000  -351.4412       43.839368     -395.28057      233.44761      3202.4116      960.18531      0.99696118
    525000  -335.20083      56.366801     -391.56763      300.15704      3058.0323      960.18531      0.99696118
    526000  -323.05147      59.044383     -382.09586      314.41535     -2545.0107      960.18531      0.99696118
    527000  -323.19181      58.910033     -382.10184      313.69993     -1457.975       960.18531      0.99696118
    528000  -320.99965      61.553045     -382.55269      327.77414      3784.9642      960.18531      0.99696118
    529000  -308.96135      53.073502     -362.03485      282.62         901.99951      960.18531      0.99696118
    530000  -333.62317      61.895221     -395.51839      329.59625      3535.9109      960.18531      0.99696118
    531000  -330.95882      56.687137     -387.64596      301.86285      406.15169      960.18531      0.99696118
    532000  -316.99066      62.266373     -379.25703      331.57266      1521.1072      960.18531      0.99696118
    533000  -314.32481      71.206147     -385.53095      379.17757     -3122.7704      960.18531      0.99696118
    534000  -334.04813      48.947109     -382.99524      260.64668     -3354.9754      960.18531      0.99696118
    535000  -324.64816      50.227508     -374.87567      267.46489      1739.742       960.18531      0.99696118
    536000  -309.86929      58.287428     -368.15671      310.38451      3290.7996      960.18531      0.99696118
    537000  -307.87104      67.303881     -375.17492      358.39773     -976.09854      960.18531      0.99696118
    538000  -326.15941      52.990095     -379.1495       282.17585      4774.1332      960.18531      0.99696118
    539000  -320.29131      55.225455     -375.51677      294.0793      -1343.2822      960.18531      0.99696118
    540000  -314.55337      66.106996     -380.66036      352.02424      3422.689       960.18531      0.99696118
    541000  -313.24336      57.248302     -370.49166      304.8511      -5279.9668      960.18531      0.99696118
    542000  -329.30217      49.629083     -378.93126      264.27823     -793.65915      960.18531      0.99696118
    543000  -336.55483      57.739881     -394.29471      307.46879     -825.72042      960.18531      0.99696118
    544000  -329.19934      60.157721     -389.35706      320.34395      2463.9109      960.18531      0.99696118
    545000  -350.85595      49.178278     -400.03423      261.87767      884.14184      960.18531      0.99696118
    546000  -344.66669      53.840372     -398.50706      286.70363      2696.9382      960.18531      0.99696118
    547000  -338.5314       45.161907     -383.69331      240.49022      315.59815      960.18531      0.99696118
    548000  -320.4611       58.705564     -379.16666      312.61112      780.57494      960.18531      0.99696118
    549000  -338.48551      47.843069     -386.32858      254.76759     -1214.4234      960.18531      0.99696118
    550000  -331.94877      63.005102     -394.95387      335.50645     -318.06272      960.18531      0.99696118
    551000  -319.921        74.387409     -394.30841      396.118       -1502.6521      960.18531      0.99696118
    552000  -327.577        61.222154     -388.79915      326.01212     -1665.1212      960.18531      0.99696118
    553000  -310.01442      58.365571     -368.37999      310.80063      2572.5008      960.18531      0.99696118
    554000  -317.70808      61.648706     -379.35679      328.28354     -2596.2607      960.18531      0.99696118
    555000  -331.83893      52.438773     -384.2777       279.24003      120.12745      960.18531      0.99696118
    556000  -319.57997      60.366167     -379.94614      321.45394     -5554.7215      960.18531      0.99696118
    557000  -330.52975      44.911904     -375.44166      239.15894      1990.73        960.18531      0.99696118
    558000  -332.33176      61.580657     -393.91241      327.92118     -442.64577      960.18531      0.99696118
    559000  -319.2822       51.990478     -371.27268      276.85283     -2308.3234      960.18531      0.99696118
    560000  -325.15435      53.802774     -378.95712      286.50342     -3329.6347      960.18531      0.99696118
    561000  -337.4002       54.562852     -391.96305      290.55089     -2895.9675      960.18531      0.99696118
    562000  -334.08177      49.968857     -384.05063      266.08756     -2721.5618      960.18531      0.99696118
    563000  -334.73954      56.148342     -390.88788      298.99373     -1895.0555      960.18531      0.99696118
    564000  -325.62487      52.585078     -378.20995      280.01911      1331.2865      960.18531      0.99696118
    565000  -340.53027      54.865681     -395.39595      292.16348     -4479.2337      960.18531      0.99696118
    566000  -325.90189      45.788979     -371.69087      243.82942     -1056.4921      960.18531      0.99696118
    567000  -329.27712      53.455166     -382.73229      284.65239     -1889.6495      960.18531      0.99696118
    568000  -340.43211      49.689782     -390.12189      264.60146     -1638.6197      960.18531      0.99696118
    569000  -323.28311      52.89447      -376.17758      281.66664     -2682.2493      960.18531      0.99696118
    570000  -332.48138      51.957975     -384.43936      276.67974     -1123.829       960.18531      0.99696118
    571000  -338.28818      53.402831     -391.69101      284.3737      -1068.796       960.18531      0.99696118
    572000  -330.48898      52.682963     -383.17194      280.54035     -2803.7485      960.18531      0.99696118
    573000  -324.80789      54.071671     -378.87956      287.93532      3565.6415      960.18531      0.99696118
    574000  -322.10044      73.668639     -395.76908      392.2905       1298.7256      960.18531      0.99696118
    575000  -325.31692      53.493673     -378.81059      284.85744     -560.04348      960.18531      0.99696118
    576000  -321.99208      59.332378     -381.32446      315.94894      1381.5759      960.18531      0.99696118
    577000  -322.24756      48.520223     -370.76778      258.37348      1139.7425      960.18531      0.99696118
    578000  -322.92576      61.110961     -384.03672      325.42001     -5253.9755      960.18531      0.99696118
    579000  -322.72109      60.907689     -383.62878      324.33758     -937.46284      960.18531      0.99696118
    580000  -329.8256       49.765267     -379.59087      265.00343      2503.1809      960.18531      0.99696118
    581000  -309.32733      61.892869     -371.2202       329.58373     -698.22047      960.18531      0.99696118
    582000  -322.1734       55.517162     -377.69056      295.63265     -619.24175      960.18531      0.99696118
    583000  -337.41957      49.899441     -387.31901      265.71791      562.90411      960.18531      0.99696118
    584000  -344.70836      46.721552     -391.42991      248.79543     -869.03031      960.18531      0.99696118
    585000  -323.38428      58.724998     -382.10928      312.7146       2097.0995      960.18531      0.99696118
    586000  -336.04548      54.338139     -390.38362      289.35428     -938.26268      960.18531      0.99696118
    587000  -319.13922      57.002939     -376.14216      303.54452     -2599.0998      960.18531      0.99696118
    588000  -306.05523      60.801983     -366.85721      323.77469      137.29068      960.18531      0.99696118
    589000  -326.04343      48.670208     -374.71364      259.17216     -618.13294      960.18531      0.99696118
    590000  -319.33692      56.134246     -375.47116      298.91867     -1318.9519      960.18531      0.99696118
    591000  -324.39128      56.333613     -380.72489      299.98031     -349.57368      960.18531      0.99696118
    592000  -307.558        60.140232     -367.69823      320.25082     -414.33562      960.18531      0.99696118
    593000  -354.47359      44.172645     -398.64624      235.22233     -1858.3292      960.18531      0.99696118
    594000  -326.81896      55.445605     -382.26457      295.25161      130.73252      960.18531      0.99696118
    595000  -334.39376      60.963253     -395.35701      324.63346     -3845.9134      960.18531      0.99696118
    596000  -316.68426      59.561255     -376.24551      317.16773      49.034666      960.18531      0.99696118
    597000  -324.69265      58.658455     -383.3511       312.36025     -1453.887       960.18531      0.99696118
    598000  -330.80759      54.074855     -384.88245      287.95227     -2015.6521      960.18531      0.99696118
    599000  -310.93507      48.389943     -359.32502      257.67973     -2340.4039      960.18531      0.99696118
    600000  -320.78298      50.420013     -371.20299      268.48999     -2780.2493      960.18531      0.99696118
    601000  -332.98794      49.606354     -382.5943       264.1572       895.52295      960.18531      0.99696118
    602000  -301.18715      67.574329     -368.76148      359.83789      4132.6894      960.18531      0.99696118
    603000  -319.96578      55.506735     -375.47252      295.57713      213.1541       960.18531      0.99696118
    604000  -331.99182      52.171589     -384.16341      277.81725      386.67941      960.18531      0.99696118
    605000  -343.65989      48.054541     -391.71443      255.89369     -2327.1853      960.18531      0.99696118
    606000  -322.4852       65.651754     -388.13696      349.60005      3017.3656      960.18531      0.99696118
    607000  -325.0159       52.046393     -377.06229      277.15057     -1364.6208      960.18531      0.99696118
    608000  -341.68082      63.134442     -404.81526      336.19519      1527.6805      960.18531      0.99696118
    609000  -303.76972      73.301557     -377.07128      390.33577     -3599.4172      960.18531      0.99696118
    610000  -325.66385      54.06878      -379.73263      287.91992     -1855.3999      960.18531      0.99696118
    611000  -317.84765      60.055141     -377.90279      319.7977      -3266.5817      960.18531      0.99696118
    612000  -317.70649      54.186811     -371.8933       288.54844      3510.0029      960.18531      0.99696118
    613000  -326.69314      52.850352     -379.5435       281.43171      717.21103      960.18531      0.99696118
    614000  -330.49192      52.55904      -383.05096      279.88046     -1775.1501      960.18531      0.99696118
    615000  -324.68702      54.439238     -379.12626      289.89264      1673.1234      960.18531      0.99696118
    616000  -327.84275      59.429223     -387.27198      316.46465     -2557.0759      960.18531      0.99696118
    617000  -329.92279      49.632186     -379.55497      264.29476     -115.51189      960.18531      0.99696118
    618000  -325.7243       54.712431     -380.43673      291.34741      208.57604      960.18531      0.99696118
    619000  -338.82813      56.232076     -395.0602       299.43962     -2021.6889      960.18531      0.99696118
    620000  -321.8147       68.764875     -390.57957      366.17763      1348.4512      960.18531      0.99696118
    621000  -342.99824      54.934613     -397.93285      292.53054     -4688.5243      960.18531      0.99696118
    622000  -308.67975      64.84535      -373.5251       345.30589     -276.18524      960.18531      0.99696118
    623000  -323.36781      61.721372     -385.08918      328.67049     -2830.9996      960.18531      0.99696118
    624000  -331.79127      51.056244     -382.84751      271.87796     -1288.0291      960.18531      0.99696118
    625000  -327.66465      57.298825     -384.96347      305.12013      2405.8222      960.18531      0.99696118
    626000  -333.04813      48.144642     -381.19277      256.37349     -268.7226       960.18531      0.99696118
    627000  -312.6945       58.629045     -371.32354      312.20364     -1904.8287      960.18531      0.99696118
    628000  -307.99482      61.159828     -369.15465      325.68023     -2559.3817      960.18531      0.99696118
    629000  -337.0909       55.754813     -392.84572      296.89816     -1405.0293      960.18531      0.99696118
    630000  -342.59227      45.298231     -387.8905       241.21616     -2793.7067      960.18531      0.99696118
    631000  -326.12594      52.504625     -378.63056      279.59069      1122.1033      960.18531      0.99696118
    632000  -319.00413      56.677363     -375.68149      301.8108       2328.4221      960.18531      0.99696118
    633000  -351.84317      48.924103     -400.76728      260.52417     -796.97919      960.18531      0.99696118
    634000  -322.56864      56.263668     -378.83231      299.60785     -2822.1914      960.18531      0.99696118
    635000  -316.23207      55.367135     -371.5992       294.83375     -5803.6994      960.18531      0.99696118
    636000  -290.4401       69.860435     -360.30053      372.01156     -1606.7688      960.18531      0.99696118
    637000  -327.381        55.00278      -382.38378      292.89353     -532.66687      960.18531      0.99696118
    638000  -315.96305      58.941376     -374.90442      313.86683      390.96439      960.18531      0.99696118
    639000  -314.84761      59.157562     -374.00517      315.01803     -16.037796      960.18531      0.99696118
    640000  -337.4292       51.369234     -388.79843      273.54466     -1598.077       960.18531      0.99696118
    641000  -324.56957      50.85778      -375.42735      270.82113     -1638.2715      960.18531      0.99696118
    642000  -329.15652      58.311936     -387.46845      310.51502     -1650.1237      960.18531      0.99696118
    643000  -337.61156      53.896903     -391.50847      287.00467     -1202.554       960.18531      0.99696118
    644000  -322.8774       59.446261     -382.32366      316.55537      550.60763      960.18531      0.99696118
    645000  -320.44377      59.651922     -380.09569      317.65054     -1957.4573      960.18531      0.99696118
    646000  -328.46607      49.49674      -377.96281      263.5735      -3461.3232      960.18531      0.99696118
    647000  -323.91825      51.131253     -375.0495       272.27739     -1346.7126      960.18531      0.99696118
    648000  -314.24265      63.488766     -377.73142      338.08199      2560.2308      960.18531      0.99696118
    649000  -320.57238      57.645879     -378.21826      306.96822     -1112.3554      960.18531      0.99696118
    650000  -341.04571      49.860118     -390.90582      265.50851     -480.85057      960.18531      0.99696118
    651000  -340.19923      54.233135     -394.43236      288.79513     -1601.5354      960.18531      0.99696118
    652000  -329.14931      58.19796      -387.34727      309.90809     -198.76452      960.18531      0.99696118
    653000  -320.90295      59.801096     -380.70405      318.4449       3065.1304      960.18531      0.99696118
    654000  -352.37343      46.083121     -398.45655      245.39575     -962.74903      960.18531      0.99696118
    655000  -327.70761      51.405926     -379.11354      273.74005     -2375.9698      960.18531      0.99696118
    656000  -325.95945      50.338499     -376.29795      268.05593     -4730.3756      960.18531      0.99696118
    657000  -309.95767      66.448642     -376.40631      353.84353     -773.09498      960.18531      0.99696118
    658000  -323.68799      56.143978     -379.83197      298.9705      -3606.2128      960.18531      0.99696118
    659000  -338.49552      50.261647     -388.75716      267.64668      1262.4198      960.18531      0.99696118
    660000  -331.77403      60.258615     -392.03265      320.88122      876.87234      960.18531      0.99696118
    661000  -315.34533      60.989668     -376.335        324.77412     -1490.304       960.18531      0.99696118
    662000  -318.10718      62.548851     -380.65603      333.07688     -917.92911      960.18531      0.99696118
    663000  -329.67919      57.156561     -386.83575      304.36257     -3888.5022      960.18531      0.99696118
    664000  -316.31631      60.754663     -377.07097      323.52271     -3352.5855      960.18531      0.99696118
    665000  -317.77281      57.749232     -375.52204      307.51858     -472.57784      960.18531      0.99696118
    666000  -338.92672      59.20262      -398.12934      315.25797     -680.04942      960.18531      0.99696118
    667000  -311.47114      66.24816      -377.7193       352.77595      1562.3174      960.18531      0.99696118
    668000  -322.99448      54.108683     -377.10316      288.13241     -4858.5566      960.18531      0.99696118
    669000  -322.8503       59.67206      -382.52236      317.75777     -1566.2413      960.18531      0.99696118
    670000  -306.45274      60.658931     -367.11167      323.01292     -214.73816      960.18531      0.99696118
    671000  -328.49721      48.873595     -377.37081      260.25521      1679.2109      960.18531      0.99696118
    672000  -318.08166      62.415545     -380.49721      332.36701      2697.1459      960.18531      0.99696118
    673000  -322.75482      56.804978     -379.5598       302.49037     -1239.8857      960.18531      0.99696118
    674000  -307.34877      53.056125     -360.4049       282.52747     -976.06231      960.18531      0.99696118
    675000  -309.76558      60.686071     -370.45165      323.15745     -1604.6939      960.18531      0.99696118
    676000  -321.69392      55.976031     -377.66995      298.07616     -5098.6723      960.18531      0.99696118
    677000  -317.75664      52.459485     -370.21613      279.35032     -8.00898        960.18531      0.99696118
    678000  -331.06306      52.32866      -383.39172      278.65366     -2982.5676      960.18531      0.99696118
    679000  -331.02933      63.200564     -394.2299       336.5473      -137.34861      960.18531      0.99696118
    680000  -320.48569      59.836084     -380.32178      318.63121      2465.6143      960.18531      0.99696118
    681000  -310.8594       61.232081     -372.09148      326.06499     -4942.4846      960.18531      0.99696118
    682000  -331.6194       53.231094     -384.8505       283.45919     -740.83897      960.18531      0.99696118
    683000  -319.6045       56.68316      -376.28766      301.84168     -398.56055      960.18531      0.99696118
    684000  -316.32597      54.58071      -370.90668      290.64599     -3197.4571      960.18531      0.99696118
    685000  -313.65103      64.028183     -377.67921      340.95442      1378.8857      960.18531      0.99696118
    686000  -320.5896       47.373755     -367.96336      252.26846     -1294.794       960.18531      0.99696118
    687000  -317.46369      64.917356     -382.38104      345.68933     -4196.0802      960.18531      0.99696118
    688000  -332.44006      48.22816      -380.66822      256.81823     -1887.0713      960.18531      0.99696118
    689000  -314.19901      60.359115     -374.55813      321.41639      1528.1789      960.18531      0.99696118
    690000  -326.7589       49.948716     -376.70762      265.9803      -1481.1781      960.18531      0.99696118
    691000  -324.99376      48.362755     -373.35652      257.53496     -1204.8666      960.18531      0.99696118
    692000  -313.48427      54.056698     -367.54097      287.85559     -2413.7902      960.18531      0.99696118
    693000  -307.87321      55.942162     -363.81537      297.89581     -40.828691      960.18531      0.99696118
    694000  -343.29517      42.69776      -385.99293      227.36847      2240.4682      960.18531      0.99696118
    695000  -336.83565      54.221622     -391.05727      288.73382     -1890.232       960.18531      0.99696118
    696000  -326.88193      51.33911      -378.22104      273.38425      1443.5008      960.18531      0.99696118
    697000  -330.56573      57.027142     -387.59288      303.6734       387.26357      960.18531      0.99696118
    698000  -326.34346      58.398546     -384.742        310.97622      3025.0495      960.18531      0.99696118
    699000  -346.61351      45.127055     -391.74056      240.30463      831.89612      960.18531      0.99696118
    700000  -318.20209      54.394588     -372.59668      289.65488      700.46865      960.18531      0.99696118
    701000  -333.19735      57.006072     -390.20342      303.5612       793.89233      960.18531      0.99696118
    702000  -325.03181      59.34079      -384.3726       315.99374     -708.64338      960.18531      0.99696118
    703000  -327.95474      62.024274     -389.97902      330.28347     -1148.9566      960.18531      0.99696118
    704000  -322.50684      56.553213     -379.06006      301.1497      -3052.1132      960.18531      0.99696118
    705000  -319.16835      52.348799     -371.51715      278.76091      1872.1278      960.18531      0.99696118
    706000  -323.08363      58.914396     -381.99803      313.72316     -1786.8357      960.18531      0.99696118
    707000  -321.20987      58.998536     -380.20841      314.17121     -4235.0249      960.18531      0.99696118
    708000  -335.70173      56.841632     -392.54336      302.68555     -236.72715      960.18531      0.99696118
    709000  -336.86395      46.244939     -383.10888      246.25744     -1744.096       960.18531      0.99696118
    710000  -317.98476      61.949482     -379.93425      329.8852      -396.90909      960.18531      0.99696118
    711000  -351.30925      45.292461     -396.60171      241.18543     -875.52303      960.18531      0.99696118
    712000  -326.89631      56.397749     -383.29406      300.32184     -1201.6941      960.18531      0.99696118
    713000  -311.51771      63.066452     -374.58416      335.83314     -1250.844       960.18531      0.99696118
    714000  -316.63644      53.048739     -369.68518      282.48814      1601.5915      960.18531      0.99696118
    715000  -324.82291      58.665989     -383.4889       312.40037     -2045.4033      960.18531      0.99696118
    716000  -337.59472      56.215542     -393.81026      299.35158     -2614.491       960.18531      0.99696118
    717000  -319.64821      52.862078     -372.51029      281.49416     -801.2489       960.18531      0.99696118
    718000  -291.84385      62.376648     -354.2205       332.15989      5813.5297      960.18531      0.99696118
    719000  -316.73127      53.32598      -370.05724      283.96446     -4275.8939      960.18531      0.99696118
    720000  -330.05823      54.224632     -384.28286      288.74985      373.69976      960.18531      0.99696118
    721000  -316.24905      58.2219       -374.47095      310.03557     -1742.6851      960.18531      0.99696118
    722000  -312.02413      60.077429     -372.10156      319.91639     -1320.1389      960.18531      0.99696118
    723000  -335.02442      45.855421     -380.87984      244.18323     -689.84325      960.18531      0.99696118
    724000  -309.9671       59.139581     -369.10668      314.92228     -887.68287      960.18531      0.99696118
    725000  -331.27624      52.935505     -384.21175      281.88516     -2968.5314      960.18531      0.99696118
    726000  -326.63264      60.602069     -387.23471      322.71013      604.94808      960.18531      0.99696118
    727000  -341.18283      47.146911     -388.32974      251.0605      -580.00081      960.18531      0.99696118
    728000  -316.38345      58.423844     -374.8073       311.11094      3267.1987      960.18531      0.99696118
    729000  -315.20751      58.389025     -373.59654      310.92552      3587.2267      960.18531      0.99696118
    730000  -331.13248      49.228476     -380.36095      262.14498     -1527.4344      960.18531      0.99696118
    731000  -310.43066      62.84051      -373.27117      334.62998     -983.80186      960.18531      0.99696118
    732000  -330.70761      59.980579     -390.68819      319.40066      976.99887      960.18531      0.99696118
    733000  -302.55418      53.756816     -356.311        286.25869     -1078.1358      960.18531      0.99696118
    734000  -327.52418      52.049424     -379.57361      277.16672     -361.62717      960.18531      0.99696118
    735000  -343.33575      51.570042     -394.90579      274.61398     -2440.0492      960.18531      0.99696118
    736000  -312.11205      56.582869     -368.69492      301.30762     -3562.5057      960.18531      0.99696118
    737000  -320.03074      55.116562     -375.1473       293.49944     -2147.5662      960.18531      0.99696118
    738000  -333.7349       54.866015     -388.60091      292.16525     -3112.5604      960.18531      0.99696118
    739000  -337.79448      52.995124     -390.7896       282.20263      4617.1529      960.18531      0.99696118
    740000  -320.30142      59.552047     -379.85346      317.11869     -637.75803      960.18531      0.99696118
    741000  -333.89594      51.094993     -384.99094      272.08431     -1346.9778      960.18531      0.99696118
    742000  -315.76049      53.400053     -369.16055      284.35891     -680.51036      960.18531      0.99696118
    743000  -343.99185      46.803173     -390.79502      249.23007     -3455.7783      960.18531      0.99696118
    744000  -338.61076      47.986507     -386.59727      255.53141     -1302.7932      960.18531      0.99696118
    745000  -347.63619      56.290131     -403.92632      299.74877     -4188.5995      960.18531      0.99696118
    746000  -341.57793      52.920735     -394.49866      281.8065      -4048.7373      960.18531      0.99696118
    747000  -305.992        61.599815     -367.59181      328.0232      -2051.675       960.18531      0.99696118
    748000  -325.68487      50.959194     -376.64406      271.36117      653.93032      960.18531      0.99696118
    749000  -326.20451      57.434821     -383.63933      305.84432     -3607.4162      960.18531      0.99696118
    750000  -340.01465      54.546839     -394.56149      290.46562     -1048.4409      960.18531      0.99696118
    751000  -320.87531      54.308388     -375.1837       289.19585     -409.72822      960.18531      0.99696118
    752000  -311.20227      58.759172     -369.96144      312.89658     -2934.8316      960.18531      0.99696118
    753000  -319.84455      64.322941     -384.16749      342.52403      1791.7504      960.18531      0.99696118
    754000  -326.38984      60.543966     -386.93381      322.40073     -4394.5516      960.18531      0.99696118
    755000  -340.10424      57.198282     -397.30252      304.58473     -3008.3376      960.18531      0.99696118
    756000  -316.21091      60.448983     -376.65989      321.89494      1194.2557      960.18531      0.99696118
    757000  -309.9447       64.1362       -374.0809       341.52962      750.87668      960.18531      0.99696118
    758000  -322.48735      64.138584     -386.62593      341.54231     -3981.1705      960.18531      0.99696118
    759000  -320.36372      51.822806     -372.18652      275.95996     -1950.482       960.18531      0.99696118
    760000  -322.12764      54.849502     -376.97714      292.07732     -2931.8301      960.18531      0.99696118
    761000  -313.07059      62.770936     -375.84152      334.2595       4810.6472      960.18531      0.99696118
    762000  -330.03628      59.970774     -390.00706      319.34844      1413.7678      960.18531      0.99696118
    763000  -340.98376      50.676748     -391.6605       269.85712     -247.35047      960.18531      0.99696118
    764000  -325.89399      49.381825     -375.27582      262.96157      4674.0952      960.18531      0.99696118
    765000  -329.5117       54.35132      -383.86302      289.42447     -590.74314      960.18531      0.99696118
    766000  -333.95055      59.002503     -392.95306      314.19233     -3121.3002      960.18531      0.99696118
    767000  -313.36224      56.324637     -369.68688      299.93251      2050.633       960.18531      0.99696118
    768000  -342.93223      56.672233     -399.60446      301.78349     -1597.7374      960.18531      0.99696118
    769000  -314.57219      56.605973     -371.17816      301.43065     -640.64208      960.18531      0.99696118
    770000  -331.01831      56.971886     -387.9902       303.37916     -1607.9339      960.18531      0.99696118
    771000  -340.26043      61.690838     -401.95127      328.5079      -847.06951      960.18531      0.99696118
    772000  -319.86367      67.305223     -387.16889      358.40488      2516.0257      960.18531      0.99696118
    773000  -323.18006      54.827578     -378.00764      291.96057      3640.0386      960.18531      0.99696118
    774000  -333.55052      49.443575     -382.9941       263.29039     -2279.8615      960.18531      0.99696118
    775000  -320.71787      61.703305     -382.42117      328.57429      4076.6178      960.18531      0.99696118
    776000  -344.28193      51.584159     -395.86609      274.68915     -5550.9638      960.18531      0.99696118
    777000  -330.70266      52.057239     -382.7599       277.20833     -4772.1809      960.18531      0.99696118
    778000  -312.69162      67.299803     -379.99142      358.37602     -1039.7793      960.18531      0.99696118
    779000  -328.6253       59.333582     -387.95889      315.95535     -496.47483      960.18531      0.99696118
    780000  -321.40175      54.255336     -375.65709      288.91335      889.57932      960.18531      0.99696118
    781000  -337.07504      48.028629     -385.10366      255.75571      3649.2537      960.18531      0.99696118
    782000  -320.52537      52.293358     -372.81873      278.46568     -2537.2041      960.18531      0.99696118
    783000  -303.4638       58.429822     -361.89362      311.14277     -792.47882      960.18531      0.99696118
    784000  -318.69437      64.575364     -383.26973      343.8682      -3412.1601      960.18531      0.99696118
    785000  -331.3634       44.937948     -376.30134      239.29763      3466.3862      960.18531      0.99696118
    786000  -332.31992      43.836627     -376.15655      233.43302     -933.81153      960.18531      0.99696118
    787000  -311.8381       61.755403     -373.5935       328.85171     -1662.327       960.18531      0.99696118
    788000  -319.80441      64.804711     -384.60912      345.08948     -1331.1946      960.18531      0.99696118
    789000  -323.80033      49.728105     -373.52843      264.80554     -3417.5995      960.18531      0.99696118
    790000  -316.3146       65.34758      -381.66218      347.9803      -678.23921      960.18531      0.99696118
    791000  -337.6452       53.749047     -391.39425      286.21732      3916.5407      960.18531      0.99696118
    792000  -340.05286      48.230256     -388.28311      256.82939     -161.37475      960.18531      0.99696118
    793000  -341.82296      55.859436     -397.68239      297.45529      2684.1844      960.18531      0.99696118
    794000  -326.61165      49.088728     -375.70038      261.40081      1083.216       960.18531      0.99696118
    795000  -312.1407       66.298491     -378.43919      353.04396     -4083.9743      960.18531      0.99696118
    796000  -313.87106      54.390962     -368.26202      289.63556     -4443.381       960.18531      0.99696118
    797000  -312.1708       55.132766     -367.30357      293.58572     -737.70857      960.18531      0.99696118
    798000  -334.58102      56.126987     -390.70801      298.88001     -2543.3018      960.18531      0.99696118
    799000  -322.43267      52.950073     -375.38275      281.96274     -901.41047      960.18531      0.99696118
    800000  -340.30028      53.368434     -393.66871      284.19053      2218.6271      960.18531      0.99696118
    801000  -346.37776      48.099513     -394.47727      256.13317      550.95439      960.18531      0.99696118
    802000  -319.85757      58.435855     -378.29342      311.1749      -3496.5284      960.18531      0.99696118
    803000  -320.78361      58.013505     -378.79712      308.92585     -276.04929      960.18531      0.99696118
    804000  -308.52504      57.593186     -366.11822      306.68762     -2746.7119      960.18531      0.99696118
    805000  -318.91139      67.838246     -386.74964      361.24326     -1075.219       960.18531      0.99696118
    806000  -317.47565      53.106465     -370.58211      282.79553      508.03392      960.18531      0.99696118
    807000  -337.90678      54.498743     -392.40552      290.20951      2197.6059      960.18531      0.99696118
    808000  -314.73584      55.802286     -370.53812      297.15096      3103.6822      960.18531      0.99696118
    809000  -304.56         67.112142     -371.67214      357.37671     -501.87933      960.18531      0.99696118
    810000  -327.68876      53.089237     -380.77799      282.70379      383.39152      960.18531      0.99696118
    811000  -320.67528      50.747663     -371.42295      270.23475      340.69381      960.18531      0.99696118
    812000  -314.91264      54.190126     -369.10276      288.5661      -1320.3036      960.18531      0.99696118
    813000  -322.93551      55.453475     -378.38899      295.29352     -6642.6434      960.18531      0.99696118
    814000  -297.22137      63.594745     -360.81612      338.64634      894.64006      960.18531      0.99696118
    815000  -324.58569      49.820483     -374.40618      265.29745     -1472.928       960.18531      0.99696118
    816000  -339.4307       50.016322     -389.44702      266.34031      986.787        960.18531      0.99696118
    817000  -319.98226      59.11775      -379.10001      314.80603      2982.6103      960.18531      0.99696118
    818000  -311.84798      60.643515     -372.49149      322.93083      1072.5551      960.18531      0.99696118
    819000  -323.15099      55.596596     -378.74759      296.05565      2509.7913      960.18531      0.99696118
    820000  -319.20983      58.772348     -377.98218      312.96674     -2803.3103      960.18531      0.99696118
    821000  -315.22916      55.301605     -370.53076      294.4848       1573.4788      960.18531      0.99696118
    822000  -322.28327      57.276699     -379.55997      305.00231     -2976.8742      960.18531      0.99696118
    823000  -319.55104      53.385869     -372.93691      284.28338     -313.2179       960.18531      0.99696118
    824000  -324.94633      57.478058     -382.42439      306.07456     -844.88239      960.18531      0.99696118
    825000  -312.38608      61.706604     -374.09269      328.59185     -2459.9481      960.18531      0.99696118
    826000  -324.52789      44.258028     -368.78592      235.677        4216.1115      960.18531      0.99696118
    827000  -332.99706      41.748331     -374.74539      222.31269     -363.02652      960.18531      0.99696118
    828000  -320.48056      67.132003     -387.61256      357.48247     -1105.0882      960.18531      0.99696118
    829000  -324.9155       64.142652     -389.05816      341.56398     -22.665885      960.18531      0.99696118
    830000  -326.9574       59.666678     -386.62408      317.72911     -1683.544       960.18531      0.99696118
    831000  -310.11427      66.622195     -376.73646      354.76771     -1393.1863      960.18531      0.99696118
    832000  -308.76008      56.040348     -364.80042      298.41866     -3023.2374      960.18531      0.99696118
    833000  -330.88562      51.989973     -382.8756       276.85014     -1700.0003      960.18531      0.99696118
    834000  -313.67512      55.617339     -369.29245      296.1661      -2401.4617      960.18531      0.99696118
    835000  -307.73603      63.553844     -371.28987      338.42853     -3236.1574      960.18531      0.99696118
    836000  -327.3676       52.921201     -380.2888       281.80899      133.31408      960.18531      0.99696118
    837000  -328.07255      59.006055     -387.0786       314.21125      844.70374      960.18531      0.99696118
    838000  -331.04844      56.684114     -387.73255      301.84676      2429.5696      960.18531      0.99696118
    839000  -319.22178      64.1381       -383.35988      341.53974     -680.10452      960.18531      0.99696118
    840000  -327.96586      56.907196     -384.87305      303.03468      3528.6595      960.18531      0.99696118
    841000  -319.3043       50.575839     -369.88014      269.31978     -3907.0579      960.18531      0.99696118
    842000  -331.28522      52.431775     -383.717        279.20276     -994.00719      960.18531      0.99696118
    843000  -295.10571      60.528368     -355.63408      322.31767     -4618.4927      960.18531      0.99696118
    844000  -326.49902      49.093524     -375.59254      261.42635      3556.8384      960.18531      0.99696118
    845000  -329.64483      53.986726     -383.63155      287.48298     -1051.224       960.18531      0.99696118
    846000  -304.92503      67.130383     -372.05541      357.47385      200.49882      960.18531      0.99696118
    847000  -318.42174      58.412975     -376.83471      311.05306     -3334.8023      960.18531      0.99696118
    848000  -322.87919      55.726648     -378.60583      296.74818     -1323.2941      960.18531      0.99696118
    849000  -337.42527      50.822151     -388.24742      270.63141     -3650.0163      960.18531      0.99696118
    850000  -334.55884      51.57735      -386.13619      274.65289     -1861.0369      960.18531      0.99696118
    851000  -323.08745      63.570348     -386.6578       338.51642      674.58748      960.18531      0.99696118
    852000  -338.18062      59.906724     -398.08734      319.00737     -1996.8079      960.18531      0.99696118
    853000  -331.28201      59.557245     -390.83926      317.14637     -251.31871      960.18531      0.99696118
    854000  -320.13688      56.00602      -376.1429       298.23586      241.95325      960.18531      0.99696118
    855000  -311.89422      51.422552     -363.31677      273.82858      1768.1582      960.18531      0.99696118
    856000  -304.60088      56.896528     -361.49741      302.97787     -3028.8558      960.18531      0.99696118
    857000  -319.38351      47.996337     -367.37985      255.58375     -509.66339      960.18531      0.99696118
    858000  -319.80762      54.182303     -373.98992      288.52444      1605.0916      960.18531      0.99696118
    859000  -307.26752      65.432057     -372.69958      348.43014     -2729.9021      960.18531      0.99696118
    860000  -326.47546      57.766017     -384.24148      307.60796      41.257119      960.18531      0.99696118
    861000  -308.74669      53.419914     -362.1666       284.46467     -3210.4353      960.18531      0.99696118
    862000  -321.03411      61.58716      -382.62127      327.95581     -1157.5664      960.18531      0.99696118
    863000  -303.41034      67.217351     -370.62769      357.93696     -1297.1662      960.18531      0.99696118
    864000  -326.10094      51.634126     -377.73506      274.95522     -46.057902      960.18531      0.99696118
    865000  -329.32403      50.473117     -379.79715      268.77278      1243.0365      960.18531      0.99696118
    866000  -302.99663      61.059704     -364.05634      325.14707     -2221.5286      960.18531      0.99696118
    867000  -328.86806      45.669636     -374.53769      243.19391     -598.32427      960.18531      0.99696118
    868000  -325.83541      51.240573     -377.07599      272.85953     -1820.7243      960.18531      0.99696118
    869000  -324.13807      64.267982     -388.40606      342.23136      1765.8703      960.18531      0.99696118
    870000  -334.07755      52.033867     -386.11142      277.08387      3082.2753      960.18531      0.99696118
    871000  -324.97543      54.998068     -379.9735       292.86845      1.4761133      960.18531      0.99696118
    872000  -330.23492      52.979858     -383.21478      282.12134     -3582.1354      960.18531      0.99696118
    873000  -316.75211      61.128787     -377.88089      325.51494     -572.17978      960.18531      0.99696118
    874000  -308.74969      60.035918     -368.78561      319.69534     -2281.518       960.18531      0.99696118
    875000  -313.84618      61.570872     -375.41705      327.86907      485.28569      960.18531      0.99696118
    876000  -328.39443      59.513801     -387.90824      316.91503     -1513.0371      960.18531      0.99696118
    877000  -318.07124      59.378943     -377.45019      316.1969      -6144.0349      960.18531      0.99696118
    878000  -318.4634       52.792947     -371.25635      281.12603     -2641.1273      960.18531      0.99696118
    879000  -307.16827      59.223876     -366.39214      315.37116      3208.5012      960.18531      0.99696118
    880000  -314.62252      62.949973     -377.57249      335.21288      819.63152      960.18531      0.99696118
    881000  -337.32699      42.110383     -379.43738      224.24065     -6679.4316      960.18531      0.99696118
    882000  -328.77288      57.520192     -386.29307      306.29893      1619.5396      960.18531      0.99696118
    883000  -329.61828      54.795302     -384.41358      291.7887      -1379.2787      960.18531      0.99696118
    884000  -341.33288      56.445829     -397.77871      300.57787     -850.32772      960.18531      0.99696118
    885000  -322.19708      57.760124     -379.9572       307.57658      3320.2213      960.18531      0.99696118
    886000  -314.67747      57.586938     -372.26441      306.65435      188.29273      960.18531      0.99696118
    887000  -307.69555      63.85813      -371.55368      340.04888      2996.227       960.18531      0.99696118
    888000  -331.61834      49.201961     -380.8203       262.00378      763.47186      960.18531      0.99696118
    889000  -332.66877      55.363861     -388.03263      294.81632     -5780.6497      960.18531      0.99696118
    890000  -331.29374      53.805499     -385.09924      286.51794      3236.7195      960.18531      0.99696118
    891000  -326.01541      57.687941     -383.70335      307.1922       924.56484      960.18531      0.99696118
    892000  -349.65874      49.835196     -399.49394      265.3758       1527.327       960.18531      0.99696118
    893000  -334.02208      63.000818     -397.0229       335.48363      814.12757      960.18531      0.99696118
    894000  -308.18331      61.068417     -369.25173      325.19347      2663.4879      960.18531      0.99696118
    895000  -325.65413      53.373328     -379.02745      284.2166       2863.6779      960.18531      0.99696118
    896000  -322.31958      62.992974     -385.31256      335.44186     -1900.4743      960.18531      0.99696118
    897000  -318.28238      58.218783     -376.50116      310.01897      5177.8653      960.18531      0.99696118
    898000  -340.66032      45.6971       -386.35742      243.34016     -900.50636      960.18531      0.99696118
    899000  -330.02956      45.919717     -375.94928      244.52561     -485.5697       960.18531      0.99696118
    900000  -327.89634      51.567544     -379.46388      274.60068     -4334.7905      960.18531      0.99696118
    901000  -309.26075      69.841349     -379.1021       371.90993     -2090.7278      960.18531      0.99696118
    902000  -328.64558      51.884741     -380.53032      276.28977     -1044.7857      960.18531      0.99696118
    903000  -310.84422      60.567678     -371.4119       322.527        174.9682       960.18531      0.99696118
    904000  -320.97447      60.612741     -381.58721      322.76696     -710.1777       960.18531      0.99696118
    905000  -332.15674      54.019015     -386.17575      287.65492      1013.6645      960.18531      0.99696118
    906000  -310.43293      57.277752     -367.71068      305.00792     -4688.6971      960.18531      0.99696118
    907000  -329.78622      60.955944     -390.74217      324.59454     -786.66869      960.18531      0.99696118
    908000  -306.91403      61.456397     -368.37043      327.25949      1074.289       960.18531      0.99696118
    909000  -322.59681      56.707656     -379.30447      301.97212     -1153.7532      960.18531      0.99696118
    910000  -321.84993      48.103305     -369.95324      256.15336      3505.5995      960.18531      0.99696118
    911000  -323.23639      57.657217     -380.89361      307.0286      -3924.8224      960.18531      0.99696118
    912000  -334.15111      47.969374     -382.12049      255.44017     -2975.6088      960.18531      0.99696118
    913000  -332.90931      48.056555     -380.96587      255.90442      2350.0439      960.18531      0.99696118
    914000  -327.65677      56.616722     -384.27349      301.48789     -246.22381      960.18531      0.99696118
    915000  -334.34899      46.646831     -380.99582      248.39754     -556.0225       960.18531      0.99696118
    916000  -329.6297       49.478337     -379.10804      263.4755      -469.91201      960.18531      0.99696118
    917000  -324.21056      56.30825      -380.51881      299.84526     -2786.8776      960.18531      0.99696118
    918000  -346.7023       46.283177     -392.98548      246.46106     -4866.2191      960.18531      0.99696118
    919000  -316.45883      63.875169     -380.334        340.13961      104.49531      960.18531      0.99696118
    920000  -337.70741      56.002432     -393.70984      298.21675      386.53561      960.18531      0.99696118
    921000  -308.72035      57.772002     -366.49235      307.63983      6997.1205      960.18531      0.99696118
    922000  -322.88645      50.087292     -372.97375      266.71823     -2290.474       960.18531      0.99696118
    923000  -316.35221      50.504906     -366.85711      268.94205      278.27927      960.18531      0.99696118
    924000  -328.14493      61.288346     -389.43328      326.3646      -936.68075      960.18531      0.99696118
    925000  -314.61304      59.084183     -373.69722      314.62729      3153.1295      960.18531      0.99696118
    926000  -313.20172      61.371929     -374.57365      326.80969     -3515.3283      960.18531      0.99696118
    927000  -320.98208      57.258876     -378.24095      304.9074      -4473.2694      960.18531      0.99696118
    928000  -322.10738      53.755372     -375.86275      286.251       -158.6085       960.18531      0.99696118
    929000  -331.06473      58.673251     -389.73798      312.43905     -4432.9187      960.18531      0.99696118
    930000  -319.08685      55.871581     -374.95843      297.51996      92.584503      960.18531      0.99696118
    931000  -328.9676       48.465378     -377.43298      258.08143     -1474.5104      960.18531      0.99696118
    932000  -301.86601      59.540215     -361.40622      317.05569      4394.3896      960.18531      0.99696118
    933000  -335.19656      55.329245     -390.52581      294.63199     -1343.0052      960.18531      0.99696118
    934000  -320.41245      56.957607     -377.37006      303.30312     -1397.2252      960.18531      0.99696118
    935000  -330.46908      56.341691     -386.81077      300.02333     -530.28416      960.18531      0.99696118
    936000  -322.47811      55.370547     -377.84866      294.85192      2303.5078      960.18531      0.99696118
    937000  -335.77384      52.518321     -388.29216      279.66362     -2722.6777      960.18531      0.99696118
    938000  -331.32007      62.374579     -393.69465      332.14887      1989.8835      960.18531      0.99696118
    939000  -340.55227      58.742151     -399.29442      312.80594     -2584.8951      960.18531      0.99696118
    940000  -325.81933      47.405447     -373.22477      252.43722      637.98232      960.18531      0.99696118
    941000  -327.79431      64.067317     -391.86163      341.16281     -3142.665       960.18531      0.99696118
    942000  -327.89946      54.773362     -382.67283      291.67187     -5657.5311      960.18531      0.99696118
    943000  -322.46421      54.069717     -376.53392      287.92491     -797.35438      960.18531      0.99696118
    944000  -319.68536      48.780933     -368.46629      259.76178      2891.5454      960.18531      0.99696118
    945000  -349.6325       45.5247       -395.1572       242.42212     -3147.361       960.18531      0.99696118
    946000  -318.07508      67.017767     -385.09285      356.87416     -2676.0174      960.18531      0.99696118
    947000  -332.57774      54.664124     -387.24186      291.09017      1228.9182      960.18531      0.99696118
    948000  -328.44666      63.976634     -392.42329      340.67992      3477.734       960.18531      0.99696118
    949000  -325.95739      55.49776      -381.45515      295.52934      3808.7777      960.18531      0.99696118
    950000  -321.43579      65.245203     -386.68099      347.43514     -2967.9484      960.18531      0.99696118
    951000  -338.48703      42.626466     -381.1135       226.98883     -455.70042      960.18531      0.99696118
    952000  -316.54822      59.660246     -376.20846      317.69486     -1097.4304      960.18531      0.99696118
    953000  -330.12609      56.9489       -387.07499      303.25676      92.938442      960.18531      0.99696118
    954000  -329.15085      56.169788     -385.32064      299.10794     -2695.3008      960.18531      0.99696118
    955000  -326.17311      68.5751       -394.74821      365.16706      1775.1273      960.18531      0.99696118
    956000  -312.89853      53.350601     -366.24913      284.09557     -3487.0653      960.18531      0.99696118
    957000  -334.88484      53.41983      -388.30467      284.46422     -3647.2576      960.18531      0.99696118
    958000  -319.17415      57.28575      -376.4599       305.05051     -1657.7724      960.18531      0.99696118
    959000  -328.17012      55.087319     -383.25744      293.34371     -2783.3849      960.18531      0.99696118
    960000  -334.56309      48.425375     -382.98847      257.86841     -2165.2519      960.18531      0.99696118
    961000  -325.67838      52.248303     -377.92668      278.22576     -943.37659      960.18531      0.99696118
    962000  -302.49697      60.298306     -362.79528      321.09257     -4009.5566      960.18531      0.99696118
    963000  -331.57514      51.69482      -383.26996      275.27843     -2728.4245      960.18531      0.99696118
    964000  -345.79943      55.022668     -400.82209      292.99944     -4271.0423      960.18531      0.99696118
    965000  -318.22011      64.026945     -382.24705      340.94783     -4918.9409      960.18531      0.99696118
    966000  -306.37145      61.37339      -367.74484      326.81747      1778.5128      960.18531      0.99696118
    967000  -324.8444       57.380744     -382.22515      305.55636      4.3233971      960.18531      0.99696118
    968000  -336.88555      50.474883     -387.36043      268.78218     -1923.6802      960.18531      0.99696118
    969000  -310.52416      55.374555     -365.89872      294.87326      1198.0332      960.18531      0.99696118
    970000  -330.52479      54.749507     -385.2743       291.54484      1674.9532      960.18531      0.99696118
    971000  -320.71963      54.885779     -375.60541      292.2705       1134.0866      960.18531      0.99696118
    972000  -323.33723      60.647947     -383.98518      322.95443     -678.15154      960.18531      0.99696118
    973000  -323.4138       54.831107     -378.24491      291.97937      519.45332      960.18531      0.99696118
    974000  -340.0878       57.601596     -397.6894       306.73241      1081.7129      960.18531      0.99696118
    975000  -329.79742      52.839269     -382.63669      281.37269     -976.69369      960.18531      0.99696118
    976000  -338.73033      53.747078     -392.4774       286.20684     -4097.6619      960.18531      0.99696118
    977000  -316.46095      61.673868     -378.13482      328.41753      54.826194      960.18531      0.99696118
    978000  -330.74515      60.674083     -391.41923      323.09361     -1474.0845      960.18531      0.99696118
    979000  -334.81962      57.200293     -392.01991      304.59544     -1145.2391      960.18531      0.99696118
    980000  -330.7974       56.272473     -387.06988      299.65474      1932.4171      960.18531      0.99696118
    981000  -330.56664      54.958711     -385.52535      292.65887     -2.3907426      960.18531      0.99696118
    982000  -309.8976       63.753628     -373.65123      339.49239     -2785.1382      960.18531      0.99696118
    983000  -325.88329      52.171617     -378.0549       277.8174      -2120.7817      960.18531      0.99696118
    984000  -321.92191      50.415773     -372.33768      268.46741     -2084.9444      960.18531      0.99696118
    985000  -314.31252      54.475471     -368.78799      290.08558     -1396.6214      960.18531      0.99696118
    986000  -314.37596      61.868386     -376.24435      329.45335     -462.99689      960.18531      0.99696118
    987000  -304.67819      66.954286     -371.63248      356.53612     -651.32297      960.18531      0.99696118
    988000  -322.69903      59.404107     -382.10313      316.3309       467.41104      960.18531      0.99696118
    989000  -339.40253      49.729535     -389.13206      264.81315      164.40479      960.18531      0.99696118
    990000  -330.62288      56.379967     -387.00285      300.22715      3981.304       960.18531      0.99696118
    991000  -329.72387      60.129967     -389.85384      320.19616     -1164.1562      960.18531      0.99696118
    992000  -311.1603       67.853005     -379.0133       361.32186      1143.8246      960.18531      0.99696118
    993000  -327.65835      55.006129     -382.66447      292.91137     -2146.3696      960.18531      0.99696118
    994000  -333.87932      52.823477     -386.7028       281.2886      -2766.0569      960.18531      0.99696118
    995000  -308.19885      55.248583     -363.44743      294.20245      1942.6436      960.18531      0.99696118
    996000  -322.49404      55.415897     -377.90994      295.09341      4119.8788      960.18531      0.99696118
    997000  -315.05246      59.313144     -374.3656       315.84652      737.81466      960.18531      0.99696118
    998000  -328.56242      47.170783     -375.73321      251.18762     -616.17687      960.18531      0.99696118
    999000  -318.2447       65.182884     -383.42758      347.10328     -1839.1334      960.18531      0.99696118
   1000000  -302.97215      58.274865     -361.24701      310.31761      1575.1227      960.18531      0.99696118
Loop time of 429.129 on 1 procs for 1000000 steps with 96 atoms

Performance: 201.338 ns/day, 0.119 hours/ns, 2330.303 timesteps/s
99.7% CPU use with 1 MPI tasks x 1 OpenMP threads

MPI task timing breakdown:
Section |  min time  |  avg time  |  max time  |%varavg| %total
---------------------------------------------------------------
Pair    | 336.5      | 336.5      | 336.5      |   0.0 | 78.41
Bond    | 0.050852   | 0.050852   | 0.050852   |   0.0 |  0.01
Kspace  | 58.036     | 58.036     | 58.036     |   0.0 | 13.52
Neigh   | 15.649     | 15.649     | 15.649     |   0.0 |  3.65
Comm    | 11.491     | 11.491     | 11.491     |   0.0 |  2.68
Output  | 0.15122    | 0.15122    | 0.15122    |   0.0 |  0.04
Modify  | 5.5784     | 5.5784     | 5.5784     |   0.0 |  1.30
Other   |            | 1.671      |            |       |  0.39

Nlocal:             96 ave          96 max          96 min
Histogram: 1 0 0 0 0 0 0 0 0 0
Nghost:           3814 ave        3814 max        3814 min
Histogram: 1 0 0 0 0 0 0 0 0 0
Neighs:          34748 ave       34748 max       34748 min
Histogram: 1 0 0 0 0 0 0 0 0 0

Total # of neighbors = 34748
Ave neighs/atom = 361.95833
Ave special neighs/atom = 2
Neighbor list builds = 22065
Dangerous builds = 0
# write data file
write_data data.after_eq.lmp
System init for write_data ...
PPPM initialization ...
  using 12-bit tables for long-range coulomb (src/kspace.cpp:342)
  G vector (1/distance) = 0.30847861
  grid = 9 9 9
  stencil order = 5
  estimated absolute RMS force accuracy = 0.0027675926
  estimated relative force accuracy = 8.334523e-06
  using double precision FFTW3
  3d grid and FFT values/proc = 4096 729
Generated 1 of 1 mixed pair_coeff terms from geometric mixing rule

# clean up
undump dEQUI

# production
# 2 ns
dump dPROD all custom 1000 prod.lammpstrj id element xu yu zu
dump_modify dPROD element H O sort id
run 2000000
PPPM initialization ...
  using 12-bit tables for long-range coulomb (src/kspace.cpp:342)
  G vector (1/distance) = 0.30847861
  grid = 9 9 9
  stencil order = 5
  estimated absolute RMS force accuracy = 0.0027675926
  estimated relative force accuracy = 8.334523e-06
  using double precision FFTW3
  3d grid and FFT values/proc = 4096 729
Generated 1 of 1 mixed pair_coeff terms from geometric mixing rule
Per MPI rank memory allocation (min/avg/max) = 9.328 | 9.328 | 9.328 Mbytes
   Step         TotEng         KinEng         PotEng          Temp          Press          Volume        Density
   1000000  -302.97215      58.274865     -361.24701      310.31761      1576.1947      960.18531      0.99696118
   1001000  -321.44341      56.898054     -378.34147      302.986        1436.0303      960.18531      0.99696118
   1002000  -327.64182      50.795397     -378.43722      270.48894      159.20861      960.18531      0.99696118
   1003000  -321.31792      48.004389     -369.32231      255.62663     -5380.5991      960.18531      0.99696118
   1004000  -338.11595      51.658991     -389.77494      275.08764      593.34518      960.18531      0.99696118
   1005000  -332.0667       57.937585     -390.00428      308.52157      479.79467      960.18531      0.99696118
   1006000  -337.84177      48.835116     -386.67689      260.05031     -994.15854      960.18531      0.99696118
   1007000  -323.65003      47.346911     -370.99695      252.12551     -2147.1234      960.18531      0.99696118
   1008000  -310.24893      61.319309     -371.56824      326.52948     -2847.1334      960.18531      0.99696118
   1009000  -336.15437      38.739544     -374.89391      206.2907      -1334.0175      960.18531      0.99696118
   1010000  -320.21072      55.423332     -375.63405      295.13301      762.01648      960.18531      0.99696118
   1011000  -320.00229      62.106585     -382.10888      330.72178      2513.5219      960.18531      0.99696118
   1012000  -352.99597      46.479614     -399.47558      247.5071      -502.2008       960.18531      0.99696118
   1013000  -345.48968      43.921854     -389.41153      233.88685     -1363.13        960.18531      0.99696118
   1014000  -310.96362      58.386859     -369.35048      310.91399      1059.7536      960.18531      0.99696118
   1015000  -312.17189      57.823768     -369.99566      307.91549      1398.8291      960.18531      0.99696118
   1016000  -346.42325      49.631007     -396.05425      264.28848     -1628.5177      960.18531      0.99696118
   1017000  -331.13368      62.654055     -393.78774      333.6371      -467.97854      960.18531      0.99696118
   1018000  -325.17289      48.507823     -373.68072      258.30745     -3313.7304      960.18531      0.99696118
   1019000  -316.9868       55.318305     -372.30511      294.57373      713.34863      960.18531      0.99696118
   1020000  -320.60307      57.177107     -377.78018      304.47198     -643.80273      960.18531      0.99696118
   1021000  -330.19999      51.081998     -381.28199      272.01511     -2239.6011      960.18531      0.99696118
   1022000  -316.46765      65.281442     -381.74909      347.62811     -213.98063      960.18531      0.99696118
   1023000  -320.725        57.425504     -378.1505       305.79471     -1657.675       960.18531      0.99696118
   1024000  -327.70944      60.951474     -388.66092      324.57074      1035.259       960.18531      0.99696118
   1025000  -336.91297      56.652243     -393.56522      301.67704     -3495.3329      960.18531      0.99696118
   1026000  -330.68854      62.58584      -393.27438      333.27385      248.91502      960.18531      0.99696118
   1027000  -321.37921      51.8507       -373.22991      276.1085      -338.91546      960.18531      0.99696118
   1028000  -337.57307      57.763944     -395.33701      307.59693     -1938.4132      960.18531      0.99696118
   1029000  -308.72997      65.092047     -373.82202      346.61957     -2169.9703      960.18531      0.99696118
   1030000  -321.51451      62.494289     -384.0088       332.78633      914.18966      960.18531      0.99696118
   1031000  -333.50707      59.117871     -392.62494      314.80668      2518.8578      960.18531      0.99696118
   1032000  -331.5748       57.846642     -389.42144      308.0373       1257.5849      960.18531      0.99696118
   1033000  -316.31427      61.306893     -377.62116      326.46337      3009.0865      960.18531      0.99696118
   1034000  -331.15138      52.140403     -383.29178      277.65118      3357.1007      960.18531      0.99696118
   1035000  -318.69452      53.079201     -371.77372      282.65035      2555.0268      960.18531      0.99696118
   1036000  -311.22868      56.971535     -368.20021      303.37729      1497.5886      960.18531      0.99696118
   1037000  -328.2758       60.139543     -388.41534      320.24715     -318.39368      960.18531      0.99696118
   1038000  -336.18727      44.447594     -380.63487      236.68646     -1368.8126      960.18531      0.99696118
   1039000  -328.28728      53.249697     -381.53698      283.55825     -215.26897      960.18531      0.99696118
   1040000  -313.44052      54.798353     -368.23887      291.80495     -2050.1839      960.18531      0.99696118
   1041000  -329.169        52.443298     -381.6123       279.26412     -1728.6001      960.18531      0.99696118
   1042000  -321.78134      58.049468     -379.83081      309.11736      2596.1163      960.18531      0.99696118
   1043000  -333.15614      55.333737     -388.48988      294.6559      -298.7223       960.18531      0.99696118
   1044000  -319.58833      47.035913     -366.62424      250.46943     -2694.2464      960.18531      0.99696118
   1045000  -320.52218      55.076142     -375.59832      293.28419     -2350.257       960.18531      0.99696118
   1046000  -325.79715      60.785152     -386.58231      323.68506     -232.63179      960.18531      0.99696118
   1047000  -339.54385      47.102611     -386.64646      250.8246       2010.133       960.18531      0.99696118
   1048000  -326.56428      52.194226     -378.7585       277.93779     -690.34364      960.18531      0.99696118
   1049000  -314.97011      47.799441     -362.76955      254.53527      781.68384      960.18531      0.99696118
   1050000  -329.15404      48.268973     -377.42301      257.03556      1614.833       960.18531      0.99696118
   1051000  -312.21274      57.633945     -369.84669      306.90467      586.39734      960.18531      0.99696118
   1052000  -329.03289      49.194586     -378.22747      261.96451      569.98694      960.18531      0.99696118
   1053000  -332.57196      51.429193     -384.00116      273.86395     -965.33323      960.18531      0.99696118
   1054000  -327.24829      52.030132     -379.27842      277.06399     -733.63738      960.18531      0.99696118
   1055000  -328.06443      49.824216     -377.88865      265.31733      703.50746      960.18531      0.99696118
   1056000  -325.64303      57.383515     -383.02654      305.57111     -2532.7359      960.18531      0.99696118
   1057000  -337.40339      50.27668      -387.68007      267.72673     -645.273        960.18531      0.99696118
   1058000  -343.89573      51.994331     -395.89006      276.87334     -3934.8917      960.18531      0.99696118
   1059000  -331.76902      51.241823     -383.01084      272.86619      1751.5964      960.18531      0.99696118
   1060000  -307.47498      69.257126     -376.73211      368.7989      -405.26863      960.18531      0.99696118
   1061000  -324.43746      59.683016     -384.12047      317.81611     -1375.851       960.18531      0.99696118
   1062000  -334.96871      49.633175     -384.60188      264.30003     -197.7381       960.18531      0.99696118
   1063000  -329.3774       62.940315     -392.31771      335.16145     -31.619518      960.18531      0.99696118
   1064000  -333.07368      52.378631     -385.45231      278.91977      2149.5397      960.18531      0.99696118
   1065000  -339.34654      51.67974      -391.02628      275.19812      2648.7245      960.18531      0.99696118
   1066000  -333.29458      56.401408     -389.69599      300.34132     -914.8677       960.18531      0.99696118
   1067000  -339.25343      53.104783     -392.35822      282.78657      1100.9097      960.18531      0.99696118
   1068000  -328.15902      58.411777     -386.57079      311.04668     -69.044934      960.18531      0.99696118
   1069000  -342.35829      48.302826     -390.66112      257.21583     -1573.398       960.18531      0.99696118
   1070000  -312.09589      69.075554     -381.17144      367.83202     -3043.4828      960.18531      0.99696118
   1071000  -331.95738      50.023127     -381.98051      266.37655     -620.73955      960.18531      0.99696118
   1072000  -316.69176      57.696446     -374.3882       307.23749     -1796.6445      960.18531      0.99696118
   1073000  -331.42537      56.467431     -387.89281      300.6929      -3740.8381      960.18531      0.99696118
   1074000  -331.8683       54.271073     -386.13938      288.99715     -1994.4788      960.18531      0.99696118
   1075000  -334.1601       58.201509     -392.36161      309.92699     -2508.3747      960.18531      0.99696118
   1076000  -307.10246      59.832054     -366.93452      318.60975     -2088.9605      960.18531      0.99696118
   1077000  -310.90703      57.374276     -368.28131      305.52191      1030.1116      960.18531      0.99696118
   1078000  -317.98711      66.625741     -384.61285      354.78659      3043.4416      960.18531      0.99696118
   1079000  -318.5513       51.601559     -370.15285      274.78181     -537.08465      960.18531      0.99696118
   1080000  -303.71361      48.762672     -352.47629      259.66454     -2289.4487      960.18531      0.99696118
   1081000  -313.2065       69.212942     -382.41945      368.56361     -218.77485      960.18531      0.99696118
   1082000  -340.3171       40.400607     -380.7177       215.13598     -2234.3367      960.18531      0.99696118
   1083000  -322.06932      50.743974     -372.81329      270.21511     -1762.0272      960.18531      0.99696118
   1084000  -334.22012      49.207995     -383.42812      262.03591     -2916.2538      960.18531      0.99696118
   1085000  -306.66026      57.224398     -363.88466      304.72381     -860.96656      960.18531      0.99696118
   1086000  -333.11077      51.200996     -384.31176      272.64878     -1090.6687      960.18531      0.99696118
   1087000  -324.46776      58.423832     -382.89159      311.11087     -1313.0327      960.18531      0.99696118
   1088000  -317.93996      63.869489     -381.80945      340.10937      905.64622      960.18531      0.99696118
   1089000  -336.85254      54.512923     -391.36546      290.28502     -2428.5004      960.18531      0.99696118
   1090000  -335.15923      53.445471     -388.6047       284.60076     -2557.7738      960.18531      0.99696118
   1091000  -326.53706      53.440597     -379.97766      284.5748       423.16006      960.18531      0.99696118
   1092000  -345.41354      55.482819     -400.89636      295.44978     -18.531059      960.18531      0.99696118
   1093000  -326.29216      54.542368     -380.83452      290.44181     -429.97923      960.18531      0.99696118
   1094000  -317.50993      60.265972     -377.7759       320.92039     -2821.2851      960.18531      0.99696118
   1095000  -317.34631      63.061584     -380.4079       335.80722     -1289.4999      960.18531      0.99696118
   1096000  -320.03679      49.509609     -369.5464       263.64203     -505.76979      960.18531      0.99696118
   1097000  -314.49148      54.528837     -369.02031      290.36976      558.96575      960.18531      0.99696118
   1098000  -315.49885      59.085325     -374.58418      314.63337     -4273.6528      960.18531      0.99696118
   1099000  -310.54304      62.469447     -373.01248      332.65405      1585.7996      960.18531      0.99696118
   1100000  -328.25673      54.750458     -383.00719      291.54991     -1584.0422      960.18531      0.99696118
   1101000  -333.04755      52.821355     -385.86891      281.2773       387.01138      960.18531      0.99696118
   1102000  -317.48173      60.486665     -377.96839      322.0956       380.68422      960.18531      0.99696118
   1103000  -335.4452       52.793605     -388.23881      281.12953     -1982.708       960.18531      0.99696118
   1104000  -340.25091      54.721286     -394.9722       291.39456      3025.7033      960.18531      0.99696118
   1105000  -307.83405      65.252058     -373.0861       347.47164      655.96116      960.18531      0.99696118
   1106000  -319.62024      57.74804      -377.36828      307.51223      547.67902      960.18531      0.99696118
   1107000  -329.44127      56.927013     -386.36829      303.14021     -1452.8861      960.18531      0.99696118
   1108000  -338.06715      60.66702      -398.73417      323.056        2111.8041      960.18531      0.99696118
   1109000  -329.17955      61.6219       -390.80145      328.1408       677.58128      960.18531      0.99696118
   1110000  -332.75916      51.4425       -384.20166      273.93481     -1684.6603      960.18531      0.99696118
   1111000  -308.65247      54.454106     -363.10657      289.97181      1970.9725      960.18531      0.99696118
   1112000  -320.22467      54.49853      -374.7232       290.20837     -3078.9959      960.18531      0.99696118
   1113000  -338.58442      47.056899     -385.64132      250.58118     -4063.4113      960.18531      0.99696118
   1114000  -313.49715      54.070861     -367.56801      287.93101     -1469.1695      960.18531      0.99696118
   1115000  -335.94154      50.047298     -385.98884      266.50526     -2417.0272      960.18531      0.99696118
   1116000  -336.91262      55.323337     -392.23596      294.60053     -2757.804       960.18531      0.99696118
   1117000  -337.00244      58.663818     -395.66626      312.38881     -890.19066      960.18531      0.99696118
   1118000  -331.49516      58.967615     -390.46278      314.00655      951.71019      960.18531      0.99696118
   1119000  -362.05844      46.778991     -408.83743      249.1013      -1344.3208      960.18531      0.99696118
   1120000  -322.40645      57.11683      -379.52328      304.151       -2585.5114      960.18531      0.99696118
   1121000  -324.99665      53.299977     -378.29663      283.826       -5304.192       960.18531      0.99696118
   1122000  -306.71988      72.058489     -378.77837      383.71635      1346.5059      960.18531      0.99696118
   1123000  -333.15661      54.55467      -387.71128      290.50732     -2635.3255      960.18531      0.99696118
   1124000  -318.61797      64.529278     -383.14725      343.62279      153.98194      960.18531      0.99696118
   1125000  -333.94626      46.840789     -380.78705      249.43038      2419.4128      960.18531      0.99696118
   1126000  -324.34232      58.093086     -382.4354       309.34963     -5083.4575      960.18531      0.99696118
   1127000  -333.82532      58.746022     -392.57134      312.82655     -1179.7561      960.18531      0.99696118
   1128000  -345.38125      50.604714     -395.98597      269.47354      700.10562      960.18531      0.99696118
   1129000  -325.39253      58.140263     -383.53279      309.60085     -132.78705      960.18531      0.99696118
   1130000  -312.38026      63.032157     -375.41242      335.65052     -4498.8413      960.18531      0.99696118
   1131000  -321.20825      52.67758      -373.88583      280.51169     -2057.4259      960.18531      0.99696118
   1132000  -341.90349      49.817434     -391.72092      265.28122     -2832.8368      960.18531      0.99696118
   1133000  -323.54662      57.995667     -381.54229      308.83086     -3209.2174      960.18531      0.99696118
   1134000  -320.37028      63.787299     -384.15757      339.67169     -20.449703      960.18531      0.99696118
   1135000  -335.39505      47.483329     -382.87838      252.85195      911.68722      960.18531      0.99696118
   1136000  -325.80533      58.985295     -384.79062      314.1007       960.69439      960.18531      0.99696118
   1137000  -323.30961      49.896969     -373.20657      265.70475     -203.89853      960.18531      0.99696118
   1138000  -336.47806      57.70358      -394.18164      307.27548     -1906.2107      960.18531      0.99696118
   1139000  -338.40506      54.562604     -392.96767      290.54957     -1291.2155      960.18531      0.99696118
   1140000  -329.95103      57.67777      -387.6288       307.13804     -665.05581      960.18531      0.99696118
   1141000  -314.89701      64.344682     -379.24169      342.6398      -4628.2844      960.18531      0.99696118
   1142000  -321.82502      67.192133     -389.01716      357.80267     -1340.8182      960.18531      0.99696118
   1143000  -327.44113      50.394889     -377.83602      268.3562      -3004.3895      960.18531      0.99696118
   1144000  -318.36973      59.214817     -377.58455      315.32292     -5188.6411      960.18531      0.99696118
   1145000  -309.607        59.756399     -369.3634       318.20688      1659.9522      960.18531      0.99696118
   1146000  -326.36245      49.536147     -375.89859      263.78335     -1542.9145      960.18531      0.99696118
   1147000  -325.10698      57.188572     -382.29555      304.53303      2660.1407      960.18531      0.99696118
   1148000  -330.04739      60.424637     -390.47202      321.76529      819.10555      960.18531      0.99696118
   1149000  -338.64489      51.225347     -389.87024      272.77845     -415.01207      960.18531      0.99696118
   1150000  -309.49951      63.533726     -373.03323      338.32141      933.48853      960.18531      0.99696118
   1151000  -337.92145      57.786146     -395.70759      307.71515     -2114.3147      960.18531      0.99696118
   1152000  -326.23992      52.328307     -378.56822      278.65179     -1790.6721      960.18531      0.99696118
   1153000  -330.4938       55.345297     -385.8391       294.71746     -3015.2604      960.18531      0.99696118
   1154000  -323.57506      51.083176     -374.65823      272.02138      1466.6829      960.18531      0.99696118
   1155000  -332.72154      60.060861     -392.7824       319.82816     -2387.6258      960.18531      0.99696118
   1156000  -327.60043      51.578539     -379.17897      274.65922      2058.4816      960.18531      0.99696118
   1157000  -329.36795      49.535049     -378.903        263.7775      -1496.9748      960.18531      0.99696118
   1158000  -316.80869      55.040019     -371.84871      293.09184     -3609.0065      960.18531      0.99696118
   1159000  -330.15855      46.924617     -377.08317      249.87677      4033.3982      960.18531      0.99696118
   1160000  -302.45814      62.099442     -364.55758      330.68374      1835.64        960.18531      0.99696118
   1161000  -332.16408      53.593767     -385.75785      285.39045      2551.5057      960.18531      0.99696118
   1162000  -338.30446      61.08495      -399.38941      325.28151      684.17499      960.18531      0.99696118
   1163000  -340.65855      51.471591     -392.13014      274.08971      1669.6427      960.18531      0.99696118
   1164000  -351.10551      55.617614     -406.72312      296.16757      4718.3856      960.18531      0.99696118
   1165000  -336.00433      53.408187     -389.41251      284.40222      2316.8591      960.18531      0.99696118
   1166000  -329.94048      61.217798     -391.15828      325.98893     -3153.3216      960.18531      0.99696118
   1167000  -337.47157      58.712147     -396.18371      312.64617     -1992.0241      960.18531      0.99696118
   1168000  -331.34966      61.907365     -393.25703      329.66092     -4492.0153      960.18531      0.99696118
   1169000  -314.52302      58.614303     -373.13732      312.12514      875.16898      960.18531      0.99696118
   1170000  -302.04618      68.067993     -370.11417      362.46668     -2421.0278      960.18531      0.99696118
   1171000  -322.75029      59.759953     -382.51024      318.22581      1503.6957      960.18531      0.99696118
   1172000  -328.9182       50.779181     -379.69738      270.40258      685.70262      960.18531      0.99696118
   1173000  -340.81748      56.686742     -397.50422      301.86075      3935.9319      960.18531      0.99696118
   1174000  -328.90346      60.417449     -389.32091      321.72702      5070.6915      960.18531      0.99696118
   1175000  -339.01444      56.070354     -395.0848       298.57844     -2103.6232      960.18531      0.99696118
   1176000  -325.10282      58.685485     -383.7883       312.50419     -611.82939      960.18531      0.99696118
   1177000  -305.46168      70.423229     -375.88491      375.00848     -1836.4172      960.18531      0.99696118
   1178000  -309.00219      55.986608     -364.9888       298.13249      1896.3769      960.18531      0.99696118
   1179000  -349.52165      43.728911     -393.25056      232.85942     -1161.2405      960.18531      0.99696118
   1180000  -324.67827      64.753255     -389.43152      344.81548     -1749.0275      960.18531      0.99696118
   1181000  -314.02172      64.504877     -378.5266       343.49285      31.054826      960.18531      0.99696118
   1182000  -347.96734      57.226655     -405.19399      304.73582      312.60665      960.18531      0.99696118
   1183000  -332.32029      59.44108      -391.76137      316.52779     -263.05806      960.18531      0.99696118
   1184000  -340.05161      60.792185     -400.8438       323.72251     -4040.0876      960.18531      0.99696118
   1185000  -310.31288      61.556849     -371.86973      327.7944       4612.1136      960.18531      0.99696118
   1186000  -314.43477      54.990075     -369.42484      292.82588      501.4414       960.18531      0.99696118
   1187000  -330.052        57.608138     -387.66014      306.76725     -1619.2827      960.18531      0.99696118
   1188000  -318.96694      60.48625      -379.45319      322.09339     -1548.1257      960.18531      0.99696118
   1189000  -329.88161      55.134707     -385.01632      293.59606      4406.3913      960.18531      0.99696118
   1190000  -335.85118      50.317885     -386.16906      267.94615     -2354.697       960.18531      0.99696118
   1191000  -344.90707      50.137268     -395.04434      266.98436      2059.4972      960.18531      0.99696118
   1192000  -341.19664      62.045396     -403.24204      330.39595      1189.6954      960.18531      0.99696118
   1193000  -335.3225       52.565953     -387.88845      279.91727      4772.8444      960.18531      0.99696118
   1194000  -321.47122      67.578637     -389.04986      359.86083      2639.9452      960.18531      0.99696118
   1195000  -329.1336       64.074341     -393.20794      341.20021     -1460.3636      960.18531      0.99696118
   1196000  -334.67827      53.682372     -388.36064      285.86227     -1234.4548      960.18531      0.99696118
   1197000  -340.00075      51.079391     -391.08014      272.00122      812.67747      960.18531      0.99696118
   1198000  -331.95917      49.423779     -381.38295      263.18498     -209.30457      960.18531      0.99696118
   1199000  -345.46374      56.929611     -402.39335      303.15404     -4593.6018      960.18531      0.99696118
   1200000  -340.41924      55.191371     -395.61061      293.8978       894.04608      960.18531      0.99696118
   1201000  -324.24888      65.498026     -389.74691      348.78144     -1288.1456      960.18531      0.99696118
   1202000  -332.06969      54.113163     -386.18285      288.15627     -1731.2089      960.18531      0.99696118
   1203000  -329.52248      54.843113     -384.3656       292.0433      -2634.4399      960.18531      0.99696118
   1204000  -342.06909      47.092591     -389.16168      250.77124      3032.7429      960.18531      0.99696118
   1205000  -343.42029      57.655522     -401.07581      307.01957      2524.0792      960.18531      0.99696118
   1206000  -336.19433      54.117446     -390.31178      288.17908      1028.2202      960.18531      0.99696118
   1207000  -331.87871      56.633379     -388.51209      301.57659     -1371.2598      960.18531      0.99696118
   1208000  -324.75828      61.462805     -386.22108      327.29361     -957.21234      960.18531      0.99696118
   1209000  -305.75162      59.84499      -365.59661      318.67864     -3442.2172      960.18531      0.99696118
   1210000  -325.78787      52.661167     -378.44904      280.42429     -1156.4597      960.18531      0.99696118
   1211000  -319.8067       50.03559      -369.84229      266.44291      584.14106      960.18531      0.99696118
   1212000  -336.65897      47.359761     -384.01873      252.19394      1896.2721      960.18531      0.99696118
   1213000  -326.85707      49.24197      -376.09904      262.21683     -1608.3595      960.18531      0.99696118
   1214000  -342.04937      55.729379     -397.77875      296.76273     -1932.2595      960.18531      0.99696118
   1215000  -315.72992      60.033868     -375.76379      319.68442      2196.7372      960.18531      0.99696118
   1216000  -304.95151      67.713144     -372.66465      360.57709     -4234.0682      960.18531      0.99696118
   1217000  -313.49993      72.087302     -385.58724      383.86978      4596.1622      960.18531      0.99696118
   1218000  -335.80348      59.317975     -395.12146      315.87224     -4731.4813      960.18531      0.99696118
   1219000  -325.3438       53.742274     -379.08607      286.18126      3454.4556      960.18531      0.99696118
   1220000  -318.07851      55.346559     -373.42507      294.72418     -78.535194      960.18531      0.99696118
   1221000  -347.27783      46.692395     -393.97022      248.64017     -3874.1955      960.18531      0.99696118
   1222000  -331.79937      51.14035      -382.93972      272.32583      595.81467      960.18531      0.99696118
   1223000  -310.51566      67.442997     -377.95866      359.13854     -2160.4676      960.18531      0.99696118
   1224000  -327.97734      57.088623     -385.06596      304.00079     -876.89911      960.18531      0.99696118
   1225000  -325.80526      59.307459     -385.11272      315.81624     -1710.734       960.18531      0.99696118
   1226000  -331.2251       55.10392      -386.32902      293.43212      9.0643188      960.18531      0.99696118
   1227000  -327.80077      65.415246     -393.21602      348.34062      3445.5671      960.18531      0.99696118
   1228000  -315.32856      64.710886     -380.03944      344.58986      42.312306      960.18531      0.99696118
   1229000  -315.94145      51.606768     -367.54821      274.80954     -3044.2862      960.18531      0.99696118
   1230000  -322.73807      53.998063     -376.73613      287.54335     -1296.362       960.18531      0.99696118
   1231000  -304.97718      59.197073     -364.17425      315.22843      1276.5192      960.18531      0.99696118
   1232000  -327.9159       52.411203     -380.3271       279.09321      54.191737      960.18531      0.99696118
   1233000  -346.13689      46.948219     -393.08511      250.00246      1398.3128      960.18531      0.99696118
   1234000  -326.97533      59.000926     -385.97626      314.18393     -1161.7485      960.18531      0.99696118
   1235000  -326.39086      66.88942      -393.28028      356.1907      -1461.4542      960.18531      0.99696118
   1236000  -335.40879      46.129776     -381.53857      245.64419     -293.57175      960.18531      0.99696118
   1237000  -334.24523      51.969033     -386.21426      276.73863     -4015.3148      960.18531      0.99696118
   1238000  -327.17368      50.498722     -377.6724       268.90912     -454.3155       960.18531      0.99696118
   1239000  -310.6527       52.270126     -362.92282      278.34197      3076.4944      960.18531      0.99696118
   1240000  -348.9998       48.022873     -397.02267      255.72506     -3001.3125      960.18531      0.99696118
   1241000  -320.98798      54.155102     -375.14308      288.37959      233.82         960.18531      0.99696118
   1242000  -314.15251      55.620796     -369.77331      296.18452      223.21348      960.18531      0.99696118
   1243000  -315.65606      65.816943     -381.473        350.47969     -1087.7622      960.18531      0.99696118
   1244000  -317.72446      63.363625     -381.08809      337.41561     -2208.292       960.18531      0.99696118
   1245000  -340.52401      55.107926     -395.63194      293.45345      662.45331      960.18531      0.99696118
   1246000  -321.73412      58.089656     -379.82378      309.33136     -1759.224       960.18531      0.99696118
   1247000  -320.90409      57.542669     -378.44676      306.41862     -2582.7219      960.18531      0.99696118
   1248000  -340.20625      67.84217      -408.04842      361.26416      505.50115      960.18531      0.99696118
   1249000  -328.39105      61.343064     -389.73411      326.65598      2304.5346      960.18531      0.99696118
   1250000  -347.5855       49.344596     -396.9301       262.76333     -1369.8045      960.18531      0.99696118
   1251000  -346.73087      47.967765     -394.69864      255.4316      -3520.1153      960.18531      0.99696118
   1252000  -324.20294      52.920177     -377.12312      281.80353     -2689.0285      960.18531      0.99696118
   1253000  -343.8529       56.774305     -400.62721      302.32703     -41.870329      960.18531      0.99696118
   1254000  -323.86371      51.450011     -375.31372      273.9748      -2405.1607      960.18531      0.99696118
   1255000  -311.94501      60.372736     -372.31774      321.48892     -4538.2986      960.18531      0.99696118
   1256000  -339.3533       53.244892     -392.59819      283.53266      4577.7546      960.18531      0.99696118
   1257000  -322.21469      48.646075     -370.86076      259.04365     -416.93982      960.18531      0.99696118
   1258000  -330.49579      56.844877     -387.34067      302.70283     -5897.5746      960.18531      0.99696118
   1259000  -313.98945      60.079982     -374.06943      319.92998     -1972.3457      960.18531      0.99696118
   1260000  -322.28205      55.282346     -377.5644       294.38224      1745.6489      960.18531      0.99696118
   1261000  -302.96504      67.889456     -370.85449      361.51596     -271.4114       960.18531      0.99696118
   1262000  -327.67208      58.414973     -386.08705      311.0637      -2760.7418      960.18531      0.99696118
   1263000  -323.37957      65.449867     -388.82943      348.52498     -2596.0124      960.18531      0.99696118
   1264000  -323.72967      61.466976     -385.19665      327.31582      1180.5421      960.18531      0.99696118
   1265000  -344.11037      57.604264     -401.71463      306.74661     -1250.6495      960.18531      0.99696118
   1266000  -324.17382      55.026015     -379.19984      293.01726     -2580.9651      960.18531      0.99696118
   1267000  -312.50684      57.520662     -370.0275       306.30143     -883.21231      960.18531      0.99696118
   1268000  -314.16294      54.093449     -368.25639      288.05129     -1549.5774      960.18531      0.99696118
   1269000  -311.51112      62.269877     -373.781        331.59132     -2713.2079      960.18531      0.99696118
   1270000  -317.76551      65.943826     -383.70933      351.15535     -1727.0559      960.18531      0.99696118
   1271000  -319.01495      54.074582     -373.08954      287.95082     -2298.323       960.18531      0.99696118
   1272000  -330.48896      46.141707     -376.63067      245.70772      3290.9662      960.18531      0.99696118
   1273000  -312.68017      59.15145      -371.83162      314.98549      417.03735      960.18531      0.99696118
   1274000  -325.97938      45.602666     -371.58205      242.83729      188.86936      960.18531      0.99696118
   1275000  -322.22306      61.062461     -383.28552      325.16175      867.99407      960.18531      0.99696118
   1276000  -340.18056      55.709316     -395.88987      296.65589     -4368.1225      960.18531      0.99696118
   1277000  -337.3517       45.041393     -382.39309      239.84847     -495.88724      960.18531      0.99696118
   1278000  -315.06395      67.19613      -382.26008      357.82396      882.90991      960.18531      0.99696118
   1279000  -329.05811      51.208685     -380.2668       272.68972      1413.8949      960.18531      0.99696118
   1280000  -322.74906      60.1815       -382.93056      320.47058     -330.67175      960.18531      0.99696118
   1281000  -306.06723      63.875335     -369.94257      340.1405       988.02149      960.18531      0.99696118
   1282000  -332.26684      58.421007     -390.68785      311.09583     -2432.4681      960.18531      0.99696118
   1283000  -324.69802      52.886108     -377.58413      281.62212     -188.51676      960.18531      0.99696118
   1284000  -324.0944       56.656904     -380.7513       301.70186      561.42637      960.18531      0.99696118
   1285000  -328.87024      53.512359     -382.3826       284.95694     -2712.632       960.18531      0.99696118
   1286000  -332.18789      57.355038     -389.54293      305.41947     -755.57046      960.18531      0.99696118
   1287000  -311.78811      61.172882     -372.96099      325.74975      1914.0667      960.18531      0.99696118
   1288000  -306.50646      69.519698     -376.02616      370.19711     -350.94337      960.18531      0.99696118
   1289000  -323.33739      55.230383     -378.56777      294.10554      2576.9066      960.18531      0.99696118
   1290000  -334.65348      63.230088     -397.88357      336.70451      4117.0324      960.18531      0.99696118
   1291000  -318.73323      64.176402     -382.90963      341.7437       1475.4496      960.18531      0.99696118
   1292000  -335.68016      53.268834     -388.94899      283.66016     -3926.5193      960.18531      0.99696118
   1293000  -345.3584       51.686634     -397.04503      275.23484      519.07428      960.18531      0.99696118
   1294000  -327.52967      57.156141     -384.68581      304.36033      3181.9999      960.18531      0.99696118
   1295000  -336.70266      62.352716     -399.05538      332.03244     -1998.8634      960.18531      0.99696118
   1296000  -326.8241       67.11284      -393.93694      357.38043      1672.076       960.18531      0.99696118
   1297000  -315.49063      60.603696     -376.09432      322.71879      2833.9358      960.18531      0.99696118
   1298000  -324.2422       54.49851      -378.74071      290.20827      2709.5378      960.18531      0.99696118
   1299000  -316.14011      54.992552     -371.13266      292.83907      1244.254       960.18531      0.99696118
   1300000  -328.4067       59.350056     -387.75676      316.04307     -3814.744       960.18531      0.99696118
   1301000  -333.68753      49.110298     -382.79782      261.51567     -178.77367      960.18531      0.99696118
   1302000  -307.38001      50.363        -357.74301      268.18639      2779.0483      960.18531      0.99696118
   1303000  -329.02751      50.238467     -379.26598      267.52325      461.05579      960.18531      0.99696118
   1304000  -334.71148      55.099082     -389.81056      293.40635     -2718.8796      960.18531      0.99696118
   1305000  -319.4135       67.020403     -386.4339       356.8882      -2234.5969      960.18531      0.99696118
   1306000  -336.51836      54.878421     -391.39678      292.23132     -484.18451      960.18531      0.99696118
   1307000  -312.27835      59.195424     -371.47378      315.21965      4526.797       960.18531      0.99696118
   1308000  -325.17362      47.464753     -372.63838      252.75303      3992.9497      960.18531      0.99696118
   1309000  -332.04464      47.796177     -379.84081      254.51789     -2880.2923      960.18531      0.99696118
   1310000  -320.57709      58.075685     -378.65278      309.25696     -1026.3555      960.18531      0.99696118
   1311000  -320.73266      57.995051     -378.72771      308.82758      1985.8827      960.18531      0.99696118
   1312000  -341.65211      46.334875     -387.98699      246.73635      33.494295      960.18531      0.99696118
   1313000  -324.8444       52.583743     -377.42814      280.012       -2190.6035      960.18531      0.99696118
   1314000  -312.29517      64.396846     -376.69201      342.91758      217.82179      960.18531      0.99696118
   1315000  -307.4845       52.794126     -360.27863      281.13231     -2097.9456      960.18531      0.99696118
   1316000  -319.65544      58.976994     -378.63244      314.0565       394.50647      960.18531      0.99696118
   1317000  -339.14599      52.925147     -392.07114      281.83        -717.51033      960.18531      0.99696118
   1318000  -343.42138      54.862226     -398.2836       292.14508     -2257.3435      960.18531      0.99696118
   1319000  -330.92289      48.398021     -379.32092      257.72275     -1250.3303      960.18531      0.99696118
   1320000  -333.29563      61.396558     -394.69219      326.94084     -1600.6884      960.18531      0.99696118
   1321000  -330.01075      55.732329     -385.74308      296.77844     -3942.0748      960.18531      0.99696118
   1322000  -321.75962      53.629689     -375.38931      285.58173     -1920.4036      960.18531      0.99696118
   1323000  -340.87216      49.587201     -390.45936      264.05521     -1008.6857      960.18531      0.99696118
   1324000  -329.74365      59.255429     -388.99908      315.53918      1798.6808      960.18531      0.99696118
   1325000  -327.73304      57.35801      -385.09105      305.4353      -2280.5746      960.18531      0.99696118
   1326000  -328.65505      61.267649     -389.9227       326.25439     -2840.8292      960.18531      0.99696118
   1327000  -325.26903      56.792361     -382.06139      302.42318     -1256.9547      960.18531      0.99696118
   1328000  -334.96143      57.365003     -392.32643      305.47253     -861.59223      960.18531      0.99696118
   1329000  -323.4509       53.401569     -376.85247      284.36698     -1665.8096      960.18531      0.99696118
   1330000  -329.82912      51.786142     -381.61526      275.76472      3169.9713      960.18531      0.99696118
   1331000  -331.26723      58.520078     -389.78731      311.62339     -2180.2467      960.18531      0.99696118
   1332000  -309.74462      64.362866     -374.10749      342.73663     -4175.5258      960.18531      0.99696118
   1333000  -309.39671      63.461199     -372.85791      337.93519      347.56429      960.18531      0.99696118
   1334000  -323.30644      57.62418      -380.93062      306.85267     -1372.5284      960.18531      0.99696118
   1335000  -332.93656      55.080817     -388.01738      293.30909     -151.68056      960.18531      0.99696118
   1336000  -309.03884      58.732575     -367.77142      312.75495     -3473.687       960.18531      0.99696118
   1337000  -322.28825      53.757111     -376.04536      286.26027     -148.83         960.18531      0.99696118
   1338000  -346.24256      54.053019     -400.29558      287.836        383.59148      960.18531      0.99696118
   1339000  -311.37312      60.594147     -371.96727      322.66795      4823.9129      960.18531      0.99696118
   1340000  -304.91732      69.29668      -374.214        369.00953      1047.5148      960.18531      0.99696118
   1341000  -334.36363      50.400879     -384.76451      268.3881      -360.87898      960.18531      0.99696118
   1342000  -320.59954      50.638121     -371.23766      269.65143      3531.8325      960.18531      0.99696118
   1343000  -306.31301      63.827931     -370.14094      339.88807      3803.6837      960.18531      0.99696118
   1344000  -325.19645      49.85659      -375.05304      265.48973     -3761.1043      960.18531      0.99696118
   1345000  -339.7684       48.967049     -388.73545      260.75286     -3892.0853      960.18531      0.99696118
   1346000  -318.72067      50.748959     -369.46963      270.24165      731.25049      960.18531      0.99696118
   1347000  -351.22337      39.332916     -390.55628      209.45045     -1244.4237      960.18531      0.99696118
   1348000  -315.44076      63.156161     -378.59692      336.31085     -588.90173      960.18531      0.99696118
   1349000  -328.20146      53.923174     -382.12463      287.14456      131.34898      960.18531      0.99696118
   1350000  -327.91662      56.64478      -384.5614       301.6373      -2271.4919      960.18531      0.99696118
   1351000  -326.79627      54.458465     -381.25474      289.99502     -1934.2911      960.18531      0.99696118
   1352000  -336.10821      61.146507     -397.25472      325.6093      -4169.7121      960.18531      0.99696118
   1353000  -321.94355      58.308546     -380.2521       310.49696     -427.71934      960.18531      0.99696118
   1354000  -335.94494      50.549124     -386.49407      269.17752     -385.91064      960.18531      0.99696118
   1355000  -330.53804      66.298585     -396.83663      353.04447     -3189.6306      960.18531      0.99696118
   1356000  -326.26523      62.515639     -388.78087      332.90002     -257.11184      960.18531      0.99696118
   1357000  -342.83413      51.676262     -394.51039      275.1796       124.79431      960.18531      0.99696118
   1358000  -332.23761      56.065593     -388.3032       298.55309     -5442.4346      960.18531      0.99696118
   1359000  -327.64403      53.68423      -381.32826      285.87217     -835.9043       960.18531      0.99696118
   1360000  -336.4756       53.457934     -389.93353      284.66713      971.05631      960.18531      0.99696118
   1361000  -328.95168      62.415327     -391.36701      332.36585     -451.12599      960.18531      0.99696118
   1362000  -343.5686       51.75526      -395.32386      275.60027      295.68555      960.18531      0.99696118
   1363000  -320.36294      57.395186     -377.75812      305.63326      5460.467       960.18531      0.99696118
   1364000  -317.01915      58.21645      -375.2356       310.00655      148.76304      960.18531      0.99696118
   1365000  -329.59123      56.767457     -386.35869      302.29056      4635.85        960.18531      0.99696118
   1366000  -305.95364      61.865697     -367.81934      329.43904     -270.34795      960.18531      0.99696118
   1367000  -322.17417      61.218423     -383.39259      325.99226     -1987.8274      960.18531      0.99696118
   1368000  -328.54557      62.808314     -391.35389      334.45853     -2011.6018      960.18531      0.99696118
   1369000  -323.91685      56.642563     -380.55941      301.62549     -405.8551       960.18531      0.99696118
   1370000  -323.83294      59.635044     -383.46799      317.56066     -339.14623      960.18531      0.99696118
   1371000  -340.76418      60.439079     -401.20326      321.8422      -637.30201      960.18531      0.99696118
   1372000  -330.13727      52.686192     -382.82346      280.55755     -3162.1407      960.18531      0.99696118
   1373000  -332.25448      51.662596     -383.91708      275.10683     -560.81596      960.18531      0.99696118
   1374000  -307.61295      63.80063      -371.41358      339.74269      303.78336      960.18531      0.99696118
   1375000  -336.38417      50.568026     -386.9522       269.27817     -448.91893      960.18531      0.99696118
   1376000  -317.77558      60.669828     -378.44541      323.07095      1959.5731      960.18531      0.99696118
   1377000  -323.72431      51.559336     -375.28365      274.55696     -1435.4679      960.18531      0.99696118
   1378000  -324.58381      60.590032     -385.17384      322.64603      859.45636      960.18531      0.99696118
   1379000  -313.21861      56.533268     -369.75188      301.04349      763.93325      960.18531      0.99696118
   1380000  -338.3763       53.811258     -392.18756      286.5486      -591.11977      960.18531      0.99696118
   1381000  -347.85254      48.462315     -396.31485      258.06512     -1507.7084      960.18531      0.99696118
   1382000  -328.80904      59.903895     -388.71294      318.99231     -946.69935      960.18531      0.99696118
   1383000  -335.82025      57.988496     -393.80875      308.79268     -1568.2456      960.18531      0.99696118
   1384000  -316.69231      62.015689     -378.708        330.23775      105.2977       960.18531      0.99696118
   1385000  -322.95976      51.25247      -374.21223      272.92288     -2034.3911      960.18531      0.99696118
   1386000  -314.08685      63.851185     -377.93804      340.01189      1176.1936      960.18531      0.99696118
   1387000  -331.61994      46.22979      -377.84973      246.17677     -1416.0634      960.18531      0.99696118
   1388000  -314.03821      54.519718     -368.55793      290.3212      -4310.8115      960.18531      0.99696118
   1389000  -315.14919      59.488523     -374.63772      316.78043      1496.6826      960.18531      0.99696118
   1390000  -333.90268      61.912528     -395.81521      329.68841     -1712.5793      960.18531      0.99696118
   1391000  -335.98103      54.876673     -390.85771      292.22201      66.134195      960.18531      0.99696118
   1392000  -336.51025      50.911107     -387.42136      271.1051       1099.0008      960.18531      0.99696118
   1393000  -327.47265      53.571195     -381.04385      285.27025      1077.476       960.18531      0.99696118
   1394000  -344.17639      57.160892     -401.33728      304.38563      1481.0803      960.18531      0.99696118
   1395000  -336.37626      48.912602     -385.28886      260.46293      830.41299      960.18531      0.99696118
   1396000  -316.33124      62.610137     -378.94138      333.40323     -192.15356      960.18531      0.99696118
   1397000  -315.44845      65.79221      -381.24066      350.34799     -1548.4237      960.18531      0.99696118
   1398000  -340.08033      50.210748     -390.29108      267.37564     -874.36295      960.18531      0.99696118
   1399000  -324.11655      58.513494     -382.63005      311.58833     -240.98901      960.18531      0.99696118
   1400000  -320.38011      47.625551     -368.00566      253.60929     -617.10905      960.18531      0.99696118
   1401000  -333.2662       54.006032     -387.27223      287.58579     -2707.074       960.18531      0.99696118
   1402000  -323.65032      59.147935     -382.79825      314.96677     -3274.1126      960.18531      0.99696118
   1403000  -312.24         61.933541     -374.17354      329.80031      3971.8388      960.18531      0.99696118
   1404000  -331.1111       57.018235     -388.12933      303.62597     -2305.3168      960.18531      0.99696118
   1405000  -329.17019      54.290949     -383.46114      289.10299      1152.4634      960.18531      0.99696118
   1406000  -313.139        68.664266     -381.80327      365.64188      4562.4713      960.18531      0.99696118
   1407000  -334.254        48.454617     -382.70862      258.02413     -7.972422       960.18531      0.99696118
   1408000  -307.77601      59.053324     -366.82933      314.46296     -2485.7643      960.18531      0.99696118
   1409000  -339.67526      48.492331     -388.1676       258.22495      2487.989       960.18531      0.99696118
   1410000  -335.34021      58.265784     -393.60599      310.26925     -707.19124      960.18531      0.99696118
   1411000  -337.11768      50.287442     -387.40512      267.78404     -2786.8107      960.18531      0.99696118
   1412000  -326.59839      61.80861      -388.407        329.13505      4155.3409      960.18531      0.99696118
   1413000  -332.50865      55.646071     -388.15473      296.31911     -761.62813      960.18531      0.99696118
   1414000  -333.35378      50.695854     -384.04963      269.95886      420.66695      960.18531      0.99696118
   1415000  -344.19165      46.874707     -391.06635      249.611       -2135.6651      960.18531      0.99696118
   1416000  -322.63231      49.687793     -372.3201       264.59087      662.51952      960.18531      0.99696118
   1417000  -330.60671      50.669765     -381.27647      269.81994     -1068.2547      960.18531      0.99696118
   1418000  -335.35887      54.667736     -390.02661      291.1094       585.75533      960.18531      0.99696118
   1419000  -318.5637       54.323024     -372.88673      289.27379      360.6177       960.18531      0.99696118
   1420000  -330.88873      53.737364     -384.62609      286.15511     -698.45639      960.18531      0.99696118
   1421000  -331.90581      55.165213     -387.07103      293.7585       655.32023      960.18531      0.99696118
   1422000  -318.9826       59.515209     -378.49781      316.92253      875.72484      960.18531      0.99696118
   1423000  -332.44224      58.668789     -391.11103      312.41529     -2194.7266      960.18531      0.99696118
   1424000  -341.41137      59.119148     -400.53052      314.81348     -1981.4052      960.18531      0.99696118
   1425000  -333.77008      48.84953      -382.61961      260.12706     -1433.2299      960.18531      0.99696118
   1426000  -335.5264       49.874356     -385.40076      265.58433     -1976.9054      960.18531      0.99696118
   1427000  -322.74046      59.729439     -382.4699       318.06331      1136.6483      960.18531      0.99696118
   1428000  -349.60302      53.32833      -402.93135      283.97698      2804.7389      960.18531      0.99696118
   1429000  -333.107        61.421449     -394.52845      327.07338     -32.821279      960.18531      0.99696118
   1430000  -339.31334      56.495209     -395.80855      300.84082      612.01989      960.18531      0.99696118
   1431000  -314.41262      53.122015     -367.53464      282.87834     -1674.9249      960.18531      0.99696118
   1432000  -339.61606      59.644666     -399.26072      317.61189     -2802.215       960.18531      0.99696118
   1433000  -325.34277      69.372975     -394.71574      369.4158       3774.4935      960.18531      0.99696118
   1434000  -330.27521      58.192324     -388.46754      309.87808      676.91364      960.18531      0.99696118
   1435000  -335.19396      62.790249     -397.98421      334.36234     -2649.9679      960.18531      0.99696118
   1436000  -332.08195      55.611151     -387.6931       296.13315     -5054.4232      960.18531      0.99696118
   1437000  -336.28407      57.348981     -393.63305      305.38722      718.33864      960.18531      0.99696118
   1438000  -330.3304       59.44096      -389.77136      316.52715      1717.7529      960.18531      0.99696118
   1439000  -302.50923      68.271106     -370.78033      363.54827     -4071.3371      960.18531      0.99696118
   1440000  -313.96087      62.434478     -376.39535      332.46783      270.19538      960.18531      0.99696118
   1441000  -320.69986      61.465711     -382.16557      327.30908      2183.4857      960.18531      0.99696118
   1442000  -321.60363      58.221181     -379.82481      310.03174     -524.27071      960.18531      0.99696118
   1443000  -321.80928      58.018829     -379.82811      308.95421      3336.6528      960.18531      0.99696118
   1444000  -307.9642       61.089397     -369.0536       325.30519     -2239.9275      960.18531      0.99696118
   1445000  -330.72175      52.554311     -383.27606      279.85527     -2300.8235      960.18531      0.99696118
   1446000  -325.63687      56.104315     -381.74119      298.75929      1919.81        960.18531      0.99696118
   1447000  -307.21736      53.906865     -361.12423      287.05771      947.23437      960.18531      0.99696118
   1448000  -341.36942      57.624285     -398.99371      306.85323     -514.04329      960.18531      0.99696118
   1449000  -324.03324      55.316186     -379.34943      294.56244     -162.98161      960.18531      0.99696118
   1450000  -335.29287      49.403276     -384.69615      263.0758       2144.7626      960.18531      0.99696118
   1451000  -317.25479      51.20113      -368.45592      272.64949     -2113.9844      960.18531      0.99696118
   1452000  -335.49641      47.664744     -383.16116      253.818       -1955.0787      960.18531      0.99696118
   1453000  -318.34749      54.042447     -372.38994      287.7797       6004.5141      960.18531      0.99696118
   1454000  -306.42788      69.977417     -376.4053       372.63449     -543.80918      960.18531      0.99696118
   1455000  -323.58116      56.756353     -380.33752      302.23143      2382.1545      960.18531      0.99696118
   1456000  -329.31603      52.258229     -381.57426      278.27862     -1815.1595      960.18531      0.99696118
   1457000  -314.75798      67.730779     -382.48876      360.671        457.94448      960.18531      0.99696118
   1458000  -324.51429      53.800702     -378.31499      286.49239     -1302.7826      960.18531      0.99696118
   1459000  -312.37228      61.735591     -374.10787      328.74621      54.197298      960.18531      0.99696118
   1460000  -333.15366      58.682947     -391.83661      312.49068     -1932.9408      960.18531      0.99696118
   1461000  -320.3931       57.562886     -377.95599      306.52628      2290.5005      960.18531      0.99696118
   1462000  -340.04476      56.810879     -396.85564      302.52179     -2469.5472      960.18531      0.99696118
   1463000  -341.07734      56.140902     -397.21824      298.95411     -2179.1629      960.18531      0.99696118
   1464000  -333.66608      58.588063     -392.25414      311.98541     -401.63288      960.18531      0.99696118
   1465000  -335.73613      55.91537      -391.6515       297.75314      1774.3108      960.18531      0.99696118
   1466000  -313.29007      61.301887     -374.59196      326.43671      874.65589      960.18531      0.99696118
   1467000  -331.26479      60.057231     -391.32202      319.80883     -1701.2305      960.18531      0.99696118
   1468000  -315.48719      65.776953     -381.26414      350.26674      1391.6882      960.18531      0.99696118
   1469000  -325.41189      58.499788     -383.91168      311.51534     -2163.9456      960.18531      0.99696118
   1470000  -330.02065      58.261166     -388.28182      310.24466     -432.32113      960.18531      0.99696118
   1471000  -319.91072      61.80052      -381.71124      329.09196      1701.7793      960.18531      0.99696118
   1472000  -343.73514      48.694967     -392.43011      259.304       -3193.2644      960.18531      0.99696118
   1473000  -344.13595      57.982529     -402.11848      308.76091     -3414.366       960.18531      0.99696118
   1474000  -343.04448      50.879125     -393.9236       270.93479     -1002.0114      960.18531      0.99696118
   1475000  -326.08985      61.03408      -387.12393      325.01062      818.58965      960.18531      0.99696118
   1476000  -347.77468      50.093859     -397.86854      266.7532      -14.561949      960.18531      0.99696118
   1477000  -342.95704      57.380879     -400.33792      305.55707      295.37278      960.18531      0.99696118
   1478000  -335.31078      46.75822      -382.069        248.99069      4373.2465      960.18531      0.99696118
   1479000  -310.49939      64.342861     -374.84225      342.6301      -3553.3962      960.18531      0.99696118
   1480000  -304.8067       56.927266     -361.73397      303.14156     -1305.2087      960.18531      0.99696118
   1481000  -311.10408      58.14437      -369.24845      309.62272     -857.31489      960.18531      0.99696118
   1482000  -330.05928      54.404573     -384.46385      289.70805     -3677.7591      960.18531      0.99696118
   1483000  -326.22354      50.240072     -376.46361      267.53179     -1526.3755      960.18531      0.99696118
   1484000  -333.69104      51.107033     -384.79807      272.14842     -3203.1021      960.18531      0.99696118
   1485000  -335.90384      53.976745     -389.88059      287.42983     -3921.855       960.18531      0.99696118
   1486000  -322.09747      54.943591     -377.04106      292.57835     -1397.889       960.18531      0.99696118
   1487000  -322.58688      52.466397     -375.05327      279.38713     -511.75843      960.18531      0.99696118
   1488000  -330.50408      51.816298     -382.32038      275.92531      2014.7136      960.18531      0.99696118
   1489000  -336.97679      45.777937     -382.75473      243.77062      1895.1002      960.18531      0.99696118
   1490000  -305.29262      52.270246     -357.56287      278.34261      198.2033       960.18531      0.99696118
   1491000  -328.92409      57.234988     -386.15908      304.7802       425.07712      960.18531      0.99696118
   1492000  -327.27476      48.283401     -375.55816      257.11239      4015.2887      960.18531      0.99696118
   1493000  -312.84158      63.256364     -376.09794      336.84443     -4362.1783      960.18531      0.99696118
   1494000  -331.25861      53.214231     -384.47284      283.36939     -1744.4029      960.18531      0.99696118
   1495000  -296.75296      80.148132     -376.90109      426.79425      2566.3326      960.18531      0.99696118
   1496000  -332.49003      52.557551     -385.04758      279.87253     -948.21556      960.18531      0.99696118
   1497000  -325.55452      58.874374     -384.42889      313.51004     -439.55031      960.18531      0.99696118
   1498000  -329.21375      56.707597     -385.92134      301.9718      -1292.0651      960.18531      0.99696118
   1499000  -330.21359      55.752259     -385.96585      296.88456      3690.7341      960.18531      0.99696118
   1500000  -309.84538      63.954292     -373.79967      340.56094     -7524.1142      960.18531      0.99696118
   1501000  -326.71087      61.89743      -388.6083       329.60802      4402.8791      960.18531      0.99696118
   1502000  -326.10945      55.13209      -381.24154      293.58212     -1075.83        960.18531      0.99696118
   1503000  -307.95892      59.243337     -367.20226      315.47479     -256.96332      960.18531      0.99696118
   1504000  -309.94007      57.898104     -367.83817      308.31133     -4374.3314      960.18531      0.99696118
   1505000  -323.4384       53.414669     -376.85307      284.43674     -4270.4398      960.18531      0.99696118
   1506000  -328.21784      40.979492     -369.19733      218.21858      77.054919      960.18531      0.99696118
   1507000  -321.08275      53.28949      -374.37224      283.77015     -572.43151      960.18531      0.99696118
   1508000  -324.93527      62.215196     -387.15047      331.30014      460.40222      960.18531      0.99696118
   1509000  -333.56727      57.739546     -391.30681      307.467       -2382.8109      960.18531      0.99696118
   1510000  -351.74047      53.565364     -405.30583      285.2392      -2561.5368      960.18531      0.99696118
   1511000  -320.77799      57.836281     -378.61427      307.98212     -3872.4025      960.18531      0.99696118
   1512000  -320.7933       52.786505     -373.5798       281.09172      2943.0707      960.18531      0.99696118
   1513000  -310.54642      52.103003     -362.64942      277.45203     -913.30283      960.18531      0.99696118
   1514000  -326.24104      66.134751     -392.37579      352.17204     -2167.0925      960.18531      0.99696118
   1515000  -317.25713      63.514241     -380.77137      338.21764      1329.6471      960.18531      0.99696118
   1516000  -326.35319      51.518349     -377.87154      274.3387       418.55997      960.18531      0.99696118
   1517000  -296.83294      63.440647     -360.27359      337.82575     -5159.6031      960.18531      0.99696118
   1518000  -303.23537      57.055523     -360.2909       303.82454     -666.49845      960.18531      0.99696118
   1519000  -312.10532      63.022522     -375.12784      335.59921      3128.1555      960.18531      0.99696118
   1520000  -323.60853      65.560342     -389.16887      349.11327      1976.0971      960.18531      0.99696118
   1521000  -343.77159      53.30034      -397.07193      283.82793     -550.76466      960.18531      0.99696118
   1522000  -340.84856      54.097098     -394.94565      288.07072     -1854.9574      960.18531      0.99696118
   1523000  -328.36516      53.147416     -381.51258      283.0136      -1118.4415      960.18531      0.99696118
   1524000  -340.48632      50.944678     -391.431        271.28387      3048.4485      960.18531      0.99696118
   1525000  -321.35768      57.917594     -379.27527      308.41512      1945.0679      960.18531      0.99696118
   1526000  -328.57475      55.210585     -383.78533      294.00011     -449.11611      960.18531      0.99696118
   1527000  -325.46009      55.876551     -381.33664      297.54643     -3365.2754      960.18531      0.99696118
   1528000  -324.84012      51.811546     -376.65166      275.9          1533.5687      960.18531      0.99696118
   1529000  -318.99573      59.621601     -378.61733      317.48908      474.94241      960.18531      0.99696118
   1530000  -308.07734      61.553476     -369.63082      327.77644      9081.6389      960.18531      0.99696118
   1531000  -320.21583      57.36183      -377.57766      305.45564      771.6963       960.18531      0.99696118
   1532000  -334.22615      50.829844     -385.05599      270.67237      549.89708      960.18531      0.99696118
   1533000  -325.66631      52.749492     -378.4158       280.89463     -2620.5957      960.18531      0.99696118
   1534000  -317.19881      58.010903     -375.20971      308.91199     -1282.0005      960.18531      0.99696118
   1535000  -338.40646      52.154012     -390.56047      277.72365     -1963.2785      960.18531      0.99696118
   1536000  -321.1739       64.147177     -385.32107      341.58807      1486.3782      960.18531      0.99696118
   1537000  -317.47515      56.120394     -373.59554      298.84491     -3694.6886      960.18531      0.99696118
   1538000  -321.42205      58.049087     -379.47114      309.11533      160.76237      960.18531      0.99696118
   1539000  -327.26214      52.114416     -379.37656      277.51281     -6407.3679      960.18531      0.99696118
   1540000  -341.4749       42.550275     -384.02517      226.5831      -961.00721      960.18531      0.99696118
   1541000  -334.06783      55.875479     -389.94331      297.54072     -3146.6277      960.18531      0.99696118
   1542000  -337.47652      52.55329      -390.02981      279.84983      1529.9874      960.18531      0.99696118
   1543000  -329.70419      58.053432     -387.75762      309.13846     -3041.6262      960.18531      0.99696118
   1544000  -341.74289      48.108198     -389.85108      256.17942      538.9958       960.18531      0.99696118
   1545000  -320.5401       55.032833     -375.57293      293.05357      1019.3079      960.18531      0.99696118
   1546000  -341.01716      45.408781     -386.42594      241.80484     -1848.8323      960.18531      0.99696118
   1547000  -309.86625      59.273694     -369.13995      315.63645     -2474.6445      960.18531      0.99696118
   1548000  -317.68304      56.507299     -374.19034      300.9052       708.11782      960.18531      0.99696118
   1549000  -342.24583      51.133292     -393.37913      272.28825      2187.6301      960.18531      0.99696118
   1550000  -348.85287      54.729484     -403.58235      291.43822     -39.915511      960.18531      0.99696118
   1551000  -314.29482      62.199165     -376.49399      331.21477      357.39772      960.18531      0.99696118
   1552000  -335.87082      52.341879     -388.2127       278.72406     -407.03865      960.18531      0.99696118
   1553000  -316.87183      58.924416     -375.79624      313.77652      186.36031      960.18531      0.99696118
   1554000  -317.1538       63.632431     -380.78623      338.84702      1449.8943      960.18531      0.99696118
   1555000  -330.66548      57.520927     -388.18641      306.30284     -1875.5861      960.18531      0.99696118
   1556000  -335.14218      66.88524      -402.02742      356.16845      3018.086       960.18531      0.99696118
   1557000  -350.48965      52.810316     -403.29997      281.21852     -26.757681      960.18531      0.99696118
   1558000  -347.78068      50.14941      -397.93009      267.04901     -1465.7869      960.18531      0.99696118
   1559000  -341.16118      44.869256     -386.03044      238.93183     -1353.6022      960.18531      0.99696118
   1560000  -336.29822      60.617072     -396.91529      322.79002      1859.1498      960.18531      0.99696118
   1561000  -332.97304      55.476427     -388.44947      295.41574      4190.2665      960.18531      0.99696118
   1562000  -343.32354      51.115489     -394.43903      272.19345     -1683.1168      960.18531      0.99696118
   1563000  -334.26746      54.991587     -389.25905      292.83393     -1672.5103      960.18531      0.99696118
   1564000  -330.21261      51.084225     -381.29684      272.02697     -1699.961       960.18531      0.99696118
   1565000  -326.22744      49.638011     -375.86545      264.32578      358.60231      960.18531      0.99696118
   1566000  -304.22661      63.020359     -367.24697      335.58769     -4562.0676      960.18531      0.99696118
   1567000  -313.87717      57.265947     -371.14312      304.94505     -725.35038      960.18531      0.99696118
   1568000  -335.38231      58.558983     -393.94129      311.83056      800.44943      960.18531      0.99696118
   1569000  -356.10794      43.506238     -399.61418      231.67367      960.48829      960.18531      0.99696118
   1570000  -334.84988      59.938881     -394.78876      319.17861     -1420.1552      960.18531      0.99696118
   1571000  -338.55876      54.085735     -392.6445       288.01021      1332.5005      960.18531      0.99696118
   1572000  -332.68933      63.92888      -396.61821      340.42563      1994.9683      960.18531      0.99696118
   1573000  -315.41299      53.851246     -369.26424      286.76154      1434.9717      960.18531      0.99696118
   1574000  -327.26539      59.688502     -386.95389      317.84532     -709.29256      960.18531      0.99696118
   1575000  -340.05882      54.036018     -394.09484      287.74546      406.25619      960.18531      0.99696118
   1576000  -334.17207      50.386111     -384.55818      268.30946     -576.98838      960.18531      0.99696118
   1577000  -303.56725      62.679417     -366.24667      333.77215      4276.3995      960.18531      0.99696118
   1578000  -315.25021      59.975072     -375.22529      319.37133      1973.0554      960.18531      0.99696118
   1579000  -307.81739      59.381366     -367.19875      316.2098       1783.8953      960.18531      0.99696118
   1580000  -325.66034      58.122457     -383.7828       309.50603     -437.08785      960.18531      0.99696118
   1581000  -333.69228      50.616786     -384.30907      269.53782      479.79343      960.18531      0.99696118
   1582000  -328.10457      57.041189     -385.14576      303.7482      -484.17258      960.18531      0.99696118
   1583000  -338.00601      50.463194     -388.4692       268.71993      2720.8192      960.18531      0.99696118
   1584000  -322.76077      56.060523     -378.82129      298.52609     -5.6520759      960.18531      0.99696118
   1585000  -341.608        44.339123     -385.94712      236.10884      541.29008      960.18531      0.99696118
   1586000  -330.76547      62.117094     -392.88256      330.77774     -105.1663       960.18531      0.99696118
   1587000  -332.5898       60.466843     -393.05665      321.99005     -20.686127      960.18531      0.99696118
   1588000  -332.37579      51.490488     -383.86628      274.19035      3988.8118      960.18531      0.99696118
   1589000  -339.62604      52.36832      -391.99436      278.86486     -935.62739      960.18531      0.99696118
   1590000  -329.61985      59.080524     -388.70037      314.6078      -157.37353      960.18531      0.99696118
   1591000  -348.8864       46.220134     -395.10653      246.12535     -2253.5728      960.18531      0.99696118
   1592000  -318.50247      58.956897     -377.45937      313.94948      675.21006      960.18531      0.99696118
   1593000  -322.24677      60.457184     -382.70396      321.93861      667.71292      960.18531      0.99696118
   1594000  -311.02072      57.995031     -369.01575      308.82748     -2979.6163      960.18531      0.99696118
   1595000  -314.13328      62.236375     -376.36965      331.41292      1283.09        960.18531      0.99696118
   1596000  -329.27875      51.398111     -380.67686      273.69843     -2922.6612      960.18531      0.99696118
   1597000  -314.87962      62.408899     -377.28852      332.33162     -393.80429      960.18531      0.99696118
   1598000  -336.38194      56.214327     -392.59627      299.34511      2532.7705      960.18531      0.99696118
   1599000  -321.4533       53.933185     -375.38649      287.19787     -339.0186       960.18531      0.99696118
   1600000  -334.93352      56.408593     -391.34212      300.37959      937.90208      960.18531      0.99696118
   1601000  -334.98283      52.135257     -387.11809      277.62378     -2740.3832      960.18531      0.99696118
   1602000  -336.99865      50.801515     -387.80017      270.52152      1477.6334      960.18531      0.99696118
   1603000  -328.4011       55.560282     -383.96138      295.86227      1682.2519      960.18531      0.99696118
   1604000  -327.72123      55.992711     -383.71394      298.16498     -2778.4146      960.18531      0.99696118
   1605000  -323.448        61.019697     -384.4677       324.93403     -2411.8838      960.18531      0.99696118
   1606000  -317.75498      55.731059     -373.48603      296.77167      1478.5322      960.18531      0.99696118
   1607000  -327.30017      57.235541     -384.53571      304.78314      562.83162      960.18531      0.99696118
   1608000  -314.36392      62.504437     -376.86835      332.84037     -467.41328      960.18531      0.99696118
   1609000  -321.50992      58.869356     -380.37928      313.48332     -2667.9692      960.18531      0.99696118
   1610000  -317.59683      56.321038     -373.91786      299.91335     -3521.892       960.18531      0.99696118
   1611000  -334.64939      54.261714     -388.91111      288.94731     -2396.9167      960.18531      0.99696118
   1612000  -331.33494      60.422525     -391.75746      321.75405     -2793.9609      960.18531      0.99696118
   1613000  -344.14225      48.577107     -392.71935      258.67639     -1807.4267      960.18531      0.99696118
   1614000  -348.56841      46.356185     -394.9246       246.84983     -3362.626       960.18531      0.99696118
   1615000  -329.10828      59.938465     -389.04674      319.1764       709.75829      960.18531      0.99696118
   1616000  -343.49522      46.63699      -390.13221      248.34514      2939.7361      960.18531      0.99696118
   1617000  -339.00766      56.361642     -395.3693       300.12957      591.70279      960.18531      0.99696118
   1618000  -330.27151      56.702801     -386.97431      301.94626     -1393.1135      960.18531      0.99696118
   1619000  -319.66499      58.658372     -378.32336      312.35981     -2744.2339      960.18531      0.99696118
   1620000  -329.79169      54.129199     -383.92089      288.24166      2754.6339      960.18531      0.99696118
   1621000  -339.95254      56.753458     -396.70599      302.21602      1946.3906      960.18531      0.99696118
   1622000  -325.62266      61.62044      -387.2431       328.13303     -2242.4809      960.18531      0.99696118
   1623000  -334.6093       49.935744     -384.54504      265.91123     -1819.6521      960.18531      0.99696118
   1624000  -307.08198      71.108488     -378.19047      378.65753     -2847.1917      960.18531      0.99696118
   1625000  -335.73984      49.99101      -385.73085      266.20552     -1836.1153      960.18531      0.99696118
   1626000  -337.24037      63.936101     -401.17648      340.46408     -1846.2492      960.18531      0.99696118
   1627000  -308.7139       67.08265      -375.79655      357.21967     -1478.3657      960.18531      0.99696118
   1628000  -336.83365      49.067627     -385.90127      261.28844     -1433.6183      960.18531      0.99696118
   1629000  -317.36876      51.515824     -368.88458      274.32526      456.51781      960.18531      0.99696118
   1630000  -310.1282       56.251725     -366.37993      299.54426     -2456.5342      960.18531      0.99696118
   1631000  -332.75761      51.485971     -384.24358      274.16629      403.49655      960.18531      0.99696118
   1632000  -321.92199      61.547449     -383.46944      327.74434     -2515.5591      960.18531      0.99696118
   1633000  -314.11731      62.507046     -376.62435      332.85426     -1977.5824      960.18531      0.99696118
   1634000  -326.36135      56.093202     -382.45455      298.70011     -2943.9794      960.18531      0.99696118
   1635000  -335.1504       56.243967     -391.39437      299.50294     -2247.3763      960.18531      0.99696118
   1636000  -319.39743      58.618854     -378.01629      312.14937     -890.90128      960.18531      0.99696118
   1637000  -295.9916       69.140973     -365.13257      368.18038      486.08975      960.18531      0.99696118
   1638000  -325.96052      47.698797     -373.65932      253.99933     -570.92576      960.18531      0.99696118
   1639000  -341.1449       50.378122     -391.52302      268.26692     -3223.0394      960.18531      0.99696118
   1640000  -329.4918       56.271542     -385.76334      299.64978     -3465.9344      960.18531      0.99696118
   1641000  -307.95223      56.750529     -364.70276      302.20042     -2238.9414      960.18531      0.99696118
   1642000  -336.24503      52.501957     -388.74699      279.57648     -984.96909      960.18531      0.99696118
   1643000  -328.79048      48.967348     -377.75783      260.75445     -1337.4278      960.18531      0.99696118
   1644000  -310.17323      64.974119     -375.14735      345.99159     -269.42991      960.18531      0.99696118
   1645000  -328.5443       51.012431     -379.55673      271.64466      2049.8582      960.18531      0.99696118
   1646000  -334.43333      53.418622     -387.85196      284.45779     -3620.731       960.18531      0.99696118
   1647000  -309.15268      62.223921     -371.3766       331.34661      2451.969       960.18531      0.99696118
   1648000  -300.98308      61.250361     -362.23344      326.16233     -2798.0084      960.18531      0.99696118
   1649000  -318.94942      56.569972     -375.51939      301.23894     -1710.3925      960.18531      0.99696118
   1650000  -328.54639      46.029515     -374.5759       245.11029      1351.2037      960.18531      0.99696118
   1651000  -305.73008      61.263412     -366.99349      326.23183      3328.5484      960.18531      0.99696118
   1652000  -321.39487      47.364503     -368.75937      252.2192      -2090.2085      960.18531      0.99696118
   1653000  -330.34906      64.474762     -394.82383      343.33248     -1969.4009      960.18531      0.99696118
   1654000  -325.19066      51.932627     -377.12329      276.54477      1936.6289      960.18531      0.99696118
   1655000  -339.25358      58.360051     -397.61363      310.77123      1416.4646      960.18531      0.99696118
   1656000  -317.22652      63.249678     -380.4762       336.80883     -808.98008      960.18531      0.99696118
   1657000  -328.40929      59.644315     -388.05361      317.61003      2728.0207      960.18531      0.99696118
   1658000  -329.0932       60.872648     -389.96584      324.15098      3091.6723      960.18531      0.99696118
   1659000  -314.34436      65.618694     -379.96306      349.424       -421.23202      960.18531      0.99696118
   1660000  -327.75157      51.076754     -378.82833      271.98718      1245.0474      960.18531      0.99696118
   1661000  -322.79903      60.506396     -383.30542      322.20067     -4126.0795      960.18531      0.99696118
   1662000  -326.79603      63.903013     -390.69904      340.28788     -955.70568      960.18531      0.99696118
   1663000  -316.03278      63.527076     -379.55985      338.28599      1970.7878      960.18531      0.99696118
   1664000  -316.83647      56.27228      -373.10875      299.65371     -867.48584      960.18531      0.99696118
   1665000  -319.19111      64.312117     -383.50322      342.46639      2092.9547      960.18531      0.99696118
   1666000  -325.47318      46.996835     -372.47002      250.26134      1447.3703      960.18531      0.99696118
   1667000  -334.67242      50.449762     -385.12218      268.64841     -530.84817      960.18531      0.99696118
   1668000  -338.52668      53.485985     -392.01267      284.8165      -1209.9423      960.18531      0.99696118
   1669000  -340.55787      49.831822     -390.38969      265.35784     -170.62425      960.18531      0.99696118
   1670000  -331.89512      57.183343     -389.07846      304.50518     -630.65254      960.18531      0.99696118
   1671000  -342.26859      47.425541     -389.69413      252.54423     -777.52919      960.18531      0.99696118
   1672000  -322.6113       61.958096     -384.5694       329.93107      6519.2199      960.18531      0.99696118
   1673000  -328.79743      53.138725     -381.93616      282.96732     -2320.2001      960.18531      0.99696118
   1674000  -340.06246      50.267752     -390.33021      267.67919      401.77627      960.18531      0.99696118
   1675000  -331.67273      53.810231     -385.48296      286.54313     -1447.7051      960.18531      0.99696118
   1676000  -302.05769      64.690966     -366.74866      344.48378      517.05907      960.18531      0.99696118
   1677000  -333.70676      54.351888     -388.05864      289.42749     -1164.4719      960.18531      0.99696118
   1678000  -327.48441      57.724761     -385.20917      307.38827     -6569.1763      960.18531      0.99696118
   1679000  -312.52641      60.744085     -373.27049      323.46638     -2562.9498      960.18531      0.99696118
   1680000  -318.41925      65.750254     -384.1695       350.12456     -506.37277      960.18531      0.99696118
   1681000  -332.75866      52.76078      -385.51944      280.95473     -4097.9448      960.18531      0.99696118
   1682000  -310.41547      59.335255     -369.75073      315.96426     -4201.1608      960.18531      0.99696118
   1683000  -336.36731      50.551762     -386.91907      269.19156      686.54781      960.18531      0.99696118
   1684000  -337.21865      50.167128     -387.38578      267.14336     -840.24521      960.18531      0.99696118
   1685000  -348.61174      51.905706     -400.51745      276.40141     -980.27713      960.18531      0.99696118
   1686000  -334.17367      53.239602     -387.41328      283.5045      -1777.9132      960.18531      0.99696118
   1687000  -330.00206      54.758928     -384.76099      291.59501      115.63916      960.18531      0.99696118
   1688000  -346.10225      56.857944     -402.9602       302.77241     -1750.6092      960.18531      0.99696118
   1689000  -312.25626      52.212996     -364.46925      278.03775      1485.5093      960.18531      0.99696118
   1690000  -313.65893      53.207863     -366.8668       283.33548     -956.68638      960.18531      0.99696118
   1691000  -307.53647      59.07621      -366.61268      314.58483      1391.5749      960.18531      0.99696118
   1692000  -331.79471      60.913592     -392.7083       324.36901     -3481.9561      960.18531      0.99696118
   1693000  -333.69559      55.762992     -389.45858      296.94172     -2403.5986      960.18531      0.99696118
   1694000  -333.78428      43.950723     -377.73501      234.04058     -2964.4963      960.18531      0.99696118
   1695000  -320.0932       56.982986     -377.07619      303.43827     -1766.9164      960.18531      0.99696118
   1696000  -328.07447      55.023819     -383.09828      293.00557     -1409.8658      960.18531      0.99696118
   1697000  -323.43543      56.74671      -380.18214      302.18008     -1370.0883      960.18531      0.99696118
   1698000  -328.30324      53.698665     -382.00191      285.94904      1572.999       960.18531      0.99696118
   1699000  -313.10535      57.753707     -370.85906      307.54241     -272.15864      960.18531      0.99696118
   1700000  -333.02966      49.161857     -382.19151      261.79022     -1373.2947      960.18531      0.99696118
   1701000  -341.91677      45.196786     -387.11355      240.67595     -6083.8584      960.18531      0.99696118
   1702000  -320.9868       56.375934     -377.36273      300.20568      2063.5413      960.18531      0.99696118
   1703000  -318.42537      57.543576     -375.96894      306.42345     -3150.6774      960.18531      0.99696118
   1704000  -321.00628      60.540125     -381.54641      322.38028     -999.99012      960.18531      0.99696118
   1705000  -321.34742      54.858623     -376.20604      292.12589     -222.845        960.18531      0.99696118
   1706000  -339.06902      57.444644     -396.51366      305.89663      1940.7992      960.18531      0.99696118
   1707000  -325.71632      53.915487     -379.6318       287.10363     -3631.695       960.18531      0.99696118
   1708000  -308.67956      63.447421     -372.12698      337.86182     -16.628565      960.18531      0.99696118
   1709000  -316.70892      46.476755     -363.18567      247.49187     -741.56512      960.18531      0.99696118
   1710000  -308.74434      49.051005     -357.79534      261.19993     -1899.3601      960.18531      0.99696118
   1711000  -318.49907      56.814641     -375.31371      302.54182      1789.3384      960.18531      0.99696118
   1712000  -326.33691      51.563547     -377.90046      274.57939     -1587.1274      960.18531      0.99696118
   1713000  -318.6747       59.17123      -377.84593      315.09082      1491.0434      960.18531      0.99696118
   1714000  -326.4249       53.175779     -379.60068      283.16463      233.65225      960.18531      0.99696118
   1715000  -343.4024       48.537805     -391.9402       258.46711     -2485.1023      960.18531      0.99696118
   1716000  -317.77725      53.682644     -371.45989      285.86372      2066.8452      960.18531      0.99696118
   1717000  -323.36416      55.151068     -378.51523      293.68318     -1338.2538      960.18531      0.99696118
   1718000  -317.1235       64.257326     -381.38083      342.17462      283.42348      960.18531      0.99696118
   1719000  -312.59667      61.95061      -374.54728      329.89121      5710.5129      960.18531      0.99696118
   1720000  -329.68427      59.142693     -388.82696      314.93885      1840.704       960.18531      0.99696118
   1721000  -322.25896      59.881216     -382.14018      318.87154     -2398.1465      960.18531      0.99696118
   1722000  -325.88107      61.047114     -386.92818      325.08003      5149.2214      960.18531      0.99696118
   1723000  -328.55405      52.69227      -381.24632      280.58991      2939.6661      960.18531      0.99696118
   1724000  -325.69083      63.279556     -388.97039      336.96793      296.87888      960.18531      0.99696118
   1725000  -314.57137      69.062998     -383.63437      367.76515     -380.6347       960.18531      0.99696118
   1726000  -318.808        57.657406     -376.46541      307.0296       535.97351      960.18531      0.99696118
   1727000  -325.62214      63.949635     -389.57177      340.53615      3312.3742      960.18531      0.99696118
   1728000  -335.43361      53.254176     -388.68779      283.5821       1177.0715      960.18531      0.99696118
   1729000  -315.38327      65.014307     -380.39758      346.2056      -2050.7199      960.18531      0.99696118
   1730000  -328.43209      56.116981     -384.54907      298.82673     -2331.3452      960.18531      0.99696118
   1731000  -312.76103      61.074546     -373.83558      325.22611      474.6892       960.18531      0.99696118
   1732000  -301.41678      58.480773     -359.89755      311.41409     -348.5222       960.18531      0.99696118
   1733000  -334.42359      51.831864     -386.25546      276.0082       3454.926       960.18531      0.99696118
   1734000  -325.96386      61.760394     -387.72426      328.87829     -2677.6656      960.18531      0.99696118
   1735000  -331.97669      38.484558     -370.46124      204.93288     -2484.0503      960.18531      0.99696118
   1736000  -323.47838      61.081764     -384.56015      325.26454      1233.0315      960.18531      0.99696118
   1737000  -329.4151       56.716887     -386.13198      302.02127      2603.4256      960.18531      0.99696118
   1738000  -328.67026      60.600368     -389.27063      322.70107     -1887.4374      960.18531      0.99696118
   1739000  -337.56249      57.649692     -395.21219      306.98852     -241.27217      960.18531      0.99696118
   1740000  -329.75736      45.926833     -375.6842       244.5635      -235.56596      960.18531      0.99696118
   1741000  -330.50072      49.545142     -380.04586      263.83125      4697.2165      960.18531      0.99696118
   1742000  -315.76024      66.950932     -382.71117      356.51826      394.99178      960.18531      0.99696118
   1743000  -354.5927       43.190341     -397.78304      229.9915       644.22535      960.18531      0.99696118
   1744000  -348.35587      42.875955     -391.23183      228.31737      1146.1009      960.18531      0.99696118
   1745000  -325.30317      66.804461     -392.10763      355.73829      2610.4063      960.18531      0.99696118
   1746000  -330.50644      58.246662     -388.7531       310.16743      1918.4027      960.18531      0.99696118
   1747000  -328.57234      54.779526     -383.35186      291.7047      -2458.2532      960.18531      0.99696118
   1748000  -324.89705      61.131467     -386.02851      325.52921      1172.1738      960.18531      0.99696118
   1749000  -344.68871      47.744188     -392.43289      254.24104     -2052.2067      960.18531      0.99696118
   1750000  -327.81172      56.27965      -384.09137      299.69296     -1845.0244      960.18531      0.99696118
   1751000  -316.0441       58.7302       -374.7743       312.7423      -628.92364      960.18531      0.99696118
   1752000  -337.74786      50.692552     -388.44041      269.94128     -2795.8171      960.18531      0.99696118
   1753000  -331.6311       58.72121      -390.35231      312.69443      799.81309      960.18531      0.99696118
   1754000  -327.89701      48.616763     -376.51377      258.88756     -1786.334       960.18531      0.99696118
   1755000  -331.11201      52.872182     -383.98419      281.54796     -925.28688      960.18531      0.99696118
   1756000  -328.77541      63.121482     -391.89689      336.12618     -529.27633      960.18531      0.99696118
   1757000  -323.27787      57.193617     -380.47148      304.55989      1126.1667      960.18531      0.99696118
   1758000  -338.46138      51.841589     -390.30297      276.05998     -4307.3101      960.18531      0.99696118
   1759000  -350.14451      53.689206     -403.83371      285.89866      903.56597      960.18531      0.99696118
   1760000  -316.33349      54.131605     -370.4651       288.25447      2672.2232      960.18531      0.99696118
   1761000  -320.67603      65.744697     -386.42073      350.09497     -1444.0955      960.18531      0.99696118
   1762000  -301.33031      71.886953     -373.21726      382.8029      -2255.579       960.18531      0.99696118
   1763000  -322.75676      51.307131     -374.06389      273.21396     -1321.654       960.18531      0.99696118
   1764000  -331.50936      60.988084     -392.49744      324.76569      1383.6162      960.18531      0.99696118
   1765000  -315.75108      57.875992     -373.62707      308.19359      735.92436      960.18531      0.99696118
   1766000  -340.89135      51.388038     -392.27939      273.64479      285.62034      960.18531      0.99696118
   1767000  -334.60393      53.313489     -387.91742      283.89795     -4195.4118      960.18531      0.99696118
   1768000  -339.6523       49.99916      -389.65146      266.24892     -2594.6908      960.18531      0.99696118
   1769000  -344.72775      54.338511     -399.06626      289.35626     -3210.5543      960.18531      0.99696118
   1770000  -320.30619      61.679865     -381.98605      328.44947      1735.5455      960.18531      0.99696118
   1771000  -333.62473      55.785274     -389.41001      297.06037      287.92264      960.18531      0.99696118
   1772000  -321.13543      60.470799     -381.60623      322.01111      2990.7627      960.18531      0.99696118
   1773000  -343.67036      48.40006      -392.07042      257.73361     -1443.6909      960.18531      0.99696118
   1774000  -329.34139      62.400028     -391.74141      332.28439     -244.21899      960.18531      0.99696118
   1775000  -340.2615       52.425439     -392.68694      279.16902     -3897.3173      960.18531      0.99696118
   1776000  -336.98746      64.260212     -401.24768      342.18999      932.48406      960.18531      0.99696118
   1777000  -347.45566      54.322355     -401.77802      289.27023     -878.32743      960.18531      0.99696118
   1778000  -344.65714      51.392385     -396.04953      273.66794      613.78929      960.18531      0.99696118
   1779000  -331.75768      63.036557     -394.79424      335.67395      3434.5684      960.18531      0.99696118
   1780000  -338.89587      49.24421      -388.14008      262.22876      745.93537      960.18531      0.99696118
   1781000  -357.93754      56.705275     -414.64282      301.95944     -919.46018      960.18531      0.99696118
   1782000  -339.76099      56.120449     -395.88144      298.8452      -1087.753       960.18531      0.99696118
   1783000  -329.0119       52.36543      -381.37733      278.84947     -1819.1314      960.18531      0.99696118
   1784000  -331.18732      49.970965     -381.15828      266.09878      3774.8468      960.18531      0.99696118
   1785000  -306.82353      75.645454     -382.46898      402.81718      3201.3222      960.18531      0.99696118
   1786000  -334.94924      54.415214     -389.36446      289.76471     -540.80786      960.18531      0.99696118
   1787000  -311.86905      60.531776     -372.40083      322.33582     -2331.1704      960.18531      0.99696118
   1788000  -320.5926       56.192303     -376.78491      299.22783      1441.6571      960.18531      0.99696118
   1789000  -319.60023      64.663887     -384.26412      344.33959      764.93692      960.18531      0.99696118
   1790000  -337.08555      50.85801      -387.94356      270.82235      439.05603      960.18531      0.99696118
   1791000  -320.94097      63.47279      -384.41376      337.99692      5905.0879      960.18531      0.99696118
   1792000  -316.47875      64.999832     -381.47858      346.12852      2744.0834      960.18531      0.99696118
   1793000  -327.04322      52.017973     -379.06119      276.99924     -3048.1229      960.18531      0.99696118
   1794000  -325.82646      51.437746     -377.26421      273.90949      1791.8605      960.18531      0.99696118
   1795000  -329.84448      54.255478     -384.09996      288.9141      -236.85621      960.18531      0.99696118
   1796000  -322.65057      51.715932     -374.36651      275.39085     -4041.0344      960.18531      0.99696118
   1797000  -324.97913      56.600267     -381.5794       301.40026     -2051.6715      960.18531      0.99696118
   1798000  -338.44012      59.075243     -397.51536      314.57968     -3869.3862      960.18531      0.99696118
   1799000  -317.62434      69.663881     -387.28822      370.96489     -2720.6294      960.18531      0.99696118
   1800000  -342.08072      46.962652     -389.04337      250.07931     -3856.7169      960.18531      0.99696118
   1801000  -318.63864      61.087196     -379.72583      325.29347      895.46474      960.18531      0.99696118
   1802000  -314.85416      60.529329     -375.38349      322.32279     -1026.8141      960.18531      0.99696118
   1803000  -332.95266      57.968039     -390.9207       308.68374      137.16928      960.18531      0.99696118
   1804000  -311.44226      59.162238     -370.6045       315.04293     -1945.6576      960.18531      0.99696118
   1805000  -305.5712       59.479157     -365.05036      316.73055      4047.6772      960.18531      0.99696118
   1806000  -324.0708       57.132318     -381.20312      304.23347     -1557.3669      960.18531      0.99696118
   1807000  -313.76718      69.979224     -383.74641      372.64412      2444.1518      960.18531      0.99696118
   1808000  -332.79671      58.558299     -391.35501      311.82692     -2784.8734      960.18531      0.99696118
   1809000  -332.29197      57.29859      -389.59056      305.11888     -1496.8011      960.18531      0.99696118
   1810000  -319.63647      60.703295     -380.33977      323.24917     -3798.8688      960.18531      0.99696118
   1811000  -329.98831      46.888952     -376.87727      249.68685      4005.2406      960.18531      0.99696118
   1812000  -332.28578      63.376593     -395.66237      337.48466      3728.924       960.18531      0.99696118
   1813000  -336.9789       51.814431     -388.79333      275.91536      1398.1941      960.18531      0.99696118
   1814000  -337.41079      47.874828     -385.28561      254.93671      183.45613      960.18531      0.99696118
   1815000  -325.39951      55.26622      -380.66573      294.29638      2078.1816      960.18531      0.99696118
   1816000  -325.25283      54.672606     -379.92543      291.13534     -363.67153      960.18531      0.99696118
   1817000  -335.26392      50.457685     -385.72161      268.6906       2554.0694      960.18531      0.99696118
   1818000  -314.68167      53.938058     -368.61973      287.22382     -1625.792       960.18531      0.99696118
   1819000  -338.52941      47.541802     -386.07121      253.16332     -46.398764      960.18531      0.99696118
   1820000  -325.14076      58.241487     -383.38224      310.13987      2399.3547      960.18531      0.99696118
   1821000  -337.79564      54.468152     -392.2638       290.04661      257.61027      960.18531      0.99696118
   1822000  -333.44558      52.636299     -386.08187      280.29187     -1437.4272      960.18531      0.99696118
   1823000  -337.45165      50.825414     -388.27706      270.64878     -271.1182       960.18531      0.99696118
   1824000  -333.2144       55.779837     -388.99424      297.03142     -7.2529318      960.18531      0.99696118
   1825000  -327.67993      54.213568     -381.8935       288.69093     -2229.4662      960.18531      0.99696118
   1826000  -327.84711      51.200628     -379.04774      272.64682     -1377.5542      960.18531      0.99696118
   1827000  -339.24167      48.591854     -387.83352      258.75492     -4601.6825      960.18531      0.99696118
   1828000  -322.78925      60.075126     -382.86438      319.90413     -2161.2594      960.18531      0.99696118
   1829000  -335.45386      46.925732     -382.37959      249.88271     -947.5638       960.18531      0.99696118
   1830000  -335.37162      51.640951     -387.01257      274.99157     -2547.6543      960.18531      0.99696118
   1831000  -326.72025      52.398696     -379.11894      279.02662     -4134.3586      960.18531      0.99696118
   1832000  -315.29114      61.883369     -377.1745       329.53314     -267.99931      960.18531      0.99696118
   1833000  -322.78283      54.260978     -377.04381      288.94339     -3009.6308      960.18531      0.99696118
   1834000  -334.78221      55.571031     -390.35324      295.91951      4403.2617      960.18531      0.99696118
   1835000  -318.53846      63.287954     -381.82642      337.01265      1529.1516      960.18531      0.99696118
   1836000  -337.1035       46.121705     -383.22521      245.60121     -1921.1416      960.18531      0.99696118
   1837000  -334.81399      53.678012     -388.492        285.83906     -1285.4714      960.18531      0.99696118
   1838000  -325.57342      51.700673     -377.27409      275.30959      43.536581      960.18531      0.99696118
   1839000  -340.1078       51.475084     -391.58289      274.10832     -1713.3106      960.18531      0.99696118
   1840000  -333.23169      53.052923     -386.28462      282.51042      731.75464      960.18531      0.99696118
   1841000  -345.72662      48.292516     -394.01914      257.16093      288.8343       960.18531      0.99696118
   1842000  -331.34885      53.941186     -385.29004      287.24048      1765.8352      960.18531      0.99696118
   1843000  -322.67826      60.323861     -383.00213      321.22865     -3046.7147      960.18531      0.99696118
   1844000  -329.07664      51.533723     -380.61036      274.42057     -3730.3265      960.18531      0.99696118
   1845000  -332.57089      48.92314      -381.49403      260.51904     -2741.1299      960.18531      0.99696118
   1846000  -322.48746      57.86862      -380.35608      308.15433      1779.76        960.18531      0.99696118
   1847000  -315.03909      61.939544     -376.97864      329.83228      4708.3441      960.18531      0.99696118
   1848000  -341.06551      54.260996     -395.32651      288.94349     -603.67064      960.18531      0.99696118
   1849000  -327.17196      56.081961     -383.25392      298.64025     -3403.8641      960.18531      0.99696118
   1850000  -350.09765      42.886754     -392.9844       228.37488      2499.0061      960.18531      0.99696118
   1851000  -317.92603      55.567397     -373.49343      295.90016     -2550.3265      960.18531      0.99696118
   1852000  -323.32516      63.478037     -386.8032       338.02486     -949.38398      960.18531      0.99696118
   1853000  -323.62         59.785149     -383.40515      318.35998     -1339.2266      960.18531      0.99696118
   1854000  -323.1824       61.600558     -384.78296      328.02715     -233.16654      960.18531      0.99696118
   1855000  -324.49115      52.579879     -377.07102      279.99142     -7142.8232      960.18531      0.99696118
   1856000  -332.03855      57.02843      -389.06698      303.68026      138.94445      960.18531      0.99696118
   1857000  -330.0908       65.022413     -395.11321      346.24876     -3737.6603      960.18531      0.99696118
   1858000  -340.51169      50.333899     -390.84559      268.03143     -3110.8086      960.18531      0.99696118
   1859000  -313.80843      54.583572     -368.392        290.66123     -672.86498      960.18531      0.99696118
   1860000  -344.07346      49.007071     -393.08053      260.96598     -1396.3395      960.18531      0.99696118
   1861000  -330.23425      64.51293      -394.74719      343.53573      1156.0809      960.18531      0.99696118
   1862000  -325.70822      57.463475     -383.17169      305.9969      -1598.7618      960.18531      0.99696118
   1863000  -330.94883      50.838371     -381.78721      270.71778      3799.6414      960.18531      0.99696118
   1864000  -316.80956      46.69721      -363.50677      248.66581      3268.1715      960.18531      0.99696118
   1865000  -308.84027      56.718674     -365.55895      302.03079     -1922.5665      960.18531      0.99696118
   1866000  -324.26551      51.497543     -375.76305      274.22791      3936.8314      960.18531      0.99696118
   1867000  -329.16633      54.921212     -384.08754      292.45918      888.32996      960.18531      0.99696118
   1868000  -339.42545      42.48562      -381.91107      226.23881     -2950.4621      960.18531      0.99696118
   1869000  -314.75922      57.850633     -372.60985      308.05855     -395.42229      960.18531      0.99696118
   1870000  -332.20346      50.189602     -382.39306      267.26304     -686.56618      960.18531      0.99696118
   1871000  -317.62435      58.661342     -376.28569      312.37563      1909.4759      960.18531      0.99696118
   1872000  -326.29851      47.775406     -374.07391      254.40728      386.17569      960.18531      0.99696118
   1873000  -337.66264      49.551497     -387.21414      263.86509     -2256.8402      960.18531      0.99696118
   1874000  -315.74397      54.750089     -370.49406      291.54794     -984.74272      960.18531      0.99696118
   1875000  -330.91587      52.801477     -383.71735      281.17145     -2915.3714      960.18531      0.99696118
   1876000  -330.594        55.422666     -386.01666      295.12946      2620.6362      960.18531      0.99696118
   1877000  -325.98185      61.210947     -387.19279      325.95245     -2567.5526      960.18531      0.99696118
   1878000  -327.51168      62.255504     -389.76719      331.51478     -2784.5278      960.18531      0.99696118
   1879000  -317.52348      66.034912     -383.5584       351.64039      1326.3264      960.18531      0.99696118
   1880000  -342.87109      54.835768     -397.70685      292.00419     -1375.1329      960.18531      0.99696118
   1881000  -315.88366      59.889467     -375.77313      318.91548     -1475.909       960.18531      0.99696118
   1882000  -314.43718      59.006957     -373.44414      314.21605     -2501.6239      960.18531      0.99696118
   1883000  -320.3402       55.587556     -375.92776      296.00751     -2814.7622      960.18531      0.99696118
   1884000  -326.95936      58.0356       -384.99496      309.04351      4425.1379      960.18531      0.99696118
   1885000  -326.49861      58.250004     -384.74862      310.18523     -919.42146      960.18531      0.99696118
   1886000  -314.40719      57.352715     -371.75991      305.4071       1768.8199      960.18531      0.99696118
   1887000  -331.8293       55.244014     -387.07332      294.17813     -2217.1953      960.18531      0.99696118
   1888000  -324.60623      60.316594     -384.92283      321.18996      262.19731      960.18531      0.99696118
   1889000  -308.06255      66.244577     -374.30713      352.75687     -281.20057      960.18531      0.99696118
   1890000  -331.11034      57.683852     -388.79419      307.17043     -2654.0674      960.18531      0.99696118
   1891000  -338.76693      61.259647     -400.02658      326.21178      741.6085       960.18531      0.99696118
   1892000  -321.93604      54.930638     -376.86668      292.50938      980.52405      960.18531      0.99696118
   1893000  -322.26744      57.188002     -379.45544      304.52999      1543.3336      960.18531      0.99696118
   1894000  -331.81267      52.946403     -384.75907      281.94319      4694.6987      960.18531      0.99696118
   1895000  -311.42325      53.059171     -364.48242      282.54369     -943.88277      960.18531      0.99696118
   1896000  -332.01009      47.33025      -379.34034      252.03679     -874.7254       960.18531      0.99696118
   1897000  -330.38204      46.931276     -377.31332      249.91223     -4778.0017      960.18531      0.99696118
   1898000  -325.33734      55.847413     -381.18476      297.39126      1297.8082      960.18531      0.99696118
   1899000  -337.75163      48.593701     -386.34533      258.76476     -774.59789      960.18531      0.99696118
   1900000  -313.0182       61.765274     -374.78347      328.90427     -113.81286      960.18531      0.99696118
   1901000  -325.07125      52.362476     -377.43373      278.83374     -5457.9451      960.18531      0.99696118
   1902000  -311.61776      63.88866      -375.50642      340.21145      2017.9386      960.18531      0.99696118
   1903000  -319.14995      48.196938     -367.34688      256.65197      4025.1674      960.18531      0.99696118
   1904000  -334.83014      55.605096     -390.43524      296.10091      997.34717      960.18531      0.99696118
   1905000  -335.50865      53.396513     -388.90516      284.34006     -402.49449      960.18531      0.99696118
   1906000  -311.97341      66.228912     -378.20233      352.67345     -324.30435      960.18531      0.99696118
   1907000  -340.89306      51.505815     -392.39888      274.27196      164.94158      960.18531      0.99696118
   1908000  -317.51473      50.842269     -368.357        270.73853     -1108.9072      960.18531      0.99696118
   1909000  -317.08481      54.245832     -371.33064      288.86274     -2591.6928      960.18531      0.99696118
   1910000  -326.59992      45.842682     -372.44261      244.11539     -1561.9791      960.18531      0.99696118
   1911000  -329.23061      65.142607     -394.37321      346.8888       3395.7615      960.18531      0.99696118
   1912000  -330.99242      52.178942     -383.17136      277.85641      4610.8566      960.18531      0.99696118
   1913000  -326.69046      57.415243     -384.1057       305.74007      1418.617       960.18531      0.99696118
   1914000  -310.32724      59.35018      -369.67742      316.04374      1127.1879      960.18531      0.99696118
   1915000  -315.19597      66.516568     -381.71254      354.20524     -4161.8225      960.18531      0.99696118
   1916000  -332.80296      44.758994     -377.56196      238.34468     -2197.8751      960.18531      0.99696118
   1917000  -330.37313      53.734611     -384.10774      286.14045      595.03771      960.18531      0.99696118
   1918000  -345.04146      47.844645     -392.8861       254.77598     -2337.6723      960.18531      0.99696118
   1919000  -306.5135       59.452457     -365.96595      316.58837      2516.2721      960.18531      0.99696118
   1920000  -311.66245      67.744145     -379.40659      360.74217      911.29492      960.18531      0.99696118
   1921000  -319.30173      60.325066     -379.6268       321.23507      2224.2667      960.18531      0.99696118
   1922000  -322.49127      54.604919     -377.09619      290.7749      -7074.3188      960.18531      0.99696118
   1923000  -302.09724      59.848782     -361.94602      318.69883      494.84417      960.18531      0.99696118
   1924000  -318.27166      55.060647     -373.3323       293.20168     -2197.2785      960.18531      0.99696118
   1925000  -307.68551      64.759291     -372.4448       344.84762      47.658612      960.18531      0.99696118
   1926000  -326.7152       50.104017     -376.81922      266.80729     -498.17099      960.18531      0.99696118
   1927000  -319.37215      54.932538     -374.30469      292.5195       1441.5499      960.18531      0.99696118
   1928000  -330.66381      53.261382     -383.92519      283.62048     -1978.0729      960.18531      0.99696118
   1929000  -310.73053      64.93394      -375.66447      345.77764      2076.1764      960.18531      0.99696118
   1930000  -310.42439      58.357218     -368.7816       310.75615      3454.6345      960.18531      0.99696118
   1931000  -326.47885      53.828888     -380.30774      286.64248     -575.76073      960.18531      0.99696118
   1932000  -338.40732      56.707631     -395.11495      301.97199     -3328.6888      960.18531      0.99696118
   1933000  -325.3485       59.597739     -384.94624      317.362        909.13528      960.18531      0.99696118
   1934000  -332.42394      55.20538      -387.62932      293.97239     -1486.599       960.18531      0.99696118
   1935000  -323.53588      59.38694      -382.92282      316.23949      182.28461      960.18531      0.99696118
   1936000  -315.12787      53.088965     -368.21683      282.70234      1120.0391      960.18531      0.99696118
   1937000  -299.44807      65.259505     -364.70757      347.5113      -423.29589      960.18531      0.99696118
   1938000  -331.66009      59.014138     -390.67423      314.25429      827.31142      960.18531      0.99696118
   1939000  -342.1799       57.652998     -399.8329       307.00613      279.07164      960.18531      0.99696118
   1940000  -329.07563      52.54182      -381.61744      279.78876      1336.1654      960.18531      0.99696118
   1941000  -332.88023      57.133212     -390.01344      304.23823     -641.73773      960.18531      0.99696118
   1942000  -315.1175       63.071005     -378.1885       335.85739      2590.3738      960.18531      0.99696118
   1943000  -313.2195       53.403269     -366.62277      284.37603     -1506.7637      960.18531      0.99696118
   1944000  -333.95522      50.822256     -384.77748      270.63196      239.24651      960.18531      0.99696118
   1945000  -333.64366      48.604198     -382.24786      258.82065     -1611.9591      960.18531      0.99696118
   1946000  -312.63193      63.90026      -376.53219      340.27322     -2350.3593      960.18531      0.99696118
   1947000  -315.84875      55.190957     -371.0397       293.89559     -1689.6617      960.18531      0.99696118
   1948000  -334.86959      49.10222      -383.97181      261.47265      1460.8068      960.18531      0.99696118
   1949000  -322.77813      46.941366     -369.71949      249.96596      196.59225      960.18531      0.99696118
   1950000  -322.91858      56.09976      -379.01834      298.73503     -3105.6582      960.18531      0.99696118
   1951000  -338.22315      53.448507     -391.67166      284.61693      1536.6708      960.18531      0.99696118
   1952000  -324.68326      56.969819     -381.65308      303.36815     -559.29278      960.18531      0.99696118
   1953000  -324.4494       58.164677     -382.61408      309.73085      858.67486      960.18531      0.99696118
   1954000  -325.16761      57.141373     -382.30898      304.28169      2690.0424      960.18531      0.99696118
   1955000  -322.69619      53.268321     -375.96451      283.65742      1485.8617      960.18531      0.99696118
   1956000  -343.10597      54.642366     -397.74833      290.97431      2040.9101      960.18531      0.99696118
   1957000  -325.88865      59.74414      -385.63279      318.1416      -339.46245      960.18531      0.99696118
   1958000  -319.99523      59.002671     -378.9979       314.19323      2595.0697      960.18531      0.99696118
   1959000  -329.1289       58.081885     -387.21078      309.28998     -3768.8317      960.18531      0.99696118
   1960000  -323.43542      54.044629     -377.48004      287.79132     -80.089058      960.18531      0.99696118
   1961000  -329.93435      56.996947     -386.9313       303.51261     -565.82475      960.18531      0.99696118
   1962000  -319.43623      63.221623     -382.65785      336.65943     -1893.1313      960.18531      0.99696118
   1963000  -306.42535      55.895276     -362.32063      297.64614      4255.4351      960.18531      0.99696118
   1964000  -317.00907      53.851338     -370.8604       286.76203     -4046.353       960.18531      0.99696118
   1965000  -332.56312      44.791772     -377.35489      238.51923      176.45107      960.18531      0.99696118
   1966000  -333.64029      46.543644     -380.18394      247.84806      2073.5065      960.18531      0.99696118
   1967000  -337.58192      47.78341      -385.36533      254.4499      -1522.0052      960.18531      0.99696118
   1968000  -328.13433      55.713168     -383.84749      296.6764      -3614.9304      960.18531      0.99696118
   1969000  -343.99701      47.911807     -391.90882      255.13363     -993.58796      960.18531      0.99696118
   1970000  -336.18228      55.007832     -391.19011      292.92044      1176.566       960.18531      0.99696118
   1971000  -322.33097      52.575315     -374.90629      279.96712      1436.6261      960.18531      0.99696118
   1972000  -337.13494      56.015665     -393.1506       298.28722     -8.5134031      960.18531      0.99696118
   1973000  -313.85924      61.701004     -375.56024      328.56204     -2205.1925      960.18531      0.99696118
   1974000  -327.12061      60.305535     -387.42614      321.13107      966.82493      960.18531      0.99696118
   1975000  -322.55637      59.120631     -381.67701      314.82137      1498.7255      960.18531      0.99696118
   1976000  -312.16857      61.936734     -374.1053       329.81731     -825.55253      960.18531      0.99696118
   1977000  -315.52906      60.72824      -376.2573       323.382        646.68888      960.18531      0.99696118
   1978000  -325.82449      55.830368     -381.65486      297.3005       1319.4043      960.18531      0.99696118
   1979000  -336.96343      46.824224     -383.78765      249.34217     -1971.7635      960.18531      0.99696118
   1980000  -326.58064      53.182463     -379.76311      283.20023     -3492.3322      960.18531      0.99696118
   1981000  -338.55646      44.130507     -382.68697      234.99795     -1440.5236      960.18531      0.99696118
   1982000  -324.32094      62.775205     -387.09614      334.28223      833.21188      960.18531      0.99696118
   1983000  -319.78388      62.710779     -382.49466      333.93916     -3916.629       960.18531      0.99696118
   1984000  -332.56837      56.628105     -389.19647      301.5485      -1871.2651      960.18531      0.99696118
   1985000  -328.56482      54.180777     -382.74559      288.51631      1335.6706      960.18531      0.99696118
   1986000  -338.08917      58.199075     -396.28824      309.91403     -955.13227      960.18531      0.99696118
   1987000  -318.21924      67.139351     -385.35859      357.5216       335.14919      960.18531      0.99696118
   1988000  -319.89116      51.235508     -371.12667      272.83256      719.36899      960.18531      0.99696118
   1989000  -327.76051      57.081949     -384.84246      303.96525     -2948.5497      960.18531      0.99696118
   1990000  -325.14955      55.374493     -380.52405      294.87294     -3751.5337      960.18531      0.99696118
   1991000  -326.66734      50.205        -376.87234      267.34503     -1161.3126      960.18531      0.99696118
   1992000  -322.52115      57.106651     -379.6278       304.09679     -161.60229      960.18531      0.99696118
   1993000  -327.74072      60.199606     -387.94033      320.56699     -2315.355       960.18531      0.99696118
   1994000  -326.35888      64.979105     -391.33799      346.01815     -647.02453      960.18531      0.99696118
   1995000  -323.60303      52.576893     -376.17992      279.97553     -4593.2458      960.18531      0.99696118
   1996000  -347.87648      57.440124     -405.3166       305.87256      1106.4813      960.18531      0.99696118
   1997000  -330.79541      52.432851     -383.22826      279.20849     -1861.1092      960.18531      0.99696118
   1998000  -349.51847      56.753454     -406.27192      302.21599     -517.51067      960.18531      0.99696118
   1999000  -330.24448      67.929656     -398.17413      361.73003      6096.8504      960.18531      0.99696118
   2000000  -343.25406      49.492647     -392.74671      263.55171     -514.55941      960.18531      0.99696118
   2001000  -335.62326      60.051062     -395.67432      319.77598      34.276308      960.18531      0.99696118
   2002000  -306.02419      54.577551     -360.60174      290.62916     -1173.6669      960.18531      0.99696118
   2003000  -322.28549      51.14867      -373.43416      272.37014     -2998.6436      960.18531      0.99696118
   2004000  -340.96474      52.173377     -393.13812      277.82678     -1775.6746      960.18531      0.99696118
   2005000  -347.38462      49.752594     -397.13721      264.93594     -3115.8526      960.18531      0.99696118
   2006000  -332.79362      59.390198     -392.18382      316.25683     -712.88329      960.18531      0.99696118
   2007000  -346.98278      48.484618     -395.46739      258.18388     -1465.8218      960.18531      0.99696118
   2008000  -331.18625      53.413653     -384.5999       284.43133      1173.1338      960.18531      0.99696118
   2009000  -335.44915      46.820803     -382.26995      249.32395     -1510.9327      960.18531      0.99696118
   2010000  -321.10748      58.321471     -379.42895      310.56579      1967.1794      960.18531      0.99696118
   2011000  -324.979        58.57725      -383.55625      311.92783     -438.13594      960.18531      0.99696118
   2012000  -334.56118      52.687645     -387.24883      280.56528     -3560.2814      960.18531      0.99696118
   2013000  -345.86644      51.737906     -397.60434      275.50786      2942.8515      960.18531      0.99696118
   2014000  -328.16054      53.475259     -381.6358       284.75939      2268.1851      960.18531      0.99696118
   2015000  -312.22969      61.759336     -373.98902      328.87266     -405.07662      960.18531      0.99696118
   2016000  -315.22741      54.819689     -370.0471       291.91857     -1902.2796      960.18531      0.99696118
   2017000  -334.12805      61.881597     -396.00964      329.5237      -1073.5114      960.18531      0.99696118
   2018000  -332.65803      51.439301     -384.09733      273.91777      5596.6343      960.18531      0.99696118
   2019000  -333.83402      60.242225     -394.07625      320.79394      454.73221      960.18531      0.99696118
   2020000  -345.72551      57.968979     -403.69449      308.68875      968.38085      960.18531      0.99696118
   2021000  -353.30858      56.791175     -410.09976      302.41686      1202.1928      960.18531      0.99696118
   2022000  -342.6188       64.439261     -407.05806      343.14344     -1131.9163      960.18531      0.99696118
   2023000  -339.56789      53.557256     -393.12515      285.19602      2777.5293      960.18531      0.99696118
   2024000  -325.7791       57.33057      -383.10967      305.28917      1047.7372      960.18531      0.99696118
   2025000  -315.44287      61.740853     -377.18372      328.77423     -2462.1346      960.18531      0.99696118
   2026000  -325.4324       62.761932     -388.19433      334.21155      524.44103      960.18531      0.99696118
   2027000  -331.33641      52.751783     -384.0882       280.90682      4018.6936      960.18531      0.99696118
   2028000  -316.14806      52.34333      -368.49139      278.73179     -1740.3036      960.18531      0.99696118
   2029000  -321.84333      57.37442      -379.21775      305.52268      393.85345      960.18531      0.99696118
   2030000  -329.5255       58.754848     -388.28035      312.87355      4408.0565      960.18531      0.99696118
   2031000  -343.21243      51.883566     -395.09599      276.28351      3115.2683      960.18531      0.99696118
   2032000  -314.4925       56.817687     -371.31018      302.55804     -2863.2689      960.18531      0.99696118
   2033000  -332.9753       51.757011     -384.73231      275.6096      -2671.5096      960.18531      0.99696118
   2034000  -348.15311      46.22121      -394.37432      246.13108     -2449.9341      960.18531      0.99696118
   2035000  -331.92879      46.845377     -378.77417      249.45482      1352.9184      960.18531      0.99696118
   2036000  -322.64903      57.836023     -380.48506      307.98075     -2480.9078      960.18531      0.99696118
   2037000  -327.47891      54.805146     -382.28406      291.84113      415.90805      960.18531      0.99696118
   2038000  -316.60458      64.308585     -380.91317      342.44758     -311.53033      960.18531      0.99696118
   2039000  -304.85609      61.236325     -366.09241      326.08759      5473.1429      960.18531      0.99696118
   2040000  -334.98773      53.23017      -388.2179       283.45427     -928.9786       960.18531      0.99696118
   2041000  -327.452        50.128985     -377.58099      266.94025     -108.3362       960.18531      0.99696118
   2042000  -323.49726      62.063278     -385.56054      330.49117     -5197.2441      960.18531      0.99696118
   2043000  -319.57753      53.379628     -372.95716      284.25014     -988.25768      960.18531      0.99696118
   2044000  -313.53167      55.076471     -368.60814      293.28595      2166.2602      960.18531      0.99696118
   2045000  -308.75621      60.892948     -369.64916      324.25908     -1191.9366      960.18531      0.99696118
   2046000  -319.84228      64.80659      -384.64887      345.09949      5681.9483      960.18531      0.99696118
   2047000  -327.99153      53.854821     -381.84635      286.78058      1497.6621      960.18531      0.99696118
   2048000  -312.83767      57.00284      -369.84051      303.54399     -1245.0164      960.18531      0.99696118
   2049000  -322.51804      52.605587     -375.12363      280.12832      2280.7525      960.18531      0.99696118
   2050000  -325.86338      61.041511     -386.90489      325.05019     -4571.9606      960.18531      0.99696118
   2051000  -329.93642      54.191446     -384.12786      288.57313     -830.39347      960.18531      0.99696118
   2052000  -319.39925      63.933794     -383.33304      340.4518       376.51523      960.18531      0.99696118
   2053000  -348.55202      52.295343     -400.84736      278.47625     -928.49556      960.18531      0.99696118
   2054000  -354.09058      47.607442     -401.69802      253.51286     -1797.0561      960.18531      0.99696118
   2055000  -325.30006      61.531944     -386.832        327.66178     -1794.9366      960.18531      0.99696118
   2056000  -316.74709      59.382753     -376.12984      316.21719      281.22312      960.18531      0.99696118
   2057000  -331.98508      50.242023     -382.2271       267.54218      535.03067      960.18531      0.99696118
   2058000  -319.53147      56.018359     -375.54983      298.30156     -1956.0163      960.18531      0.99696118
   2059000  -345.79798      57.843965     -403.64195      308.02304      3229.8396      960.18531      0.99696118
   2060000  -328.54486      50.281285     -378.82615      267.75125     -113.14529      960.18531      0.99696118
   2061000  -345.05596      51.813018     -396.86898      275.90784      3295.5124      960.18531      0.99696118
   2062000  -323.48805      65.055054     -388.5431       346.42258      1309.8255      960.18531      0.99696118
   2063000  -311.71675      57.030175     -368.74693      303.68956     -1578.9703      960.18531      0.99696118
   2064000  -319.10933      58.874809     -377.98414      313.51236      685.91712      960.18531      0.99696118
   2065000  -308.86849      62.399828     -371.26831      332.28332      222.98226      960.18531      0.99696118
   2066000  -320.76881      57.837148     -378.60596      307.98674      4294.0693      960.18531      0.99696118
   2067000  -333.3896       56.569242     -389.95884      301.23505     -3055.7588      960.18531      0.99696118
   2068000  -326.79649      58.828492     -385.62498      313.26572      436.01449      960.18531      0.99696118
   2069000  -346.47144      62.520379     -408.99182      332.92526     -2566.2775      960.18531      0.99696118
   2070000  -317.49819      53.058164     -370.55635      282.53833     -663.4236       960.18531      0.99696118
   2071000  -336.70609      50.176523     -386.88261      267.19339     -1930.5397      960.18531      0.99696118
   2072000  -324.41492      48.704195     -373.11911      259.35315     -93.171965      960.18531      0.99696118
   2073000  -339.69363      52.64335      -392.33698      280.32941      1951.3121      960.18531      0.99696118
   2074000  -322.88013      55.884835     -378.76497      297.59054      1627.7148      960.18531      0.99696118
   2075000  -341.63959      51.867776     -393.50736      276.19943      152.11111      960.18531      0.99696118
   2076000  -331.24447      54.645995     -385.89046      290.99363     -484.88787      960.18531      0.99696118
   2077000  -328.11813      48.864674     -376.98281      260.20771     -2076.6356      960.18531      0.99696118
   2078000  -318.19198      61.872184     -380.06417      329.47358     -5307.4776      960.18531      0.99696118
   2079000  -317.94605      60.966971     -378.91302      324.65326     -6157.4999      960.18531      0.99696118
   2080000  -321.91297      53.950643     -375.86362      287.29084      198.59827      960.18531      0.99696118
   2081000  -310.69831      59.687756     -370.38607      317.84135      3781.6489      960.18531      0.99696118
   2082000  -338.134        46.809749     -384.94374      249.26509     -1432.6649      960.18531      0.99696118
   2083000  -334.45624      58.180635     -392.63687      309.81583     -1603.0084      960.18531      0.99696118
   2084000  -321.83268      65.790419     -387.6231       350.33845     -1949.2411      960.18531      0.99696118
   2085000  -339.18363      48.383761     -387.5674       257.64681      910.24044      960.18531      0.99696118
   2086000  -323.49976      61.450385     -384.95015      327.22747      2973.4102      960.18531      0.99696118
   2087000  -353.12756      43.140242     -396.2678       229.72472     -931.65659      960.18531      0.99696118
   2088000  -324.49723      59.217639     -383.71487      315.33795     -707.30993      960.18531      0.99696118
   2089000  -323.43371      63.845265     -387.27897      339.98037     -3890.6451      960.18531      0.99696118
   2090000  -320.31176      56.547019     -376.85878      301.11671      713.8379       960.18531      0.99696118
   2091000  -321.42297      59.117771     -380.54074      314.80614     -702.41143      960.18531      0.99696118
   2092000  -332.00858      60.037433     -392.04602      319.70341     -2642.2905      960.18531      0.99696118
   2093000  -327.03148      55.756593     -382.78807      296.90764      332.32392      960.18531      0.99696118
   2094000  -336.42179      47.9549       -384.37669      255.3631      -3207.3272      960.18531      0.99696118
   2095000  -321.13873      54.450186     -375.58892      289.95094     -820.23676      960.18531      0.99696118
   2096000  -324.82947      53.445561     -378.27503      284.60124     -2250.5644      960.18531      0.99696118
   2097000  -322.98205      56.204369     -379.18642      299.29208      3062.8619      960.18531      0.99696118
   2098000  -326.71174      55.937108     -382.64885      297.8689       1072.5555      960.18531      0.99696118
   2099000  -328.41061      51.083578     -379.49419      272.02352      1900.3721      960.18531      0.99696118
   2100000  -328.00172      52.548749     -380.55047      279.82566     -2990.8598      960.18531      0.99696118
   2101000  -289.98181      75.968071     -365.94989      404.53514     -963.79096      960.18531      0.99696118
   2102000  -334.92797      53.399723     -388.32769      284.35715     -4797.333       960.18531      0.99696118
   2103000  -310.92345      69.051937     -379.97539      367.70625     -2975.3293      960.18531      0.99696118
   2104000  -335.21908      58.162682     -393.38177      309.72023     -111.6767       960.18531      0.99696118
   2105000  -335.14772      57.382004     -392.52973      305.56307     -1966.5041      960.18531      0.99696118
   2106000  -328.25189      55.730286     -383.98217      296.76756     -1367.0537      960.18531      0.99696118
   2107000  -331.76568      50.68515      -382.45083      269.90186     -4027.0567      960.18531      0.99696118
   2108000  -331.56832      52.20797      -383.77629      278.01099      4345.4765      960.18531      0.99696118
   2109000  -332.39937      48.642844     -381.04222      259.02645     -2496.919       960.18531      0.99696118
   2110000  -326.50114      57.105731     -383.60687      304.09189      2554.3231      960.18531      0.99696118
   2111000  -322.9898       51.485988     -374.47579      274.16638     -2449.3157      960.18531      0.99696118
   2112000  -300.24711      59.332278     -359.57939      315.94841     -2261.4312      960.18531      0.99696118
   2113000  -322.84223      55.088179     -377.93041      293.34829     -261.90693      960.18531      0.99696118
   2114000  -343.57036      48.526917     -392.09728      258.40913     -1962.4134      960.18531      0.99696118
   2115000  -351.88692      53.452063     -405.33898      284.63586      496.48228      960.18531      0.99696118
   2116000  -346.94968      45.07217      -392.02185      240.01236      487.8465       960.18531      0.99696118
   2117000  -339.34803      56.045795     -395.39383      298.44766     -587.93123      960.18531      0.99696118
   2118000  -323.87266      56.317881     -380.19054      299.89654     -1389.7814      960.18531      0.99696118
   2119000  -321.86474      58.806952     -380.67169      313.15101      2418.4852      960.18531      0.99696118
   2120000  -337.70738      51.20456      -388.91194      272.66776      1052.6079      960.18531      0.99696118
   2121000  -335.04344      53.583248     -388.62669      285.33443     -348.73255      960.18531      0.99696118
   2122000  -322.60196      54.008927     -376.61088      287.6012      -147.43365      960.18531      0.99696118
   2123000  -326.14191      59.307345     -385.44925      315.81564     -1571.2177      960.18531      0.99696118
   2124000  -321.44184      52.535954     -373.97779      279.75752     -435.41782      960.18531      0.99696118
   2125000  -306.06948      65.111169     -371.18064      346.72139      1602.6585      960.18531      0.99696118
   2126000  -345.00403      50.71162      -395.71565      270.04282      4637.0462      960.18531      0.99696118
   2127000  -345.50159      53.612886     -399.11448      285.49226     -2238.763       960.18531      0.99696118
   2128000  -343.97633      50.126855     -394.10318      266.9289       2112.0407      960.18531      0.99696118
   2129000  -310.55428      59.920333     -370.47461      319.07984      2828.0155      960.18531      0.99696118
   2130000  -317.85072      58.445102     -376.29582      311.22413     -892.64048      960.18531      0.99696118
   2131000  -318.31442      55.190626     -373.50505      293.89383     -2533.9819      960.18531      0.99696118
   2132000  -339.88069      45.048896     -384.92959      239.88843      2896.9963      960.18531      0.99696118
   2133000  -302.74463      57.516227     -360.26086      306.27781     -1051.5022      960.18531      0.99696118
   2134000  -326.44533      53.346259     -379.79158      284.07245     -92.473605      960.18531      0.99696118
   2135000  -314.56435      58.873897     -373.43825      313.5075      -114.29074      960.18531      0.99696118
   2136000  -336.88642      54.456635     -391.34305      289.98528     -3240.0828      960.18531      0.99696118
   2137000  -331.79627      55.693925     -387.4902       296.57393     -1897.0753      960.18531      0.99696118
   2138000  -340.33976      54.2607       -394.60046      288.94191     -1292.717       960.18531      0.99696118
   2139000  -323.34462      56.33345      -379.67807      299.97944     -678.93653      960.18531      0.99696118
   2140000  -329.72422      55.712329     -385.43655      296.67193      2409.2323      960.18531      0.99696118
   2141000  -349.88906      58.732445     -408.62151      312.75425      589.95737      960.18531      0.99696118
   2142000  -328.9197       57.94639      -386.86609      308.56846      631.58462      960.18531      0.99696118
   2143000  -315.03381      61.4114       -376.44521      327.01987      2021.6166      960.18531      0.99696118
   2144000  -331.62408      48.815038     -380.43911      259.94339     -923.33871      960.18531      0.99696118
   2145000  -330.39604      49.117043     -379.51309      261.55159     -1696.3131      960.18531      0.99696118
   2146000  -317.82565      54.644524     -372.47017      290.9858      -2971.0567      960.18531      0.99696118
   2147000  -324.91955      53.591721     -378.51127      285.37955     -2303.6283      960.18531      0.99696118
   2148000  -326.68174      48.654375     -375.33612      259.08785      1197.3826      960.18531      0.99696118
   2149000  -323.79732      52.458265     -376.25558      279.34382      2264.2655      960.18531      0.99696118
   2150000  -328.86693      59.787066     -388.654        318.37019     -2208.5009      960.18531      0.99696118
   2151000  -330.91056      56.302359     -387.21292      299.81388     -567.9244       960.18531      0.99696118
   2152000  -318.23955      61.799348     -380.0389       329.08572      3091.6365      960.18531      0.99696118
   2153000  -334.47174      48.821618     -383.29336      259.97843      6634.8088      960.18531      0.99696118
   2154000  -326.31085      61.323568     -387.63441      326.55216     -5678.0545      960.18531      0.99696118
   2155000  -319.06655      50.857148     -369.92369      270.81776     -392.0553       960.18531      0.99696118
   2156000  -317.80644      54.400978     -372.20742      289.6889      -511.72983      960.18531      0.99696118
   2157000  -339.46329      44.889212     -384.3525       239.0381      -426.60685      960.18531      0.99696118
   2158000  -329.15016      53.951542     -383.1017       287.29562     -4976.1472      960.18531      0.99696118
   2159000  -316.8205       62.078719     -378.89922      330.57339      877.16674      960.18531      0.99696118
   2160000  -333.11876      53.994421     -387.11318      287.52396      1704.0047      960.18531      0.99696118
   2161000  -326.377        53.280719     -379.65772      283.72344     -1081.6038      960.18531      0.99696118
   2162000  -321.84181      63.642851     -385.48466      338.9025      -5232.4336      960.18531      0.99696118
   2163000  -316.26716      56.010149     -372.27731      298.25785     -12.93196       960.18531      0.99696118
   2164000  -311.52928      57.131471     -368.66075      304.22896     -4327.0182      960.18531      0.99696118
   2165000  -320.32443      57.957828     -378.28225      308.62937     -3164.0108      960.18531      0.99696118
   2166000  -321.49297      52.616364     -374.10934      280.18571      1337.8585      960.18531      0.99696118
   2167000  -321.40239      56.974491     -378.37688      303.39303     -1844.7734      960.18531      0.99696118
   2168000  -335.73769      53.675787     -389.41348      285.82721     -1584.5848      960.18531      0.99696118
   2169000  -317.97584      58.497659     -376.4735       311.50401     -1225.4049      960.18531      0.99696118
   2170000  -311.50117      68.21375      -379.71492      363.24285      3442.4798      960.18531      0.99696118
   2171000  -325.99         58.602434     -384.59243      312.06194      2646.5633      960.18531      0.99696118
   2172000  -328.77691      53.587286     -382.3642       285.35593      726.44603      960.18531      0.99696118
   2173000  -339.09366      53.717762     -392.81142      286.05073     -521.58145      960.18531      0.99696118
   2174000  -338.70043      49.652441     -388.35287      264.40262     -236.48312      960.18531      0.99696118
   2175000  -321.72506      48.532232     -370.25729      258.43743     -647.56617      960.18531      0.99696118
   2176000  -310.85346      67.121435     -377.9749       357.4262      -4032.669       960.18531      0.99696118
   2177000  -314.28002      62.3983       -376.67832      332.27518     -65.620009      960.18531      0.99696118
   2178000  -330.48715      63.816391     -394.30354      339.82661      796.16018      960.18531      0.99696118
   2179000  -335.31263      53.369868     -388.6825       284.19817     -385.03294      960.18531      0.99696118
   2180000  -327.10092      60.057786     -387.15871      319.81179      60.544643      960.18531      0.99696118
   2181000  -333.52979      46.905333     -380.43512      249.77408      585.01637      960.18531      0.99696118
   2182000  -342.90522      47.428582     -390.33381      252.56042      5039.2948      960.18531      0.99696118
   2183000  -318.03465      58.889758     -376.92441      313.59196     -1261.1836      960.18531      0.99696118
   2184000  -329.5783       49.500687     -379.07899      263.59452     -2454.5914      960.18531      0.99696118
   2185000  -318.14241      60.323437     -378.46584      321.2264      -330.79506      960.18531      0.99696118
   2186000  -312.34657      51.139797     -363.48637      272.32289      807.77024      960.18531      0.99696118
   2187000  -339.04763      44.30203      -383.34966      235.91132     -753.79719      960.18531      0.99696118
   2188000  -324.44095      60.10508      -384.54603      320.06363      1608.6641      960.18531      0.99696118
   2189000  -336.47309      49.320739     -385.79383      262.63628      2644.9957      960.18531      0.99696118
   2190000  -326.0742       59.144199     -385.2184       314.94687     -1027.1158      960.18531      0.99696118
   2191000  -345.65558      48.812916     -394.4685       259.93209     -2234.6409      960.18531      0.99696118
   2192000  -336.84032      48.399666     -385.23998      257.7315      -2467.8145      960.18531      0.99696118
   2193000  -349.49179      57.091261     -406.58305      304.01484     -2586.3018      960.18531      0.99696118
   2194000  -338.18405      54.963414     -393.14746      292.68391      2648.2718      960.18531      0.99696118
   2195000  -328.32409      65.891177     -394.21527      350.87499     -493.23212      960.18531      0.99696118
   2196000  -334.26885      53.105204     -387.37405      282.78882      796.11332      960.18531      0.99696118
   2197000  -319.07469      52.315832     -371.39052      278.58535      3451.3157      960.18531      0.99696118
   2198000  -338.8207       59.268136     -398.08883      315.60685      451.6499       960.18531      0.99696118
   2199000  -311.53873      65.2033       -376.74203      347.212       -2516.4839      960.18531      0.99696118
   2200000  -337.81044      51.725922     -389.53636      275.44405     -1498.1838      960.18531      0.99696118
   2201000  -315.89985      54.606195     -370.50605      290.78169      492.76852      960.18531      0.99696118
   2202000  -329.54683      60.029463     -389.5763       319.66097      1519.3754      960.18531      0.99696118
   2203000  -320.27155      56.461779     -376.73333      300.66281     -824.9558       960.18531      0.99696118
   2204000  -317.59852      56.794625     -374.39315      302.43523      506.80129      960.18531      0.99696118
   2205000  -326.62826      59.374902     -386.00316      316.17538     -1888.667       960.18531      0.99696118
   2206000  -314.68285      57.600647     -372.2835       306.72736     -3771.5024      960.18531      0.99696118
   2207000  -318.29935      62.329403     -380.62875      331.9083      -777.03407      960.18531      0.99696118
   2208000  -324.10834      57.914122     -382.02247      308.39663     -2029.0657      960.18531      0.99696118
   2209000  -327.0494       55.932789     -382.98219      297.8459      -270.6037       960.18531      0.99696118
   2210000  -322.07657      48.232809     -370.30938      256.84298     -142.90779      960.18531      0.99696118
   2211000  -312.81474      56.457073     -369.27181      300.63774     -812.75871      960.18531      0.99696118
   2212000  -318.30176      62.644405     -380.94617      333.58571     -212.33799      960.18531      0.99696118
   2213000  -308.79433      63.285176     -372.0795       336.99786      6745.7373      960.18531      0.99696118
   2214000  -322.5366       48.501902     -371.0385       258.27592     -1661.4968      960.18531      0.99696118
   2215000  -342.05653      47.208857     -389.26539      251.39037     -3900.489       960.18531      0.99696118
   2216000  -317.34222      64.296735     -381.63895      342.38448     -4375.8523      960.18531      0.99696118
   2217000  -328.40376      52.787145     -381.19091      281.09513     -1733.9753      960.18531      0.99696118
   2218000  -355.0799       45.425235     -400.50514      241.89246     -4321.0192      960.18531      0.99696118
   2219000  -320.29989      52.669885     -372.96977      280.47071      2024.6833      960.18531      0.99696118
   2220000  -336.43308      49.719969     -386.15305      264.76221      777.03302      960.18531      0.99696118
   2221000  -322.92771      59.740286     -382.668        318.12108     -445.36941      960.18531      0.99696118
   2222000  -345.84412      48.45248      -394.2966       258.01275     -3122.4821      960.18531      0.99696118
   2223000  -326.78773      51.036647     -377.82438      271.77361      108.65894      960.18531      0.99696118
   2224000  -326.61925      68.574549     -395.1938       365.16413      1480.1978      960.18531      0.99696118
   2225000  -333.1222       56.797665     -389.91987      302.45142      2990.0421      960.18531      0.99696118
   2226000  -323.87354      53.489737     -377.36328      284.83648     -1474.3749      960.18531      0.99696118
   2227000  -312.21605      67.739828     -379.95587      360.71918      2810.9595      960.18531      0.99696118
   2228000  -341.35752      49.268411     -390.62593      262.35763      2401.1567      960.18531      0.99696118
   2229000  -341.97219      53.136587     -395.10878      282.95593      461.19963      960.18531      0.99696118
   2230000  -327.14366      49.435924     -376.57959      263.24965     -783.09629      960.18531      0.99696118
   2231000  -320.5553       60.169705     -380.72501      320.40776     -1854.7597      960.18531      0.99696118
   2232000  -326.20799      55.759773     -381.96776      296.92457      2671.3171      960.18531      0.99696118
   2233000  -329.79432      51.153859     -380.94818      272.39777      913.59908      960.18531      0.99696118
   2234000  -338.8296       46.659111     -385.48871      248.46293     -1961.8921      960.18531      0.99696118
   2235000  -340.07015      49.767539     -389.83769      265.01552     -565.56819      960.18531      0.99696118
   2236000  -339.48598      51.784174     -391.27016      275.75424     -966.24362      960.18531      0.99696118
   2237000  -326.53025      50.518434     -377.04868      269.01409     -651.4166       960.18531      0.99696118
   2238000  -329.58741      60.28499      -389.8724       321.02166     -639.25753      960.18531      0.99696118
   2239000  -346.14979      46.979422     -393.12921      250.16861     -2542.4638      960.18531      0.99696118
   2240000  -334.28011      48.968631     -383.24874      260.76128     -243.48549      960.18531      0.99696118
   2241000  -324.15604      52.330021     -376.48606      278.66092     -422.23074      960.18531      0.99696118
   2242000  -341.59945      52.644644     -394.24409      280.33631     -9.1537705      960.18531      0.99696118
   2243000  -318.38747      62.977952     -381.36543      335.36187     -333.29368      960.18531      0.99696118
   2244000  -323.24724      57.749746     -380.99699      307.52132     -1639.2693      960.18531      0.99696118
   2245000  -309.05068      66.218223     -375.26891      352.61653     -4752.2975      960.18531      0.99696118
   2246000  -315.01224      56.334333     -371.34657      299.98415      2593.8686      960.18531      0.99696118
   2247000  -332.4453       56.303603     -388.74891      299.82051     -2636.1569      960.18531      0.99696118
   2248000  -327.44038      59.332224     -386.7726       315.94812      3077.3038      960.18531      0.99696118
   2249000  -327.81648      58.81316      -386.62964      313.18407      346.59472      960.18531      0.99696118
   2250000  -332.57853      54.554109     -387.13264      290.50434      1317.098       960.18531      0.99696118
   2251000  -319.76731      60.192711     -379.96002      320.53027     -2074.4537      960.18531      0.99696118
   2252000  -328.28051      44.078178     -372.35869      234.71929      3567.6815      960.18531      0.99696118
   2253000  -340.28712      57.168171     -397.45529      304.42439     -336.86809      960.18531      0.99696118
   2254000  -309.47104      54.594871     -364.06591      290.72139      2370.9988      960.18531      0.99696118
   2255000  -335.84527      51.36873      -387.214        273.54197     -1550.1936      960.18531      0.99696118
   2256000  -338.39138      58.261702     -396.65308      310.24752     -1091.3756      960.18531      0.99696118
   2257000  -320.2242       56.187761     -376.41196      299.20364     -2936.9792      960.18531      0.99696118
   2258000  -321.46773      56.527574     -377.9953       301.01317     -169.93511      960.18531      0.99696118
   2259000  -331.70369      54.235902     -385.9396       288.80986     -1570.934       960.18531      0.99696118
   2260000  -355.85927      45.869937     -401.72921      244.26053     -6103.5021      960.18531      0.99696118
   2261000  -336.19419      58.632109     -394.82629      312.21996      1520.3397      960.18531      0.99696118
   2262000  -316.51406      57.846442     -374.3605       308.03623     -103.19124      960.18531      0.99696118
   2263000  -324.60337      60.426684     -385.03005      321.77619     -2222.6064      960.18531      0.99696118
   2264000  -316.00835      63.643213     -379.65156      338.90443     -96.90066       960.18531      0.99696118
   2265000  -326.46937      57.088225     -383.55759      303.99868      2674.6982      960.18531      0.99696118
   2266000  -328.24079      63.550585     -391.79137      338.41118     -1574.6404      960.18531      0.99696118
   2267000  -333.50775      54.676461     -388.18421      291.15587     -1331.6958      960.18531      0.99696118
   2268000  -319.81119      63.147439     -382.95862      336.2644       1682.644       960.18531      0.99696118
   2269000  -317.19014      56.02101      -373.21115      298.31568      3769.2621      960.18531      0.99696118
   2270000  -307.24711      63.505411     -370.75252      338.17062      2095.9519      960.18531      0.99696118
   2271000  -327.99074      49.84886      -377.8396       265.44856      1811.1847      960.18531      0.99696118
   2272000  -315.71178      55.427683     -371.13946      295.15617      444.96261      960.18531      0.99696118
   2273000  -345.26794      51.301478     -396.56942      273.18385     -3269.7332      960.18531      0.99696118
   2274000  -329.87108      45.020363     -374.89144      239.73649      3639.2017      960.18531      0.99696118
   2275000  -325.49469      57.507075     -383.00176      306.22908     -173.85294      960.18531      0.99696118
   2276000  -340.16185      50.143217     -390.30507      267.01603      59.665699      960.18531      0.99696118
   2277000  -307.82248      58.268309     -366.09079      310.2827       5164.4774      960.18531      0.99696118
   2278000  -336.63144      62.353697     -398.98514      332.03767     -2103.0953      960.18531      0.99696118
   2279000  -328.20441      53.511784     -381.7162       284.95388     -946.83058      960.18531      0.99696118
   2280000  -332.99026      63.839519     -396.82978      339.94977     -534.47728      960.18531      0.99696118
   2281000  -342.98569      49.822823     -392.80851      265.30991     -1357.0874      960.18531      0.99696118
   2282000  -327.92587      58.903533     -386.8294       313.66531      352.22756      960.18531      0.99696118
   2283000  -317.55963      50.487418     -368.04705      268.84893      1740.467       960.18531      0.99696118
   2284000  -325.82279      61.628674     -387.45146      328.17687     -562.65         960.18531      0.99696118
   2285000  -318.56318      53.866779     -372.42995      286.84426      632.21487      960.18531      0.99696118
   2286000  -330.83736      56.055485     -386.89285      298.49926      499.67018      960.18531      0.99696118
   2287000  -338.39976      50.914633     -389.31439      271.12388      3979.0513      960.18531      0.99696118
   2288000  -317.02675      54.949889     -371.97664      292.61189      1071.1592      960.18531      0.99696118
   2289000  -337.32729      53.670781     -390.99807      285.80055     -2918.0709      960.18531      0.99696118
   2290000  -323.12612      51.594085     -374.7202       274.74201      190.56126      960.18531      0.99696118
   2291000  -321.28691      49.201344     -370.48826      262.0005       86.481243      960.18531      0.99696118
   2292000  -315.54254      55.689286     -371.23183      296.54923     -5514.0079      960.18531      0.99696118
   2293000  -317.63453      51.982339     -369.61687      276.80948     -3559.3517      960.18531      0.99696118
   2294000  -323.6776       57.075645     -380.75324      303.93168     -425.67919      960.18531      0.99696118
   2295000  -319.94321      58.809448     -378.75266      313.1643       2631.766       960.18531      0.99696118
   2296000  -320.50289      52.590455     -373.09335      280.04774     -2877.8934      960.18531      0.99696118
   2297000  -334.5321       56.511998     -391.0441       300.93022     -3365.3964      960.18531      0.99696118
   2298000  -337.27347      51.001786     -388.27526      271.58797      1115.2055      960.18531      0.99696118
   2299000  -325.87442      53.905837     -379.78025      287.05224      1828.7441      960.18531      0.99696118
   2300000  -310.38825      58.732325     -369.12057      312.75362      1353.4613      960.18531      0.99696118
   2301000  -319.64055      57.633833     -377.27438      306.90407     -322.12129      960.18531      0.99696118
   2302000  -312.1297       65.642484     -377.77218      349.55068      2507.5335      960.18531      0.99696118
   2303000  -326.20489      54.557763     -380.76265      290.52379     -75.770068      960.18531      0.99696118
   2304000  -316.03095      63.747009     -379.77796      339.45715     -1057.1192      960.18531      0.99696118
   2305000  -329.63664      58.065219     -387.70186      309.20123      67.596769      960.18531      0.99696118
   2306000  -328.35975      52.903019     -381.26277      281.71217     -3931.0911      960.18531      0.99696118
   2307000  -317.97616      53.199877     -371.17603      283.29296     -377.17287      960.18531      0.99696118
   2308000  -341.69132      46.350405     -388.04173      246.81905     -1794.115       960.18531      0.99696118
   2309000  -319.24803      53.062681     -372.31072      282.56238      2537.7786      960.18531      0.99696118
   2310000  -298.64986      68.687397     -367.33726      365.76505     -3328.6897      960.18531      0.99696118
   2311000  -319.26436      55.792141     -375.0565       297.09694     -2991.4953      960.18531      0.99696118
   2312000  -322.48393      56.221865     -378.7058       299.38525     -373.44889      960.18531      0.99696118
   2313000  -333.08861      57.041878     -390.13048      303.75187     -1998.9939      960.18531      0.99696118
   2314000  -324.72317      59.313157     -384.03632      315.84659      244.79758      960.18531      0.99696118
   2315000  -325.84081      63.898171     -389.73898      340.2621      -750.34444      960.18531      0.99696118
   2316000  -338.67051      53.124274     -391.79479      282.89037      9.8367087      960.18531      0.99696118
   2317000  -343.85191      50.819948     -394.67186      270.61967     -4324.4984      960.18531      0.99696118
   2318000  -332.17366      53.622891     -385.79656      285.54554     -365.20278      960.18531      0.99696118
   2319000  -305.95907      63.933532     -369.8926       340.4504       1476.0694      960.18531      0.99696118
   2320000  -318.19484      63.369352     -381.56419      337.4461      -877.05034      960.18531      0.99696118
   2321000  -318.98301      61.344755     -380.32776      326.66499      1457.8052      960.18531      0.99696118
   2322000  -318.69875      51.327423     -370.02617      273.32201     -4940.0874      960.18531      0.99696118
   2323000  -321.08253      63.771188     -384.85372      339.5859      -227.28274      960.18531      0.99696118
   2324000  -321.08223      45.272512     -366.35474      241.0792      -576.0447       960.18531      0.99696118
   2325000  -308.05835      71.078266     -379.13662      378.49659     -763.87573      960.18531      0.99696118
   2326000  -334.42252      46.643418     -381.06594      248.37937      236.11015      960.18531      0.99696118
   2327000  -332.95343      56.649156     -389.60258      301.6606       2547.1018      960.18531      0.99696118
   2328000  -328.68785      50.019029     -378.70688      266.35473      264.40055      960.18531      0.99696118
   2329000  -334.01294      53.451423     -387.46436      284.63245     -790.37781      960.18531      0.99696118
   2330000  -333.15035      63.044363     -396.19472      335.71551      228.47316      960.18531      0.99696118
   2331000  -317.43402      62.37891      -379.81293      332.17193      4264.2083      960.18531      0.99696118
   2332000  -333.42846      48.478605     -381.90706      258.15186     -3837.861       960.18531      0.99696118
   2333000  -335.39449      51.22797      -386.62246      272.79242     -1893.9602      960.18531      0.99696118
   2334000  -330.11121      56.984562     -387.09577      303.44666     -1208.4055      960.18531      0.99696118
   2335000  -320.45512      67.207158     -387.66228      357.88268     -1826.8067      960.18531      0.99696118
   2336000  -325.4973       54.993385     -380.49068      292.84351     -1268.679       960.18531      0.99696118
   2337000  -336.52344      39.936886     -376.46033      212.66663     -263.00662      960.18531      0.99696118
   2338000  -303.80822      63.256672     -367.06489      336.84607      1971.9355      960.18531      0.99696118
   2339000  -321.03852      52.49708      -373.5356       279.55052      933.31109      960.18531      0.99696118
   2340000  -323.79044      56.767734     -380.55818      302.29204     -3430.9837      960.18531      0.99696118
   2341000  -325.34424      57.661775     -383.00602      307.05287      680.73908      960.18531      0.99696118
   2342000  -318.22575      62.004532     -380.23028      330.17834     -2751.75        960.18531      0.99696118
   2343000  -310.56628      57.215653     -367.78194      304.67723     -790.69635      960.18531      0.99696118
   2344000  -314.92046      59.511908     -374.43237      316.90495      4661.989       960.18531      0.99696118
   2345000  -316.92435      60.03534      -376.95969      319.69226     -1001.8841      960.18531      0.99696118
   2346000  -326.92964      46.194867     -373.12451      245.9908      -1917.9443      960.18531      0.99696118
   2347000  -329.31643      46.141079     -375.45751      245.70438     -212.04675      960.18531      0.99696118
   2348000  -320.77707      66.334727     -387.1118       353.23692     -591.30847      960.18531      0.99696118
   2349000  -324.33878      56.389082     -380.72786      300.27569      1360.6441      960.18531      0.99696118
   2350000  -330.54527      60.70381      -391.24908      323.25191     -4718.0988      960.18531      0.99696118
   2351000  -332.69659      64.573858     -397.27045      343.86018     -555.56421      960.18531      0.99696118
   2352000  -331.04247      58.03716      -389.07963      309.05181     -783.2361       960.18531      0.99696118
   2353000  -336.99684      52.115777     -389.11262      277.52005      1554.7461      960.18531      0.99696118
   2354000  -325.24966      45.926022     -371.17568      244.55919     -4297.5489      960.18531      0.99696118
   2355000  -322.43393      53.342558     -375.77649      284.05274      28.660976      960.18531      0.99696118
   2356000  -329.36197      60.045054     -389.40703      319.74399      2797.4154      960.18531      0.99696118
   2357000  -335.7667       46.395901     -382.1626       247.06132      2196.7783      960.18531      0.99696118
   2358000  -323.47885      55.725145     -379.20399      296.74018     -3073.5634      960.18531      0.99696118
   2359000  -329.8656       47.547297     -377.4129       253.19258      0.36649125     960.18531      0.99696118
   2360000  -329.45759      53.243246     -382.70084      283.5239      -430.39261      960.18531      0.99696118
   2361000  -323.18818      58.089692     -381.27788      309.33156      114.10665      960.18531      0.99696118
   2362000  -341.59338      52.475391     -394.06877      279.43502      281.3563       960.18531      0.99696118
   2363000  -325.93162      46.296125     -372.22774      246.53001     -4665.9315      960.18531      0.99696118
   2364000  -314.03564      60.416009     -374.45165      321.71935     -3696.0627      960.18531      0.99696118
   2365000  -335.52674      46.086171     -381.61291      245.41199      1818.4144      960.18531      0.99696118
   2366000  -314.96423      48.110125     -363.07435      256.18968     -302.81947      960.18531      0.99696118
   2367000  -331.34715      59.879234     -391.22639      318.86099     -1350.9598      960.18531      0.99696118
   2368000  -327.72864      47.386964     -375.11561      252.3388      -1764.1752      960.18531      0.99696118
   2369000  -311.37378      60.486237     -371.86002      322.09332     -5696.842       960.18531      0.99696118
   2370000  -326.99242      52.698649     -379.69107      280.62388     -594.75977      960.18531      0.99696118
   2371000  -323.81811      52.353261     -376.17137      278.78467      1872.5942      960.18531      0.99696118
   2372000  -321.18035      57.408068     -378.58842      305.70186     -1187.1591      960.18531      0.99696118
   2373000  -334.3509       56.259525     -390.61042      299.58579     -729.92517      960.18531      0.99696118
   2374000  -321.37888      57.730164     -379.10905      307.41704     -1175.6901      960.18531      0.99696118
   2375000  -332.06824      50.545781     -382.61402      269.15972     -1225.4446      960.18531      0.99696118
   2376000  -334.61335      60.942362     -395.55571      324.52221     -3297.4569      960.18531      0.99696118
   2377000  -327.83401      58.920725     -386.75474      313.75686     -1643.1914      960.18531      0.99696118
   2378000  -324.77311      55.511602     -380.28471      295.60305     -1.0847696      960.18531      0.99696118
   2379000  -335.77767      49.466825     -385.2445       263.4142      -261.55973      960.18531      0.99696118
   2380000  -333.06799      58.959443     -392.02744      313.96304     -1228.9115      960.18531      0.99696118
   2381000  -338.00755      56.863553     -394.8711       302.80228      1421.3         960.18531      0.99696118
   2382000  -320.10039      66.59768      -386.69807      354.63717      588.92378      960.18531      0.99696118
   2383000  -338.68293      51.343739     -390.02667      273.4089      -2132.0301      960.18531      0.99696118
   2384000  -330.06522      64.518747     -394.58397      343.56671      1391.6072      960.18531      0.99696118
   2385000  -335.00575      57.737564     -392.74331      307.45645     -656.60581      960.18531      0.99696118
   2386000  -338.23221      51.563089     -389.7953       274.57695     -364.37452      960.18531      0.99696118
   2387000  -319.82536      63.708598     -383.53395      339.25261      11.81879       960.18531      0.99696118
   2388000  -316.17352      64.371357     -380.54488      342.78184     -715.37443      960.18531      0.99696118
   2389000  -346.03725      49.468136     -395.50539      263.42118     -3082.9624      960.18531      0.99696118
   2390000  -344.8077       48.417645     -393.22535      257.82725     -423.61862      960.18531      0.99696118
   2391000  -330.39764      58.582574     -388.98021      311.95618      514.38333      960.18531      0.99696118
   2392000  -303.20861      56.205339     -359.41394      299.29724     -597.16488      960.18531      0.99696118
   2393000  -313.90476      61.935615     -375.84038      329.81136     -1866.508       960.18531      0.99696118
   2394000  -332.65296      50.742137     -383.3951       270.20532     -533.42946      960.18531      0.99696118
   2395000  -344.70016      38.748027     -383.44819      206.33587     -987.64364      960.18531      0.99696118
   2396000  -315.97354      57.147592     -373.12113      304.31481     -1508.1107      960.18531      0.99696118
   2397000  -323.5408       58.791474     -382.33228      313.06859     -3337.9143      960.18531      0.99696118
   2398000  -310.35598      59.924997     -370.28098      319.10468     -777.86708      960.18531      0.99696118
   2399000  -324.28678      56.956083     -381.24286      303.29501     -252.72502      960.18531      0.99696118
   2400000  -320.89952      57.920603     -378.82013      308.43114      1104.2984      960.18531      0.99696118
   2401000  -326.92499      58.081184     -385.00617      309.28625      800.13034      960.18531      0.99696118
   2402000  -315.34027      56.924865     -372.26513      303.12877     -2779.4743      960.18531      0.99696118
   2403000  -305.0699       73.557961     -378.62786      391.70113     -2580.2315      960.18531      0.99696118
   2404000  -313.84793      57.937959     -371.78589      308.52356      1646.6087      960.18531      0.99696118
   2405000  -303.03005      70.345611     -373.37566      374.59516     -942.17658      960.18531      0.99696118
   2406000  -325.62091      53.1965       -378.81741      283.27498     -1068.4155      960.18531      0.99696118
   2407000  -306.00131      62.411744     -368.41306      332.34677     -813.55809      960.18531      0.99696118
   2408000  -325.03834      60.597885     -385.63623      322.68785     -922.37107      960.18531      0.99696118
   2409000  -327.6074       61.661688     -389.26909      328.35268      1493.677       960.18531      0.99696118
   2410000  -321.50615      56.032132     -377.53828      298.37491      2366.7434      960.18531      0.99696118
   2411000  -333.43567      51.418107     -384.85377      273.80491      3192.844       960.18531      0.99696118
   2412000  -328.11913      49.975766     -378.0949       266.12435      153.96284      960.18531      0.99696118
   2413000  -340.08134      51.194375     -391.27572      272.61352      2401.2701      960.18531      0.99696118
   2414000  -320.89267      58.444642     -379.33732      311.22169     -2761.0192      960.18531      0.99696118
   2415000  -317.83037      57.183682     -375.01406      304.50699      889.27794      960.18531      0.99696118
   2416000  -325.40831      66.902364     -392.31068      356.25963      213.25568      960.18531      0.99696118
   2417000  -329.01268      54.150216     -383.16289      288.35358      527.29927      960.18531      0.99696118
   2418000  -300.39114      61.26615      -361.65729      326.24641      412.2707       960.18531      0.99696118
   2419000  -315.64462      63.2671       -378.91172      336.9016       152.08759      960.18531      0.99696118
   2420000  -336.64837      50.004964     -386.65333      266.27983      790.32785      960.18531      0.99696118
   2421000  -309.63223      70.10754      -379.73977      373.32741      1480.5705      960.18531      0.99696118
   2422000  -326.89903      60.901635     -387.80066      324.30534     -3506.7863      960.18531      0.99696118
   2423000  -335.98079      56.143421     -392.12421      298.96753     -3738.7987      960.18531      0.99696118
   2424000  -317.03463      52.023341     -369.05798      277.02782     -34.147977      960.18531      0.99696118
   2425000  -300.07026      59.240403     -359.31066      315.45917     -828.90495      960.18531      0.99696118
   2426000  -328.22124      52.604337     -380.82557      280.12166      250.66729      960.18531      0.99696118
   2427000  -341.93977      49.768735     -391.70851      265.02189     -329.05648      960.18531      0.99696118
   2428000  -328.37865      57.696748     -386.0754       307.2391       28.281568      960.18531      0.99696118
   2429000  -332.80177      68.551375     -401.35315      365.04073      1175.8224      960.18531      0.99696118
   2430000  -339.29448      53.519103     -392.81358      284.99286      4239.6675      960.18531      0.99696118
   2431000  -343.12067      49.931287     -393.05196      265.88749      1418.9145      960.18531      0.99696118
   2432000  -327.43493      51.772151     -379.20708      275.69022     -1903.6182      960.18531      0.99696118
   2433000  -331.49338      51.046128     -382.53951      271.82409      915.51261      960.18531      0.99696118
   2434000  -316.97948      59.463416     -376.44289      316.64673      3739.1411      960.18531      0.99696118
   2435000  -323.09319      59.397764     -382.49095      316.29712     -1866.5144      960.18531      0.99696118
   2436000  -313.1801       61.922741     -375.10285      329.7428       78.572624      960.18531      0.99696118
   2437000  -331.59983      52.016707     -383.61654      276.9925       4171.3393      960.18531      0.99696118
   2438000  -320.28024      56.768874     -377.04912      302.29811      2071.7337      960.18531      0.99696118
   2439000  -325.45351      51.414709     -376.86822      273.78682      367.23196      960.18531      0.99696118
   2440000  -301.67969      68.624525     -370.30421      365.43025     -404.44456      960.18531      0.99696118
   2441000  -334.26177      50.44743      -384.7092       268.63599      335.36144      960.18531      0.99696118
   2442000  -318.12876      58.717651     -376.84641      312.67548      8.0004198      960.18531      0.99696118
   2443000  -308.19374      62.277666     -370.47141      331.6328      -3797.6195      960.18531      0.99696118
   2444000  -298.82759      61.352233     -360.17982      326.7048      -1205.2204      960.18531      0.99696118
   2445000  -323.52269      54.780768     -378.30346      291.71131      1659.1949      960.18531      0.99696118
   2446000  -352.28475      44.151202     -396.43595      235.10815      1459.0215      960.18531      0.99696118
   2447000  -317.11643      58.37705      -375.49348      310.86176      950.24884      960.18531      0.99696118
   2448000  -320.61047      58.596253     -379.20672      312.02902     -556.89865      960.18531      0.99696118
   2449000  -327.17518      54.299536     -381.47472      289.14871      620.81067      960.18531      0.99696118
   2450000  -347.34122      42.696754     -390.03798      227.36312     -1527.1666      960.18531      0.99696118
   2451000  -335.69362      48.669107     -384.36272      259.1663       123.0509       960.18531      0.99696118
   2452000  -316.26877      50.337664     -366.60643      268.05148      1679.6849      960.18531      0.99696118
   2453000  -333.13366      50.218065     -383.35173      267.41461      425.09928      960.18531      0.99696118
   2454000  -313.58517      63.809046     -377.39421      339.7875      -2870.3837      960.18531      0.99696118
   2455000  -336.91521      56.480757     -393.39597      300.76387     -413.28269      960.18531      0.99696118
   2456000  -327.36245      45.972831     -373.33528      244.80845      1420.6688      960.18531      0.99696118
   2457000  -312.50581      61.827504     -374.33332      329.23566     -2168.2451      960.18531      0.99696118
   2458000  -318.35348      61.137252     -379.49074      325.56002     -3259.273       960.18531      0.99696118
   2459000  -337.78267      56.261587     -394.04426      299.59677     -1154.7727      960.18531      0.99696118
   2460000  -328.68392      59.295475     -387.9794       315.75243      121.89515      960.18531      0.99696118
   2461000  -336.78737      48.81746      -385.60483      259.95629     -1773.1586      960.18531      0.99696118
   2462000  -314.29804      51.963449     -366.26149      276.7089      -1538.9159      960.18531      0.99696118
   2463000  -332.88208      54.195155     -387.07724      288.59288     -1774.031       960.18531      0.99696118
   2464000  -329.54296      54.361189     -383.90415      289.47702     -370.43395      960.18531      0.99696118
   2465000  -335.41571      56.130853     -391.54656      298.9006      -2988.3345      960.18531      0.99696118
   2466000  -328.20983      60.992583     -389.20242      324.78964     -3097.6518      960.18531      0.99696118
   2467000  -327.41824      54.123522     -381.54176      288.21143     -89.481397      960.18531      0.99696118
   2468000  -330.72469      51.485356     -382.21005      274.16302     -3467.8819      960.18531      0.99696118
   2469000  -314.81449      60.740802     -375.55529      323.4489      -1843.29        960.18531      0.99696118
   2470000  -323.23675      61.232254     -384.469        326.06591      273.02123      960.18531      0.99696118
   2471000  -321.9968       56.235487     -378.23229      299.45779     -2826.9704      960.18531      0.99696118
   2472000  -344.51136      48.755051     -393.26641      259.62395      1878.7059      960.18531      0.99696118
   2473000  -337.79136      53.375579     -391.16694      284.22858     -340.25413      960.18531      0.99696118
   2474000  -320.54917      57.998814     -378.54799      308.84762     -4435.2285      960.18531      0.99696118
   2475000  -347.90672      55.278397     -403.18512      294.36121     -2282.9011      960.18531      0.99696118
   2476000  -331.2629       57.176329     -388.43923      304.46783     -2442.5648      960.18531      0.99696118
   2477000  -341.36775      50.965315     -392.33306      271.39376      2807.9364      960.18531      0.99696118
   2478000  -322.14518      55.376117     -377.5213       294.88158      3859.1281      960.18531      0.99696118
   2479000  -347.60933      52.356115     -399.96544      278.79987      888.36956      960.18531      0.99696118
   2480000  -319.03645      58.880434     -377.91688      313.54231     -1827.4865      960.18531      0.99696118
   2481000  -339.54884      57.221608     -396.77045      304.70895      1389.2928      960.18531      0.99696118
   2482000  -333.48405      59.35757      -392.84162      316.08309      1387.9857      960.18531      0.99696118
   2483000  -344.25426      57.266988     -401.52125      304.9506       2243.605       960.18531      0.99696118
   2484000  -332.65847      63.129228     -395.7877       336.16742     -1307.3307      960.18531      0.99696118
   2485000  -320.92333      58.694832     -379.61816      312.55396      2388.4388      960.18531      0.99696118
   2486000  -331.14523      54.956881     -386.10211      292.64912     -5404.7428      960.18531      0.99696118
   2487000  -329.16514      54.043839     -383.20897      287.78711     -1293.601       960.18531      0.99696118
   2488000  -338.87987      47.590302     -386.47018      253.42159      761.31783      960.18531      0.99696118
   2489000  -336.7689       50.382416     -387.15132      268.28979      90.581341      960.18531      0.99696118
   2490000  -332.42319      49.455173     -381.87836      263.35215      2239.9441      960.18531      0.99696118
   2491000  -345.34302      51.114588     -396.45761      272.18865     -3335.0985      960.18531      0.99696118
   2492000  -325.12555      57.093913     -382.21946      304.02896      5507.7681      960.18531      0.99696118
   2493000  -328.38369      56.294872     -384.67857      299.77401      1282.0354      960.18531      0.99696118
   2494000  -335.09794      52.156527     -387.25446      277.73705     -1541.0022      960.18531      0.99696118
   2495000  -349.52264      44.020155     -393.5428       234.41032     -3022.1034      960.18531      0.99696118
   2496000  -312.05976      61.733554     -373.79332      328.73537     -3389.7333      960.18531      0.99696118
   2497000  -345.22171      57.366474     -402.58818      305.48037     -1050.1736      960.18531      0.99696118
   2498000  -333.77818      56.436797     -390.21497      300.52977     -2736.3884      960.18531      0.99696118
   2499000  -335.64801      49.250196     -384.89821      262.26064     -5228.854       960.18531      0.99696118
   2500000  -323.82863      61.1411       -384.96973      325.58051      882.88714      960.18531      0.99696118
   2501000  -338.16751      51.632252     -389.79976      274.94525     -1635.4521      960.18531      0.99696118
   2502000  -349.42963      51.581695     -401.01133      274.67603      1227.5095      960.18531      0.99696118
   2503000  -332.42395      56.25403      -388.67798      299.55653     -142.61043      960.18531      0.99696118
   2504000  -330.78608      59.82069      -390.60677      318.54924     -477.77722      960.18531      0.99696118
   2505000  -355.53713      51.382101     -406.91923      273.61318     -1975.8052      960.18531      0.99696118
   2506000  -334.3953       55.879116     -390.27441      297.56008      1322.9663      960.18531      0.99696118
   2507000  -352.05727      41.308165     -393.36543      219.96878      1307.4575      960.18531      0.99696118
   2508000  -342.87843      49.779986     -392.65842      265.0818       2504.3907      960.18531      0.99696118
   2509000  -320.49211      54.22036      -374.71247      288.7271       30.540488      960.18531      0.99696118
   2510000  -352.20285      48.090298     -400.29315      256.0841      -201.33303      960.18531      0.99696118
   2511000  -312.08435      65.739544     -377.8239       350.06753     -1897.0886      960.18531      0.99696118
   2512000  -323.24541      64.883101     -388.12851      345.50691      698.34104      960.18531      0.99696118
   2513000  -328.91         54.91496      -383.82496      292.42589     -56.809587      960.18531      0.99696118
   2514000  -315.0304       54.663318     -369.69372      291.08588     -4783.4198      960.18531      0.99696118
   2515000  -307.89696      64.441499     -372.33846      343.15536     -2089.5482      960.18531      0.99696118
   2516000  -318.49483      60.988542     -379.48337      324.76813     -4008.1072      960.18531      0.99696118
   2517000  -335.46082      46.579637     -382.04045      248.03973      2552.9762      960.18531      0.99696118
   2518000  -317.80563      57.475227     -375.28085      306.05949     -3146.6215      960.18531      0.99696118
   2519000  -319.55388      63.674491     -383.22837      339.07099      2026.2012      960.18531      0.99696118
   2520000  -333.19842      52.683537     -385.88196      280.54341      875.65954      960.18531      0.99696118
   2521000  -344.17292      47.642108     -391.81503      253.69746      2627.8654      960.18531      0.99696118
   2522000  -322.8318       66.606732     -389.43853      354.68537     -3331.3453      960.18531      0.99696118
   2523000  -299.56721      66.286649     -365.85386      352.98091      184.71923      960.18531      0.99696118
   2524000  -320.2321       55.073944     -375.30605      293.27249      3813.333       960.18531      0.99696118
   2525000  -315.184        52.192036     -367.37604      277.92614      1462.0464      960.18531      0.99696118
   2526000  -332.99258      53.332444     -386.32503      283.99888      565.1047       960.18531      0.99696118
   2527000  -320.27045      68.025152     -388.29561      362.23855     -4029.9975      960.18531      0.99696118
   2528000  -324.62105      62.38906      -387.01011      332.22598      467.07271      960.18531      0.99696118
   2529000  -330.41398      56.982433     -387.39641      303.43533     -1818.8073      960.18531      0.99696118
   2530000  -328.17528      63.751339     -391.92661      339.48021     -1561.244       960.18531      0.99696118
   2531000  -334.34759      48.508929     -382.85652      258.31334     -341.60623      960.18531      0.99696118
   2532000  -317.48995      54.498628     -371.98858      290.20889      3219.7104      960.18531      0.99696118
   2533000  -308.16502      58.976622     -367.14164      314.05452     -253.07147      960.18531      0.99696118
   2534000  -321.92888      55.824746     -377.75362      297.27056     -2760.106       960.18531      0.99696118
   2535000  -357.16011      40.669974     -397.83009      216.57037     -2814.2887      960.18531      0.99696118
   2536000  -338.59958      51.209675     -389.80925      272.695        591.67162      960.18531      0.99696118
   2537000  -321.65376      64.660283     -386.31404      344.3204       1358.592       960.18531      0.99696118
   2538000  -317.77353      56.794464     -374.568        302.43438      1014.637       960.18531      0.99696118
   2539000  -319.8395       56.712134     -376.55164      301.99597     -729.05139      960.18531      0.99696118
   2540000  -315.89772      67.116528     -383.01425      357.40007     -630.12312      960.18531      0.99696118
   2541000  -340.47615      53.773703     -394.24985      286.34862     -1105.4881      960.18531      0.99696118
   2542000  -332.30491      55.167662     -387.47258      293.77155      2244.6996      960.18531      0.99696118
   2543000  -325.91865      58.930811     -384.84946      313.81057     -1553.8425      960.18531      0.99696118
   2544000  -325.44362      53.573014     -379.01664      285.27994     -5833.2031      960.18531      0.99696118
   2545000  -334.63608      54.450231     -389.08631      289.95117     -2418.0961      960.18531      0.99696118
   2546000  -317.13149      64.571626     -381.70311      343.84829      17.114677      960.18531      0.99696118
   2547000  -331.36029      48.642105     -380.00239      259.02251     -650.27708      960.18531      0.99696118
   2548000  -329.79574      57.23459      -387.03033      304.77808     -1115.2605      960.18531      0.99696118
   2549000  -336.65871      56.715713     -393.37442      302.01502     -1575.83        960.18531      0.99696118
   2550000  -326.60393      53.197362     -379.80129      283.27956      924.88269      960.18531      0.99696118
   2551000  -322.23072      64.019398     -386.25012      340.90764      74.468413      960.18531      0.99696118
   2552000  -335.64611      55.451239     -391.09735      295.28161     -529.66217      960.18531      0.99696118
   2553000  -352.1535       50.055168     -402.20866      266.54717     -3475.8447      960.18531      0.99696118
   2554000  -330.67098      51.63598      -382.30696      274.9651       3188.8069      960.18531      0.99696118
   2555000  -335.5456       48.596942     -384.14254      258.78202     -2657.5803      960.18531      0.99696118
   2556000  -311.85234      54.983092     -366.83544      292.7887      -1941.6065      960.18531      0.99696118
   2557000  -320.7715       54.738348     -375.50985      291.48542     -5820.1551      960.18531      0.99696118
   2558000  -328.29663      51.860734     -380.15737      276.16193     -2559.087       960.18531      0.99696118
   2559000  -337.99567      50.93664      -388.93231      271.24107      387.29365      960.18531      0.99696118
   2560000  -351.17367      41.7026       -392.87627      222.06917     -4543.8523      960.18531      0.99696118
   2561000  -325.98935      48.764706     -374.75406      259.67537      3616.3432      960.18531      0.99696118
   2562000  -326.72642      55.572        -382.29842      295.92467      2784.0486      960.18531      0.99696118
   2563000  -322.36775      54.975165     -377.34291      292.74648     -702.155        960.18531      0.99696118
   2564000  -317.1769       63.997158     -381.17406      340.78921      560.93433      960.18531      0.99696118
   2565000  -335.7003       54.719096     -390.4194       291.3829      -691.20275      960.18531      0.99696118
   2566000  -296.24174      66.918729     -363.16047      356.34677      337.21573      960.18531      0.99696118
   2567000  -319.16378      63.853122     -383.0169       340.02221      1531.9378      960.18531      0.99696118
   2568000  -332.08246      50.021634     -382.1041       266.3686      -1534.1561      960.18531      0.99696118
   2569000  -325.47689      53.030706     -378.5076       282.39211     -486.72332      960.18531      0.99696118
   2570000  -322.10465      61.756171     -383.86082      328.8558      -3856.5696      960.18531      0.99696118
   2571000  -327.17227      51.758056     -378.93033      275.61516     -2690.6293      960.18531      0.99696118
   2572000  -306.5884       58.623334     -365.21174      312.17323     -1557.7917      960.18531      0.99696118
   2573000  -333.91269      53.501343     -387.41403      284.89828     -406.76594      960.18531      0.99696118
   2574000  -325.88652      61.036522     -386.92304      325.02362      3551.6828      960.18531      0.99696118
   2575000  -317.93515      56.307897     -374.24305      299.84337     -1642.3905      960.18531      0.99696118
   2576000  -345.87802      47.716713     -393.59473      254.09474     -747.13364      960.18531      0.99696118
   2577000  -327.19532      52.011356     -379.20668      276.964        1224.2878      960.18531      0.99696118
   2578000  -330.96127      53.916647     -384.87792      287.1098      -2523.696       960.18531      0.99696118
   2579000  -331.07145      60.122774     -391.19423      320.15785      1549.6831      960.18531      0.99696118
   2580000  -314.9061       69.117734     -384.02383      368.05663     -2410.1612      960.18531      0.99696118
   2581000  -324.49696      45.223334     -369.7203       240.81732     -1935.5588      960.18531      0.99696118
   2582000  -331.16733      51.682103     -382.84944      275.21071      940.51111      960.18531      0.99696118
   2583000  -321.55712      56.787827     -378.34494      302.39903     -544.73041      960.18531      0.99696118
   2584000  -338.77704      50.022317     -388.79935      266.37223     -4419.9424      960.18531      0.99696118
   2585000  -324.48904      63.51007      -387.99911      338.19543     -3220.5324      960.18531      0.99696118
   2586000  -331.58993      56.424927     -388.01485      300.46657      1766.2083      960.18531      0.99696118
   2587000  -323.79067      51.475251     -375.26593      274.10921     -3243.2112      960.18531      0.99696118
   2588000  -329.93208      54.787481     -384.71956      291.74706     -3156.6798      960.18531      0.99696118
   2589000  -319.25454      47.742996     -366.99754      254.2347      -2390.7111      960.18531      0.99696118
   2590000  -334.30508      50.018122     -384.32321      266.3499       4139.1717      960.18531      0.99696118
   2591000  -317.32229      48.144857     -365.46714      256.37463      503.55098      960.18531      0.99696118
   2592000  -319.98272      53.283828     -373.26654      283.74        -3143.0767      960.18531      0.99696118
   2593000  -339.49188      48.905358     -388.39724      260.42435      4177.3241      960.18531      0.99696118
   2594000  -315.12983      61.940475     -377.07031      329.83723      738.37801      960.18531      0.99696118
   2595000  -318.87702      68.345761     -387.22278      363.94582      239.05869      960.18531      0.99696118
   2596000  -334.24818      54.037226     -388.2854       287.7519       1301.8243      960.18531      0.99696118
   2597000  -343.75168      48.107279     -391.85896      256.17453     -272.48271      960.18531      0.99696118
   2598000  -327.88063      57.954737     -385.83537      308.61291      1477.6856      960.18531      0.99696118
   2599000  -345.42157      57.263449     -402.68502      304.93175      420.09315      960.18531      0.99696118
   2600000  -339.69653      48.242614     -387.93914      256.8952      -2395.0928      960.18531      0.99696118
   2601000  -334.21403      53.799655     -388.01369      286.48681      1993.6426      960.18531      0.99696118
   2602000  -316.91464      56.297354     -373.21199      299.78723     -348.79883      960.18531      0.99696118
   2603000  -339.32657      54.49507      -393.82164      290.18995     -1927.8642      960.18531      0.99696118
   2604000  -309.32523      59.138647     -368.46387      314.91731      4833.5711      960.18531      0.99696118
   2605000  -321.1072       60.538524     -381.64573      322.37175      1636.9873      960.18531      0.99696118
   2606000  -328.86324      53.266202     -382.12945      283.64614      9.4394026      960.18531      0.99696118
   2607000  -312.05721      45.475478     -357.53269      242.16001     -74.508424      960.18531      0.99696118
   2608000  -333.93818      60.653577     -394.59176      322.98442     -1837.2706      960.18531      0.99696118
   2609000  -335.7639       47.289489     -383.05339      251.81974      1025.13        960.18531      0.99696118
   2610000  -318.34021      59.314476     -377.65468      315.85361     -1771.2418      960.18531      0.99696118
   2611000  -330.77351      50.94125      -381.71476      271.26562      949.91181      960.18531      0.99696118
   2612000  -333.45165      52.137294     -385.58894      277.63463     -511.43328      960.18531      0.99696118
   2613000  -322.97778      59.238035     -382.21581      315.44656     -609.87018      960.18531      0.99696118
   2614000  -317.38382      53.339938     -370.72375      284.03879      978.256        960.18531      0.99696118
   2615000  -340.70148      52.448469     -393.14995      279.29166     -2623.676       960.18531      0.99696118
   2616000  -340.54352      51.336862     -391.88038      273.37228      4164.0205      960.18531      0.99696118
   2617000  -335.44214      43.624682     -379.06682      232.3044      -141.53421      960.18531      0.99696118
   2618000  -322.00635      58.545569     -380.55192      311.75913     -4384.2482      960.18531      0.99696118
   2619000  -319.29294      59.225032     -378.51797      315.37732     -2306.2943      960.18531      0.99696118
   2620000  -323.29835      47.011098     -370.30945      250.33729     -1623.111       960.18531      0.99696118
   2621000  -332.09616      51.674948     -383.7711       275.17261     -97.606565      960.18531      0.99696118
   2622000  -315.51062      52.884335     -368.39496      281.61267     -4015.5676      960.18531      0.99696118
   2623000  -297.62373      67.167998     -364.79173      357.67415      810.14647      960.18531      0.99696118
   2624000  -323.94263      56.482241     -380.42487      300.77177      5903.095       960.18531      0.99696118
   2625000  -339.60906      52.550411     -392.15947      279.83451     -2063.3664      960.18531      0.99696118
   2626000  -329.72435      59.763304     -389.48766      318.24365      3015.006       960.18531      0.99696118
   2627000  -334.74595      57.427267     -392.17322      305.8041       900.67838      960.18531      0.99696118
   2628000  -338.43565      56.461432     -394.89708      300.66096      2820.0951      960.18531      0.99696118
   2629000  -318.46267      57.979118     -376.44179      308.74274     -224.90606      960.18531      0.99696118
   2630000  -337.15095      50.73704      -387.88799      270.17818      5403.1761      960.18531      0.99696118
   2631000  -319.36272      58.052294     -377.41502      309.13241     -937.75403      960.18531      0.99696118
   2632000  -328.33908      50.26872      -378.60781      267.68435     -3336.6223      960.18531      0.99696118
   2633000  -320.51043      57.309081     -377.81951      305.17475      518.84326      960.18531      0.99696118
   2634000  -322.41749      61.775318     -384.19281      328.95776     -583.58595      960.18531      0.99696118
   2635000  -324.2946       59.252592     -383.54719      315.52407     -2886.1679      960.18531      0.99696118
   2636000  -311.79887      57.329213     -369.12808      305.28195      3306.2342      960.18531      0.99696118
   2637000  -314.35912      64.255497     -378.61461      342.16489      2754.7511      960.18531      0.99696118
   2638000  -333.4048       49.423243     -382.82805      263.18213     -457.18305      960.18531      0.99696118
   2639000  -340.90294      49.004135     -389.90708      260.95035     -6502.9116      960.18531      0.99696118
   2640000  -315.47184      61.557778     -377.02962      327.79934     -1546.3853      960.18531      0.99696118
   2641000  -302.48319      70.542201     -373.02539      375.64201     -874.10947      960.18531      0.99696118
   2642000  -325.60747      58.563666     -384.17113      311.8555      -2215.3951      960.18531      0.99696118
   2643000  -311.67852      58.831239     -370.50976      313.28034     -5669.3887      960.18531      0.99696118
   2644000  -322.19954      49.609222     -371.80876      264.17247      452.80124      960.18531      0.99696118
   2645000  -329.34385      52.278235     -381.62209      278.38515     -716.65459      960.18531      0.99696118
   2646000  -318.15175      61.369589     -379.52134      326.79723     -2686.4975      960.18531      0.99696118
   2647000  -322.88862      58.909101     -381.79772      313.69496      425.42009      960.18531      0.99696118
   2648000  -329.79067      58.63684      -388.42751      312.24515      1576.6356      960.18531      0.99696118
   2649000  -331.89398      55.053517     -386.94749      293.16372     -1537.1496      960.18531      0.99696118
   2650000  -339.02596      54.917152     -393.94311      292.43756     -1062.9922      960.18531      0.99696118
   2651000  -317.93035      60.320272     -378.25062      321.20954     -430.00334      960.18531      0.99696118
   2652000  -324.54028      56.79588      -381.33616      302.44191     -463.85949      960.18531      0.99696118
   2653000  -322.47472      55.994148     -378.46887      298.17264      1643.3458      960.18531      0.99696118
   2654000  -329.53939      51.404165     -380.94355      273.73067     -1808.5519      960.18531      0.99696118
   2655000  -316.57757      54.80781      -371.38538      291.85531     -432.43751      960.18531      0.99696118
   2656000  -310.69856      68.52814      -379.2267       364.917       -3516.3751      960.18531      0.99696118
   2657000  -309.74834      63.274796     -373.02313      336.94259      170.52914      960.18531      0.99696118
   2658000  -342.38108      49.003676     -391.38476      260.9479      -1811.4475      960.18531      0.99696118
   2659000  -320.07268      61.047248     -381.11993      325.08074     -187.03843      960.18531      0.99696118
   2660000  -318.76168      59.85047      -378.61215      318.70782      1928.8068      960.18531      0.99696118
   2661000  -322.1247       60.393783     -382.51848      321.601        1792.122       960.18531      0.99696118
   2662000  -320.22103      56.72342      -376.94445      302.05606      2561.3789      960.18531      0.99696118
   2663000  -336.43039      49.129079     -385.55947      261.61568     -249.1438       960.18531      0.99696118
   2664000  -323.1054       51.904767     -375.01017      276.39641     -1018.9873      960.18531      0.99696118
   2665000  -336.497        52.433957     -388.93095      279.21438     -3306.2976      960.18531      0.99696118
   2666000  -312.92422      62.83688      -375.7611       334.61065     -1827.4359      960.18531      0.99696118
   2667000  -326.13435      52.828951     -378.9633       281.31775     -1964.5342      960.18531      0.99696118
   2668000  -326.60058      62.478774     -389.07936      332.70371      1731.3157      960.18531      0.99696118
   2669000  -316.01778      56.617589     -372.63537      301.4925       4971.2854      960.18531      0.99696118
   2670000  -323.07907      53.667649     -376.74672      285.78387     -3414.3478      960.18531      0.99696118
   2671000  -312.16753      59.409272     -371.5768       316.35841      2954.3802      960.18531      0.99696118
   2672000  -329.34316      55.38299      -384.72615      294.91818     -4958.8404      960.18531      0.99696118
   2673000  -312.09039      65.290831     -377.38122      347.67811     -2090.9144      960.18531      0.99696118
   2674000  -310.60936      64.217501     -374.82686      341.96255     -1445.8738      960.18531      0.99696118
   2675000  -317.59479      67.281217     -384.87601      358.27705     -3125.5805      960.18531      0.99696118
   2676000  -325.51192      59.669399     -385.18132      317.7436       1418.5342      960.18531      0.99696118
   2677000  -319.21584      67.288036     -386.50388      358.31336      4408.4895      960.18531      0.99696118
   2678000  -333.32         58.434088     -391.75409      311.16549     -1084.1013      960.18531      0.99696118
   2679000  -329.32746      59.049117     -388.37657      314.44056      2713.2726      960.18531      0.99696118
   2680000  -348.20245      54.274301     -402.47675      289.01434     -1658.7028      960.18531      0.99696118
   2681000  -344.40457      53.881346     -398.28591      286.92182     -854.01288      960.18531      0.99696118
   2682000  -331.846        64.519237     -396.36524      343.56932      204.47096      960.18531      0.99696118
   2683000  -333.76841      54.739872     -388.50828      291.49353     -2476.2651      960.18531      0.99696118
   2684000  -330.05899      57.152368     -387.21136      304.34024      1313.6191      960.18531      0.99696118
   2685000  -346.55163      47.975309     -394.52694      255.47178     -2734.1981      960.18531      0.99696118
   2686000  -326.35263      57.184887     -383.53751      304.5134      -180.16762      960.18531      0.99696118
   2687000  -335.84406      52.108917     -387.95298      277.48352     -2028.6316      960.18531      0.99696118
   2688000  -325.32536      49.329825     -374.65519      262.68467     -740.62596      960.18531      0.99696118
   2689000  -317.66786      60.800853     -378.46871      323.76867      3976.3219      960.18531      0.99696118
   2690000  -349.7481       49.393852     -399.14195      263.02561      959.20932      960.18531      0.99696118
   2691000  -338.60032      51.816055     -390.41638      275.92401      1933.7138      960.18531      0.99696118
   2692000  -341.57698      46.136977     -387.71396      245.68253     -2275.6723      960.18531      0.99696118
   2693000  -328.54077      64.042243     -392.58301      341.02929     -571.90973      960.18531      0.99696118
   2694000  -339.07362      51.108654     -390.18227      272.15705     -3168.1409      960.18531      0.99696118
   2695000  -333.58602      54.242449     -387.82846      288.84472      1965.3855      960.18531      0.99696118
   2696000  -333.62117      59.415386     -393.03656      316.39096      3917.7808      960.18531      0.99696118
   2697000  -335.93325      61.87572      -397.80897      329.49241      724.52957      960.18531      0.99696118
   2698000  -338.43786      54.231207     -392.66907      288.78486     -54.526474      960.18531      0.99696118
   2699000  -317.69655      55.037398     -372.73395      293.07788     -3388.3917      960.18531      0.99696118
   2700000  -336.70462      52.673273     -389.3779       280.48876      432.1187       960.18531      0.99696118
   2701000  -318.15591      59.976833     -378.13274      319.38071      1747.6642      960.18531      0.99696118
   2702000  -311.2763       60.824798     -372.1011       323.89618      1326.7593      960.18531      0.99696118
   2703000  -324.24376      54.17576      -378.41952      288.4896       1960.2428      960.18531      0.99696118
   2704000  -338.61724      51.768543     -390.38578      275.67101      300.75878      960.18531      0.99696118
   2705000  -324.67429      63.215919     -387.89021      336.62906     -1605.7788      960.18531      0.99696118
   2706000  -328.86797      53.218013     -382.08598      283.38953     -796.17748      960.18531      0.99696118
   2707000  -331.16552      47.302538     -378.46806      251.88923     -479.55088      960.18531      0.99696118
   2708000  -337.4281       53.557586     -390.98569      285.19778     -2012.1376      960.18531      0.99696118
   2709000  -309.83046      66.899868     -376.73033      356.24634     -776.43648      960.18531      0.99696118
   2710000  -311.66496      59.355772     -371.02073      316.07351      1740.5303      960.18531      0.99696118
   2711000  -322.80184      61.12004      -383.92188      325.46836     -1669.4661      960.18531      0.99696118
   2712000  -326.39116      55.453288     -381.84445      295.29253     -2940.9422      960.18531      0.99696118
   2713000  -312.20998      54.728917     -366.9389       291.4352       5048.1722      960.18531      0.99696118
   2714000  -310.94741      57.356224     -368.30363      305.42579      183.54392      960.18531      0.99696118
   2715000  -312.21887      54.867033     -367.0859       292.17068     -3647.9479      960.18531      0.99696118
   2716000  -335.36022      47.850757     -383.21098      254.80853      2717.6484      960.18531      0.99696118
   2717000  -324.55093      52.735749     -377.28668      280.82144     -1586.2017      960.18531      0.99696118
   2718000  -319.80216      57.490944     -377.29311      306.14318      944.47298      960.18531      0.99696118
   2719000  -326.39724      56.096952     -382.49419      298.72008      2725.6524      960.18531      0.99696118
   2720000  -309.70179      62.376807     -372.0786       332.16073     -2537.3424      960.18531      0.99696118
   2721000  -325.14389      57.222519     -382.36641      304.7138      -2909.9824      960.18531      0.99696118
   2722000  -313.02149      59.120599     -372.14209      314.8212       3666.1268      960.18531      0.99696118
   2723000  -333.43151      57.35057      -390.78208      305.39568     -158.45657      960.18531      0.99696118
   2724000  -334.37581      59.151486     -393.52729      314.98568     -2568.9333      960.18531      0.99696118
   2725000  -319.87367      57.848833     -377.7225       308.04896     -1064.924       960.18531      0.99696118
   2726000  -325.59976      59.769151     -385.36891      318.27479     -3035.2272      960.18531      0.99696118
   2727000  -340.58814      50.030721     -390.61886      266.41699     -3324.5504      960.18531      0.99696118
   2728000  -334.10663      46.706211     -380.81285      248.71375     -3052.5116      960.18531      0.99696118
   2729000  -323.77361      53.960315     -377.73392      287.34234     -4059.161       960.18531      0.99696118
   2730000  -327.30554      49.171107     -376.47664      261.83948     -1809.6042      960.18531      0.99696118
   2731000  -312.00126      56.423301     -368.42456      300.45791     -271.87614      960.18531      0.99696118
   2732000  -316.4824       65.188781     -381.67118      347.13468     -1488.5822      960.18531      0.99696118
   2733000  -324.79357      54.299207     -379.09277      289.14696      3121.1973      960.18531      0.99696118
   2734000  -302.61172      56.407274     -359.01899      300.37256     -5945.782       960.18531      0.99696118
   2735000  -315.13092      64.802216     -379.93314      345.0762      -1341.0006      960.18531      0.99696118
   2736000  -330.21821      48.746153     -378.96436      259.57658      790.98979      960.18531      0.99696118
   2737000  -339.97535      57.301625     -397.27698      305.13504     -2126.7809      960.18531      0.99696118
   2738000  -339.43328      50.311247     -389.74453      267.91081      208.2792       960.18531      0.99696118
   2739000  -336.97148      53.143815     -390.11529      282.99442      1551.5775      960.18531      0.99696118
   2740000  -326.87515      54.484263     -381.35941      290.1324      -2439.4524      960.18531      0.99696118
   2741000  -325.3303       55.6856       -381.0159       296.5296       3467.3298      960.18531      0.99696118
   2742000  -330.43124      54.865272     -385.29651      292.1613      -1290.0669      960.18531      0.99696118
   2743000  -327.24649      49.772496     -377.01899      265.04192      856.66017      960.18531      0.99696118
   2744000  -315.79354      63.060995     -378.85454      335.80408      1159.4127      960.18531      0.99696118
   2745000  -321.34341      56.383666     -377.72708      300.24685     -1093.4884      960.18531      0.99696118
   2746000  -315.62343      62.511883     -378.13531      332.88002      1563.2324      960.18531      0.99696118
   2747000  -318.2234       52.786191     -371.00959      281.09005     -2828.1856      960.18531      0.99696118
   2748000  -320.30251      61.182092     -381.48461      325.79879     -3095.8767      960.18531      0.99696118
   2749000  -306.68466      57.065002     -363.74966      303.87501     -3102.6212      960.18531      0.99696118
   2750000  -318.99954      58.109816     -377.10935      309.43871     -1814.7834      960.18531      0.99696118
   2751000  -324.11243      51.438314     -375.55075      273.91251     -1104.8001      960.18531      0.99696118
   2752000  -330.14595      51.820071     -381.96602      275.94539     -246.66514      960.18531      0.99696118
   2753000  -316.88211      58.526486     -375.40859      311.65751     -144.96455      960.18531      0.99696118
   2754000  -337.67007      60.250079     -397.92014      320.83576     -1038.5681      960.18531      0.99696118
   2755000  -338.31651      55.519405     -393.83592      295.6446       1669.7116      960.18531      0.99696118
   2756000  -320.48538      60.140794     -380.62617      320.25381     -3161.1155      960.18531      0.99696118
   2757000  -313.81854      59.330502     -373.14904      315.93895      1681.1694      960.18531      0.99696118
   2758000  -320.4577       58.599968     -379.05767      312.04881      4765.6472      960.18531      0.99696118
   2759000  -319.52305      59.606499     -379.12955      317.40865     -311.75357      960.18531      0.99696118
   2760000  -324.10372      56.055556     -380.15927      298.49964      548.8138       960.18531      0.99696118
   2761000  -340.75414      55.768826     -396.52296      296.97278     -3793.8855      960.18531      0.99696118
   2762000  -336.45905      50.858532     -387.31758      270.82514      670.63612      960.18531      0.99696118
   2763000  -325.48836      58.403323     -383.89168      311.00166     -1503.5246      960.18531      0.99696118
   2764000  -325.18966      58.225832     -383.41549      310.05651     -2574.4975      960.18531      0.99696118
   2765000  -318.59716      62.302984     -380.90015      331.76762      1386.0674      960.18531      0.99696118
   2766000  -321.31697      50.131892     -371.44887      266.95573     -1685.895       960.18531      0.99696118
   2767000  -335.1829       53.876113     -389.05901      286.89396     -1225.4227      960.18531      0.99696118
   2768000  -331.98218      52.019012     -384.00119      277.00477     -489.51338      960.18531      0.99696118
   2769000  -326.04049      50.075309     -376.11579      266.65442     -1696.592       960.18531      0.99696118
   2770000  -315.50764      66.074567     -381.58221      351.85155     -3.9516565      960.18531      0.99696118
   2771000  -327.45506      63.488832     -390.9439       338.08234     -2955.1926      960.18531      0.99696118
   2772000  -329.16802      48.124056     -377.29208      256.26386     -332.8861       960.18531      0.99696118
   2773000  -306.01059      55.573071     -361.58366      295.93038     -3622.4752      960.18531      0.99696118
   2774000  -325.80117      52.331456     -378.13263      278.66855      302.53399      960.18531      0.99696118
   2775000  -318.76969      51.00353      -369.77322      271.59726     -2043.5004      960.18531      0.99696118
   2776000  -324.40603      55.922202     -380.32823      297.78952     -2641.0645      960.18531      0.99696118
   2777000  -337.85817      53.782417     -391.64059      286.39502     -3625.598       960.18531      0.99696118
   2778000  -333.26088      57.608477     -390.86935      306.76905     -2377.1881      960.18531      0.99696118
   2779000  -340.22943      50.522792     -390.75222      269.0373       577.30859      960.18531      0.99696118
   2780000  -324.20186      52.7538       -376.95566      280.91757     -126.3404       960.18531      0.99696118
   2781000  -318.97241      52.69468      -371.66709      280.60275     -822.72177      960.18531      0.99696118
   2782000  -306.80936      55.276784     -362.08615      294.35263     -1085.1877      960.18531      0.99696118
   2783000  -319.35363      59.022733     -378.37636      314.30006     -1046.5714      960.18531      0.99696118
   2784000  -319.31302      73.616271     -392.92929      392.01164     -3143.4826      960.18531      0.99696118
   2785000  -340.02999      53.586486     -393.61648      285.35168     -4262.2081      960.18531      0.99696118
   2786000  -325.18629      52.28058      -377.46687      278.39764     -2942.0193      960.18531      0.99696118
   2787000  -332.59955      58.974898     -391.57445      314.04534     -1852.6355      960.18531      0.99696118
   2788000  -336.2652       54.730999     -390.9962       291.44629     -442.62529      960.18531      0.99696118
   2789000  -331.25292      42.803906     -374.05683      227.93371     -54.412493      960.18531      0.99696118
   2790000  -333.04521      60.790584     -393.83579      323.71399     -4115.5128      960.18531      0.99696118
   2791000  -340.50544      53.442914     -393.94835      284.58714     -918.94945      960.18531      0.99696118
   2792000  -343.61971      54.496666     -398.11637      290.19845      1789.5249      960.18531      0.99696118
   2793000  -329.61688      60.128521     -389.74541      320.18846     -2495.5523      960.18531      0.99696118
   2794000  -326.81146      59.563137     -386.37459      317.17775     -1895.1567      960.18531      0.99696118
   2795000  -328.57651      47.334091     -375.9106       252.05725      1819.8379      960.18531      0.99696118
   2796000  -309.71414      63.126528     -372.84067      336.15304      2362.4273      960.18531      0.99696118
   2797000  -304.80437      63.502696     -368.30707      338.15617      2006.0491      960.18531      0.99696118
   2798000  -333.69264      53.985273     -387.67792      287.47524     -97.778961      960.18531      0.99696118
   2799000  -299.6171       67.335715     -366.95281      358.56725     -1737.608       960.18531      0.99696118
   2800000  -312.08764      56.649439     -368.73708      301.66211      418.79066      960.18531      0.99696118
   2801000  -329.52048      55.676703     -385.19718      296.48222      3155.488       960.18531      0.99696118
   2802000  -346.13787      44.443032     -390.5809       236.66217     -4249.6214      960.18531      0.99696118
   2803000  -321.22893      56.124306     -377.35324      298.86574     -545.02341      960.18531      0.99696118
   2804000  -323.02256      51.873637     -374.89619      276.23064     -2563.6251      960.18531      0.99696118
   2805000  -325.67075      56.604952     -382.2757       301.42521     -2585.1376      960.18531      0.99696118
   2806000  -338.15579      53.823508     -391.97929      286.61384      3993.2955      960.18531      0.99696118
   2807000  -328.84559      60.438521     -389.28411      321.83922      27.587856      960.18531      0.99696118
   2808000  -312.52838      59.767131     -372.29551      318.26403      2198.7537      960.18531      0.99696118
   2809000  -311.93042      57.4976       -369.42802      306.17862      4120.8061      960.18531      0.99696118
   2810000  -338.83497      47.068167     -385.90313      250.64118     -19.684822      960.18531      0.99696118
   2811000  -311.74395      59.095834     -370.83978      314.68933      1642.9224      960.18531      0.99696118
   2812000  -336.72972      52.658248     -389.38797      280.40875      1918.989       960.18531      0.99696118
   2813000  -331.8914       50.614112     -382.50551      269.52358     -2483.189       960.18531      0.99696118
   2814000  -328.82381      66.885581     -395.70939      356.17026     -405.98995      960.18531      0.99696118
   2815000  -326.10911      58.541619     -384.65073      311.7381      -1800.8425      960.18531      0.99696118
   2816000  -347.16738      45.810623     -392.978        243.94468     -1768.7926      960.18531      0.99696118
   2817000  -340.70272      54.301845     -395.00457      289.16101     -158.8824       960.18531      0.99696118
   2818000  -325.50425      53.126987     -378.63124      282.90481      4471.5073      960.18531      0.99696118
   2819000  -328.29245      65.888662     -394.18111      350.8616      -3283.6653      960.18531      0.99696118
   2820000  -329.77452      58.38727      -388.16179      310.91618     -465.80494      960.18531      0.99696118
   2821000  -315.51279      52.883098     -368.39589      281.60608     -1709.243       960.18531      0.99696118
   2822000  -336.12105      62.816665     -398.93772      334.503       -597.93251      960.18531      0.99696118
   2823000  -318.98085      52.228336     -371.20919      278.11944     -514.73204      960.18531      0.99696118
   2824000  -313.84317      52.767098     -366.61027      280.98838     -845.81236      960.18531      0.99696118
   2825000  -315.68829      61.161232     -376.84952      325.68771      2352.2397      960.18531      0.99696118
   2826000  -343.26641      45.127159     -388.39357      240.30518     -4118.7236      960.18531      0.99696118
   2827000  -315.7695       65.119512     -380.88901      346.76582      4651.6464      960.18531      0.99696118
   2828000  -343.01544      57.265789     -400.28123      304.94421     -1714.7199      960.18531      0.99696118
   2829000  -351.62226      53.78639      -405.40865      286.41618     -293.84889      960.18531      0.99696118
   2830000  -331.54373      63.833233     -395.37697      339.9163      -159.17982      960.18531      0.99696118
   2831000  -341.2728       54.807088     -396.07989      291.85146     -70.064427      960.18531      0.99696118
   2832000  -329.37543      56.579412     -385.95484      301.28921     -3406.6989      960.18531      0.99696118
   2833000  -340.42259      53.85314      -394.27573      286.77163      1022.5938      960.18531      0.99696118
   2834000  -340.6483       46.54708      -387.19538      247.86636      2945.0261      960.18531      0.99696118
   2835000  -346.31309      50.983594     -397.29668      271.4911      -555.12168      960.18531      0.99696118
   2836000  -327.93328      59.361677     -387.29495      316.10496     -1233.7073      960.18531      0.99696118
   2837000  -343.6556       51.486187     -395.14179      274.16744     -1003.7088      960.18531      0.99696118
   2838000  -321.97901      67.436676     -389.41568      359.10488      297.54907      960.18531      0.99696118
   2839000  -349.40676      49.082734     -398.48949      261.36889      2380.2699      960.18531      0.99696118
   2840000  -324.47915      55.644442     -380.12359      296.31043     -1884.4173      960.18531      0.99696118
   2841000  -334.92659      51.981314     -386.9079       276.80403     -1105.7389      960.18531      0.99696118
   2842000  -327.38616      59.993778     -387.37994      319.47094     -1165.0627      960.18531      0.99696118
   2843000  -315.56821      65.1874       -380.75561      347.12733      2370.3169      960.18531      0.99696118
   2844000  -333.12594      48.425926     -381.55187      257.87134      1021.8098      960.18531      0.99696118
   2845000  -312.34624      54.132635     -366.47888      288.25996      3417.6273      960.18531      0.99696118
   2846000  -318.82412      53.979522     -372.80364      287.44462     -2856.5331      960.18531      0.99696118
   2847000  -313.85331      60.618001     -374.47131      322.79497     -3897.6331      960.18531      0.99696118
   2848000  -308.41941      57.440325     -365.85973      305.87363      4482.2953      960.18531      0.99696118
   2849000  -333.90523      48.632312     -382.53754      258.97036      1221.5302      960.18531      0.99696118
   2850000  -315.64345      59.473626     -375.11708      316.70109     -1651.8102      960.18531      0.99696118
   2851000  -314.53786      59.733082     -374.27094      318.08272      261.25973      960.18531      0.99696118
   2852000  -339.36258      52.249267     -391.61185      278.23089     -1230.2662      960.18531      0.99696118
   2853000  -330.73783      62.099908     -392.83773      330.68623     -512.62362      960.18531      0.99696118
   2854000  -306.11291      61.199712     -367.31263      325.89262      743.16216      960.18531      0.99696118
   2855000  -316.19453      46.100812     -362.29534      245.48995      2489.4427      960.18531      0.99696118
   2856000  -316.96734      51.007699     -367.97504      271.61946     -3763.1546      960.18531      0.99696118
   2857000  -323.94308      56.720407     -380.66349      302.04002     -1743.9244      960.18531      0.99696118
   2858000  -328.10243      55.864804     -383.96724      297.48387     -3975.9179      960.18531      0.99696118
   2859000  -328.01966      55.539147     -383.55881      295.74973     -567.91611      960.18531      0.99696118
   2860000  -335.52959      48.996817     -384.52641      260.91138     -1058.5373      960.18531      0.99696118
   2861000  -311.8076       67.238401     -379.046        358.04905     -3241.2483      960.18531      0.99696118
   2862000  -333.28569      46.653551     -379.93924      248.43333      1011.0522      960.18531      0.99696118
   2863000  -339.90923      53.570241     -393.47947      285.26517     -1804.3631      960.18531      0.99696118
   2864000  -311.99202      65.187372     -377.17939      347.12718     -244.40109      960.18531      0.99696118
   2865000  -315.71915      61.699693     -377.41884      328.55505      2276.3946      960.18531      0.99696118
   2866000  -322.70559      54.127241     -376.83283      288.23123     -294.44968      960.18531      0.99696118
   2867000  -333.28802      61.467527     -394.75555      327.31875     -2985.2537      960.18531      0.99696118
   2868000  -321.74676      58.242389     -379.98915      310.14468      324.40328      960.18531      0.99696118
   2869000  -324.72887      51.336219     -376.06509      273.36885      514.00572      960.18531      0.99696118
   2870000  -303.67258      70.624728     -374.29731      376.08147     -455.51271      960.18531      0.99696118
   2871000  -310.10359      60.586917     -370.69051      322.62945     -3740.5154      960.18531      0.99696118
   2872000  -324.12997      53.186274     -377.31624      283.22052     -117.37644      960.18531      0.99696118
   2873000  -331.88208      44.178576     -376.06066      235.25392      1253.2889      960.18531      0.99696118
   2874000  -341.95043      44.476787     -386.42722      236.84191     -179.8969       960.18531      0.99696118
   2875000  -303.8842       55.162676     -359.04687      293.74499     -2056.5526      960.18531      0.99696118
   2876000  -330.45038      64.829929     -395.28031      345.22377      765.02936      960.18531      0.99696118
   2877000  -325.73089      56.123672     -381.85456      298.86236     -705.97348      960.18531      0.99696118
   2878000  -315.69816      58.279449     -373.9776       310.34202      1999.6097      960.18531      0.99696118
   2879000  -322.02814      64.206209     -386.23435      341.90242     -2021.8956      960.18531      0.99696118
   2880000  -327.22279      48.832457     -376.05525      260.03615     -2383.809       960.18531      0.99696118
   2881000  -316.14357      52.90173      -369.0453       281.7053       4343.3448      960.18531      0.99696118
   2882000  -332.2185       61.614215     -393.83271      328.09988     -1338.8923      960.18531      0.99696118
   2883000  -323.39841      56.601688     -380.00009      301.40783     -948.1966       960.18531      0.99696118
   2884000  -340.39227      50.506982     -390.89925      268.95311      1470.2425      960.18531      0.99696118
   2885000  -317.82384      57.122213     -374.94606      304.17966     -3490.4795      960.18531      0.99696118
   2886000  -324.44838      63.482038     -387.93041      338.04616     -2268.095       960.18531      0.99696118
   2887000  -337.94346      52.856014     -390.79948      281.46186      1667.0957      960.18531      0.99696118
   2888000  -320.49095      61.135829     -381.62678      325.55244      626.97255      960.18531      0.99696118
   2889000  -324.53734      51.956053     -376.4934       276.66951      742.95779      960.18531      0.99696118
   2890000  -320.86852      65.412596     -386.28112      348.32651     -9.8112525      960.18531      0.99696118
   2891000  -317.14571      58.132914     -375.27862      309.56172      444.78658      960.18531      0.99696118
   2892000  -321.77452      47.694121     -369.46864      253.97443      6066.548       960.18531      0.99696118
   2893000  -332.30055      60.626416     -392.92696      322.83978     -4159.422       960.18531      0.99696118
   2894000  -298.141        70.420726     -368.56173      374.99515      592.07091      960.18531      0.99696118
   2895000  -312.73011      59.725778     -372.45588      318.04382     -2293.7378      960.18531      0.99696118
   2896000  -333.0035       57.506833     -390.51033      306.22779      163.78804      960.18531      0.99696118
   2897000  -336.58384      52.085809     -388.66964      277.36047      809.97164      960.18531      0.99696118
   2898000  -343.67347      51.1587       -394.83217      272.42355     -4022.6546      960.18531      0.99696118
   2899000  -317.26713      67.396165     -384.6633       358.88916     -1499.7489      960.18531      0.99696118
   2900000  -338.32745      52.233152     -390.56061      278.14508     -1673.2458      960.18531      0.99696118
   2901000  -316.44995      66.052418     -382.50236      351.73361     -1301.11        960.18531      0.99696118
   2902000  -313.83408      64.762914     -378.59699      344.86691     -1989.7686      960.18531      0.99696118
   2903000  -320.31508      53.917725     -374.2328       287.11555      1507.4219      960.18531      0.99696118
   2904000  -322.31825      61.526134     -383.84438      327.63084      1497.7026      960.18531      0.99696118
   2905000  -326.32696      47.331974     -373.65893      252.04598     -1473.5766      960.18531      0.99696118
   2906000  -330.96172      52.685634     -383.64735      280.55458     -2037.8551      960.18531      0.99696118
   2907000  -327.21956      50.248274     -377.46783      267.57547     -2931.4762      960.18531      0.99696118
   2908000  -327.09727      59.308705     -386.40597      315.82288     -749.26762      960.18531      0.99696118
   2909000  -306.28296      66.940426     -373.22339      356.46231      993.22097      960.18531      0.99696118
   2910000  -327.89592      53.465543     -381.36146      284.70765     -2554.477       960.18531      0.99696118
   2911000  -312.19696      79.207515     -391.40447      421.7854      -557.51805      960.18531      0.99696118
   2912000  -331.11103      61.000949     -392.11198      324.8342       90.504834      960.18531      0.99696118
   2913000  -339.38232      57.468326     -396.85065      306.02274      1861.1662      960.18531      0.99696118
   2914000  -339.26487      49.14392      -388.40879      261.69471      1900.0576      960.18531      0.99696118
   2915000  -347.52298      50.995849     -398.51883      271.55636      435.00113      960.18531      0.99696118
   2916000  -339.70923      61.834805     -401.54403      329.27453      1649.4248      960.18531      0.99696118
   2917000  -334.36588      60.466053     -394.83193      321.98583     -3061.2251      960.18531      0.99696118
   2918000  -344.77377      49.46729      -394.24106      263.41668     -857.11468      960.18531      0.99696118
   2919000  -329.02627      63.971149     -392.99742      340.65071     -3428.2972      960.18531      0.99696118
   2920000  -327.71765      53.642955     -381.36061      285.65238     -1015.6586      960.18531      0.99696118
   2921000  -309.62825      56.167121     -365.79537      299.09373      2536.5915      960.18531      0.99696118
   2922000  -328.22731      54.040011     -382.26732      287.76673     -2322.9332      960.18531      0.99696118
   2923000  -325.89941      47.250221     -373.14963      251.61063     -1142.3534      960.18531      0.99696118
   2924000  -322.81814      58.131176     -380.94932      309.55246     -1690.5806      960.18531      0.99696118
   2925000  -327.05544      52.594249     -379.64969      280.06795     -2816.93        960.18531      0.99696118
   2926000  -302.33845      51.676557     -354.015        275.18118     -1784.2811      960.18531      0.99696118
   2927000  -324.26684      51.275817     -375.54266      273.04721      2455.6833      960.18531      0.99696118
   2928000  -312.63678      63.953477     -376.59025      340.55661     -4691.5051      960.18531      0.99696118
   2929000  -333.82586      47.342422     -381.16828      252.10161     -2133.1146      960.18531      0.99696118
   2930000  -300.67422      67.577657     -368.25187      359.85561     -3145.3817      960.18531      0.99696118
   2931000  -322.28826      51.090886     -373.37915      272.06244     -1190.3901      960.18531      0.99696118
   2932000  -322.96428      53.994092     -376.95837      287.52221     -1156.4942      960.18531      0.99696118
   2933000  -333.31171      58.313412     -391.62512      310.52288      1200.4437      960.18531      0.99696118
   2934000  -339.65025      59.070379     -398.72063      314.55378     -1753.2771      960.18531      0.99696118
   2935000  -328.2496       61.110002     -389.3596       325.41491      3168.311       960.18531      0.99696118
   2936000  -321.10132      69.896112     -390.99744      372.20154      7621.6351      960.18531      0.99696118
   2937000  -339.43052      56.565816     -395.99633      301.21681      1733.1062      960.18531      0.99696118
   2938000  -311.19133      51.217495     -362.40883      272.73664      1502.9179      960.18531      0.99696118
   2939000  -336.49096      50.421568     -386.91253      268.49827      1199.6641      960.18531      0.99696118
   2940000  -339.84142      56.623577     -396.465        301.52439     -505.48016      960.18531      0.99696118
   2941000  -336.72046      53.022053     -389.74251      282.34603      3026.4689      960.18531      0.99696118
   2942000  -322.23162      56.122195     -378.35381      298.8545       4675.1718      960.18531      0.99696118
   2943000  -322.32312      55.835598     -378.15872      297.32835     -98.837411      960.18531      0.99696118
   2944000  -337.33678      50.491801     -387.82858      268.87227     -1892.3232      960.18531      0.99696118
   2945000  -329.66277      57.660373     -387.32315      307.0454      -3391.4005      960.18531      0.99696118
   2946000  -330.28831      52.672451     -382.96076      280.48437      2895.8317      960.18531      0.99696118
   2947000  -312.21149      61.408623     -373.62011      327.00509      567.2113       960.18531      0.99696118
   2948000  -321.9162       45.857299     -367.77349      244.19323     -4761.316       960.18531      0.99696118
   2949000  -319.06985      54.295188     -373.36504      289.12556     -316.39729      960.18531      0.99696118
   2950000  -325.46957      53.381771     -378.85134      284.26155     -511.47766      960.18531      0.99696118
   2951000  -334.30663      50.160545     -384.46718      267.10831      657.90467      960.18531      0.99696118
   2952000  -311.97579      58.971146     -370.94694      314.02536     -2107.8086      960.18531      0.99696118
   2953000  -317.17226      61.829749     -379.002        329.24761      720.04023      960.18531      0.99696118
   2954000  -333.22003      55.271455     -388.49148      294.32425     -2371.6843      960.18531      0.99696118
   2955000  -301.38923      58.116791     -359.50602      309.47586     -1334.2787      960.18531      0.99696118
   2956000  -331.82377      55.308568     -387.13234      294.52188      6853.7001      960.18531      0.99696118
   2957000  -320.99346      60.456414     -381.44987      321.93451     -973.02672      960.18531      0.99696118
   2958000  -320.31354      60.399127     -380.71266      321.62945      742.78478      960.18531      0.99696118
   2959000  -346.78797      41.674516     -388.46249      221.91963      1955.0699      960.18531      0.99696118
   2960000  -326.22899      50.104603     -376.33359      266.81041     -2263.3854      960.18531      0.99696118
   2961000  -333.71793      55.121494     -388.83943      293.5257      -2208.0873      960.18531      0.99696118
   2962000  -328.86061      55.188608     -384.04922      293.88308      1042.9513      960.18531      0.99696118
   2963000  -336.57063      47.304361     -383.87499      251.89893      466.02906      960.18531      0.99696118
   2964000  -327.26099      56.118077     -383.37907      298.83257     -4648.6169      960.18531      0.99696118
   2965000  -317.80718      57.063061     -374.87024      303.86467      476.3117       960.18531      0.99696118
   2966000  -333.597        51.104884     -384.70188      272.13698      1983.1027      960.18531      0.99696118
   2967000  -323.28484      53.986721     -377.27156      287.48296     -1391.7336      960.18531      0.99696118
   2968000  -307.54086      65.987362     -373.52822      351.38718      1848.7115      960.18531      0.99696118
   2969000  -321.65582      55.64698      -377.3028       296.32395     -4297.9625      960.18531      0.99696118
   2970000  -316.58527      58.916056     -375.50133      313.732       -388.01248      960.18531      0.99696118
   2971000  -324.00973      59.960107     -383.96984      319.29164      5155.3667      960.18531      0.99696118
   2972000  -331.95861      58.947398     -390.90601      313.8989      -3570.1049      960.18531      0.99696118
   2973000  -344.29133      52.148612     -396.43995      277.6949      -3334.2761      960.18531      0.99696118
   2974000  -325.92077      54.006428     -379.9272       287.58789     -1381.9927      960.18531      0.99696118
   2975000  -322.21324      54.708649     -376.92189      291.32727      478.16519      960.18531      0.99696118
   2976000  -310.66861      57.473106     -368.14171      306.04819      701.95951      960.18531      0.99696118
   2977000  -332.42394      53.796766     -386.2207       286.47143      725.52286      960.18531      0.99696118
   2978000  -333.78164      49.857772     -383.63942      265.49602     -1382.5796      960.18531      0.99696118
   2979000  -340.58476      50.873708     -391.45847      270.90595     -5938.4109      960.18531      0.99696118
   2980000  -335.34686      50.480078     -385.82694      268.80984     -2453.0676      960.18531      0.99696118
   2981000  -302.61746      72.092624     -374.71009      383.89811     -1892.0055      960.18531      0.99696118
   2982000  -313.74539      57.73891      -371.4843       307.46362     -1881.9898      960.18531      0.99696118
   2983000  -317.011        59.209351     -376.22035      315.29381     -3405.1433      960.18531      0.99696118
   2984000  -320.48331      60.317542     -380.80085      321.19501     -2261.0895      960.18531      0.99696118
   2985000  -341.13658      50.92855      -392.06513      271.19799      326.60469      960.18531      0.99696118
   2986000  -320.70792      58.250228     -378.95815      310.18642     -268.61879      960.18531      0.99696118
   2987000  -305.89168      69.418383     -375.31006      369.6576      -4676.6986      960.18531      0.99696118
   2988000  -330.2206       50.309834     -380.53043      267.90328     -2114.5325      960.18531      0.99696118
   2989000  -326.32545      59.755742     -386.08119      318.20338     -736.62659      960.18531      0.99696118
   2990000  -326.4481       53.801063     -380.24916      286.49431     -3338.2554      960.18531      0.99696118
   2991000  -337.76241      53.345723     -391.10813      284.06959      1155.985       960.18531      0.99696118
   2992000  -344.93463      50.780921     -395.71555      270.41185     -915.29153      960.18531      0.99696118
   2993000  -338.31328      41.421975     -379.73525      220.57483     -1198.9164      960.18531      0.99696118
   2994000  -340.86537      50.534971     -391.40034      269.10215      641.90917      960.18531      0.99696118
   2995000  -328.44043      56.031727     -384.47216      298.37275     -637.71789      960.18531      0.99696118
   2996000  -311.55231      51.088292     -362.6406       272.04862     -2959.3198      960.18531      0.99696118
   2997000  -328.00872      50.124807     -378.13353      266.918        471.14821      960.18531      0.99696118
   2998000  -340.49782      45.627154     -386.12498      242.96769      4795.6384      960.18531      0.99696118
   2999000  -336.73526      47.86102      -384.59628      254.86318     -2757.4571      960.18531      0.99696118
   3000000  -307.71655      54.582107     -362.29866      290.65343      1927.6414      960.18531      0.99696118
Loop time of 858.187 on 1 procs for 2000000 steps with 96 atoms

Performance: 201.355 ns/day, 0.119 hours/ns, 2330.494 timesteps/s
99.7% CPU use with 1 MPI tasks x 1 OpenMP threads

MPI task timing breakdown:
Section |  min time  |  avg time  |  max time  |%varavg| %total
---------------------------------------------------------------
Pair    | 673.04     | 673.04     | 673.04     |   0.0 | 78.43
Bond    | 0.1021     | 0.1021     | 0.1021     |   0.0 |  0.01
Kspace  | 116.64     | 116.64     | 116.64     |   0.0 | 13.59
Neigh   | 30.684     | 30.684     | 30.684     |   0.0 |  3.58
Comm    | 22.927     | 22.927     | 22.927     |   0.0 |  2.67
Output  | 0.27512    | 0.27512    | 0.27512    |   0.0 |  0.03
Modify  | 11.17      | 11.17      | 11.17      |   0.0 |  1.30
Other   |            | 3.341      |            |       |  0.39

Nlocal:             96 ave          96 max          96 min
Histogram: 1 0 0 0 0 0 0 0 0 0
Nghost:           3709 ave        3709 max        3709 min
Histogram: 1 0 0 0 0 0 0 0 0 0
Neighs:          34677 ave       34677 max       34677 min
Histogram: 1 0 0 0 0 0 0 0 0 0

Total # of neighbors = 34677
Ave neighs/atom = 361.21875
Ave special neighs/atom = 2
Neighbor list builds = 43284
Dangerous builds = 0

# write data file
write_data data.after_prod.lmp
System init for write_data ...
PPPM initialization ...
  using 12-bit tables for long-range coulomb (src/kspace.cpp:342)
  G vector (1/distance) = 0.30847861
  grid = 9 9 9
  stencil order = 5
  estimated absolute RMS force accuracy = 0.0027675926
  estimated relative force accuracy = 8.334523e-06
  using double precision FFTW3
  3d grid and FFT values/proc = 4096 729
Generated 1 of 1 mixed pair_coeff terms from geometric mixing rule

# clean up
undump dPROD
unfix fTHERMO
unfix fMOM
unfix fSHAKE
Total wall time: 0:21:27
