LAMMPS (23 Jun 2022 - Update 4)
  using 1 OpenMP thread(s) per MPI task
# created by fftool

# System settings
units real
boundary p p p  # Periodic boundary conditions

# definition of atoms, bonds, angles
atom_style full
bond_style harmonic
angle_style harmonic

# definition of pair potentials
special_bonds lj/coul 0.0 0.0 0.5
pair_style lj/cut/coul/long 10.0 10.0
pair_modify mix geometric tail yes
kspace_style pppm 1.0e-5

# read data file
read_data data.lmp
Reading data file ...
  orthogonal box = (0 0 0) to (15.660478 15.660478 15.660478)
  1 by 1 by 2 MPI processor grid
  reading atoms ...
  384 atoms
  scanning bonds ...
  1 = max bonds/atom
  scanning angles ...
  1 = max angles/atom
  reading bonds ...
  256 bonds
  reading angles ...
  128 angles
Finding 1-2 1-3 1-4 neighbors ...
  special bond factors lj:    0        0        0.5
  special bond factors coul:  0        0        0.5
     2 = max # of 1-2 neighbors
     1 = max # of 1-3 neighbors
     1 = max # of 1-4 neighbors
     2 = max # of special neighbors
  special bonds CPU = 0.000 seconds
  read_data CPU = 0.006 seconds

# definition of LJ parameters
pair_coeff    1    1     0.000000     0.000000  # Hw Hw
pair_coeff    2    2     0.162876     3.153970  # Ow-Ow

############################################

# remove energy hotspots
minimize 1.0e-4 1.0e-6 100 1000
WARNING: Using 'neigh_modify every 1 delay 0 check yes' setting during minimization (src/min.cpp:187)
PPPM initialization ...
  using 12-bit tables for long-range coulomb (src/kspace.cpp:342)
  G vector (1/distance) = 0.31203871
  grid = 15 15 15
  stencil order = 5
  estimated absolute RMS force accuracy = 0.0022228175
  estimated relative force accuracy = 6.6939488e-06
  using double precision FFTW3
  3d grid and FFT values/proc = 6776 1800
Generated 1 of 1 mixed pair_coeff terms from geometric mixing rule
Neighbor list info ...
  update every 1 steps, delay 0 steps, check yes
  max neighbors/atom: 2000, page size: 100000
  master list distance cutoff = 12
  ghost atom cutoff = 12
  binsize = 6, bins = 3 3 3
  1 neighbor lists, perpetual/occasional/extra = 1 0 0
  (1) pair lj/cut/coul/long, perpetual
      attributes: half, newton on
      pair build: half/bin/newton
      stencil: half/bin/3d
      bin: standard
Per MPI rank memory allocation (min/avg/max) = 8.675 | 8.675 | 8.675 Mbytes
   Step          Temp          E_pair         E_mol          TotEng         Press
         0   0              975738.99      8.9197793e-07  975738.99      69758846
       100   0             -1955.8095      164.35032     -1791.4592     -8399.3007
Loop time of 0.231754 on 2 procs for 100 steps with 384 atoms

99.6% CPU use with 2 MPI tasks x 1 OpenMP threads

Minimization stats:
  Stopping criterion = max iterations
  Energy initial, next-to-last, final =
      975738.985793708  -1788.61956977834     -1791.45915327
  Force two-norm initial, final = 11691783 42.52402
  Force max component initial, final = 7408882.6 11.884244
  Final line search alpha, max atom move = 0.0014813878 0.017605175
  Iterations, force evaluations = 100 168

MPI task timing breakdown:
Section |  min time  |  avg time  |  max time  |%varavg| %total
---------------------------------------------------------------
Pair    | 0.17124    | 0.17417    | 0.1771     |   0.7 | 75.15
Bond    | 0.00064117 | 0.00068162 | 0.00072208 |   0.0 |  0.29
Kspace  | 0.034434   | 0.037407   | 0.04038    |   1.5 | 16.14
Neigh   | 0.0057901  | 0.0057913  | 0.0057926  |   0.0 |  2.50
Comm    | 0.012147   | 0.012153   | 0.012158   |   0.0 |  5.24
Output  | 1.2678e-05 | 1.5331e-05 | 1.7984e-05 |   0.0 |  0.01
Modify  | 0          | 0          | 0          |   0.0 |  0.00
Other   |            | 0.001538   |            |       |  0.66

Nlocal:            192 ave         195 max         189 min
Histogram: 1 0 0 0 0 0 0 0 0 1
Nghost:           4752 ave        4752 max        4752 min
Histogram: 2 0 0 0 0 0 0 0 0 0
Neighs:          69302 ave       70672 max       67932 min
Histogram: 1 0 0 0 0 0 0 0 0 1

Total # of neighbors = 138604
Ave neighs/atom = 360.94792
Ave special neighs/atom = 2
Neighbor list builds = 4
Dangerous builds = 0
reset_timestep 0

# constrain water bonds and angles
fix fSHAKE all shake 0.0001 20 0 b 1 a 1
       0 = # of size 2 clusters
       0 = # of size 3 clusters
       0 = # of size 4 clusters
     128 = # of frozen angles
  find clusters CPU = 0.000 seconds

# remove Center of Mass movement every 100 steps
fix fMOM all momentum 100 linear 1 1 1

# define the neighbor list
neighbor 2.0 bin

# IMPORTANT: timestep and temperature and pressure
timestep 1.0
variable vTK equal 298.15
variable vPBAR equal 1.0

# randomize velocities
velocity all create ${vTK} 51591
velocity all create 298.15 51591

# thermostat (solving the ODE)
fix fTHERMO all nvt temp ${vTK} ${vTK} 100
fix fTHERMO all nvt temp 298.15 ${vTK} 100
fix fTHERMO all nvt temp 298.15 298.15 100

# print settings
thermo 1000
thermo_style custom step etotal ke pe temp press vol density
# trajectory output
dump dEQUI all custom 1000 equi.lammpstrj id element xu yu zu
dump_modify dEQUI element H O sort id

# equilibration
# 1 ns
run 1000000
PPPM initialization ...
  using 12-bit tables for long-range coulomb (src/kspace.cpp:342)
  G vector (1/distance) = 0.31203871
  grid = 15 15 15
  stencil order = 5
  estimated absolute RMS force accuracy = 0.0022228175
  estimated relative force accuracy = 6.6939488e-06
  using double precision FFTW3
  3d grid and FFT values/proc = 6776 1800
Generated 1 of 1 mixed pair_coeff terms from geometric mixing rule
Per MPI rank memory allocation (min/avg/max) = 9.712 | 9.712 | 9.712 Mbytes
   Step         TotEng         KinEng         PotEng          Temp          Press          Volume        Density
         0  -1729.1837      226.62577     -1955.8095      298.15        -7719.1827      3840.7412      0.99696119
      1000  -1279.3255      242.90733     -1522.2328      319.57009      2078.7262      3840.7412      0.99696119
      2000  -1343.6615      223.93477     -1567.5963      294.6097      -1424.8119      3840.7412      0.99696119
      3000  -1293.9255      228.66381     -1522.5893      300.83125      321.37126      3840.7412      0.99696119
      4000  -1353.2247      239.58738     -1592.8121      315.20236     -2169.691       3840.7412      0.99696119
      5000  -1357.1573      195.34422     -1552.5015      256.99583     -1283.7691      3840.7412      0.99696119
      6000  -1312.6933      230.95838     -1543.6517      303.85        -873.17519      3840.7412      0.99696119
      7000  -1331.1456      219.2589      -1550.4045      288.45811     -1347.5764      3840.7412      0.99696119
      8000  -1321.2606      229.39076     -1550.6514      301.78763     -1411.582       3840.7412      0.99696119
      9000  -1313.0048      242.35858     -1555.3633      318.84817     -303.5187       3840.7412      0.99696119
     10000  -1347.4285      214.92262     -1562.3512      282.75327     -189.81928      3840.7412      0.99696119
     11000  -1361.5819      217.67638     -1579.2583      286.37614      507.10865      3840.7412      0.99696119
     12000  -1325.3967      244.39997     -1569.7966      321.53383     -1274.9819      3840.7412      0.99696119
     13000  -1378.6655      211.01241     -1589.6779      277.60898     -1808.3629      3840.7412      0.99696119
     14000  -1353.699       233.52963     -1587.2287      307.23275     -869.54047      3840.7412      0.99696119
     15000  -1322.4685      238.48638     -1560.9549      313.75388     -488.31206      3840.7412      0.99696119
     16000  -1346.7158      229.36806     -1576.0839      301.75777     -1016.2998      3840.7412      0.99696119
     17000  -1340.0467      229.90199     -1569.9486      302.46022     -1303.3052      3840.7412      0.99696119
     18000  -1332.2298      232.02672     -1564.2565      305.25551     -1341.9541      3840.7412      0.99696119
     19000  -1296.2932      259.1063      -1555.3994      340.88154     -603.83031      3840.7412      0.99696119
     20000  -1354.3944      233.09762     -1587.4921      306.6644      -2391.0659      3840.7412      0.99696119
     21000  -1333.5942      240.85176     -1574.446       316.86579     -383.69614      3840.7412      0.99696119
     22000  -1347.6248      216.34265     -1563.9674      284.62148     -1824.8576      3840.7412      0.99696119
     23000  -1295.7224      223.41543     -1519.1378      293.92645     -708.59954      3840.7412      0.99696119
     24000  -1332.5235      212.74491     -1545.2685      279.88827     -1053.7415      3840.7412      0.99696119
     25000  -1323.1837      224.56409     -1547.7478      295.43764      48.705603      3840.7412      0.99696119
     26000  -1299.3332      235.15939     -1534.4926      309.37687     -425.89341      3840.7412      0.99696119
     27000  -1327.8007      226.02486     -1553.8255      297.35943      1320.88        3840.7412      0.99696119
     28000  -1296.8749      236.80928     -1533.6842      311.54748     -841.90673      3840.7412      0.99696119
     29000  -1331.2547      211.35838     -1542.6131      278.06415      626.26729      3840.7412      0.99696119
     30000  -1310.8682      233.58696     -1544.4552      307.30818     -244.97023      3840.7412      0.99696119
     31000  -1314.2746      249.18892     -1563.4635      327.83419     -980.17374      3840.7412      0.99696119
     32000  -1353.3566      220.42821     -1573.7848      289.99646     -241.12277      3840.7412      0.99696119
     33000  -1298.2212      255.44107     -1553.6623      336.05956     -539.93808      3840.7412      0.99696119
     34000  -1378.7801      208.28553     -1587.0657      274.02149     -73.904805      3840.7412      0.99696119
     35000  -1367.5268      227.35851     -1594.8854      299.114       -1274.932       3840.7412      0.99696119
     36000  -1337.5584      248.34682     -1585.9052      326.72632      571.60302      3840.7412      0.99696119
     37000  -1332.6709      249.03603     -1581.707       327.63305     -847.63259      3840.7412      0.99696119
     38000  -1333.3921      238.48904     -1571.8812      313.75737     -1729.4648      3840.7412      0.99696119
     39000  -1368.05        204.82458     -1572.8746      269.46824     -1665.065       3840.7412      0.99696119
     40000  -1329.2542      234.58404     -1563.8383      308.61993     -445.80436      3840.7412      0.99696119
     41000  -1351.122       219.19974     -1570.3218      288.38027     -979.77512      3840.7412      0.99696119
     42000  -1346.9766      227.5347      -1574.5113      299.34579     -1345.363       3840.7412      0.99696119
     43000  -1331.8891      232.65546     -1564.5446      306.08268      3159.4795      3840.7412      0.99696119
     44000  -1347.8225      220.51085     -1568.3334      290.10518     -428.72725      3840.7412      0.99696119
     45000  -1334.2492      240.33212     -1574.5813      316.18215     -928.82039      3840.7412      0.99696119
     46000  -1336.9096      226.84873     -1563.7583      298.44333     -178.05361      3840.7412      0.99696119
     47000  -1331.209       236.28103     -1567.49        310.85251     -2203.8396      3840.7412      0.99696119
     48000  -1365.8998      212.63671     -1578.5365      279.74593     -2301.8315      3840.7412      0.99696119
     49000  -1323.3372      229.67877     -1553.016       302.16654      460.30407      3840.7412      0.99696119
     50000  -1350.1403      220.22239     -1570.3627      289.72568     -832.65211      3840.7412      0.99696119
     51000  -1381.4151      219.07257     -1600.4877      288.21297     -2190.4797      3840.7412      0.99696119
     52000  -1359.8687      208.47229     -1568.3409      274.26719     -1242.2072      3840.7412      0.99696119
     53000  -1368.9436      227.73431     -1596.6779      299.6084      -1403.5675      3840.7412      0.99696119
     54000  -1348.3161      208.87579     -1557.1919      274.79804      451.53684      3840.7412      0.99696119
     55000  -1325.5369      223.70371     -1549.2406      294.30571     -2046.472       3840.7412      0.99696119
     56000  -1358.925       220.22895     -1579.1539      289.73432     -476.95942      3840.7412      0.99696119
     57000  -1325.0358      218.76477     -1543.8005      287.80803      1176.7929      3840.7412      0.99696119
     58000  -1358.1443      233.79935     -1591.9437      307.58759     -517.9176       3840.7412      0.99696119
     59000  -1337.2505      228.82107     -1566.0716      301.03814     -2027.611       3840.7412      0.99696119
     60000  -1363.3274      225.16921     -1588.4966      296.23374     -2088.2358      3840.7412      0.99696119
     61000  -1336.3926      229.65714     -1566.0498      302.13808     -103.80256      3840.7412      0.99696119
     62000  -1366.9815      208.87124     -1575.8527      274.79205      72.990313      3840.7412      0.99696119
     63000  -1316.5515      221.4021      -1537.9536      291.27772     -1143.7216      3840.7412      0.99696119
     64000  -1343.7432      222.86231     -1566.6055      293.19877     -1318.4599      3840.7412      0.99696119
     65000  -1288.653       242.1787      -1530.8317      318.61151     -1467.8422      3840.7412      0.99696119
     66000  -1329.4217      208.9289      -1538.3506      274.86791     -1240.1494      3840.7412      0.99696119
     67000  -1340.0772      223.5739      -1563.6511      294.13495      53.855015      3840.7412      0.99696119
     68000  -1299.6505      242.01435     -1541.6648      318.3953      -802.78263      3840.7412      0.99696119
     69000  -1346.5756      214.41404     -1560.9896      282.08418      292.47812      3840.7412      0.99696119
     70000  -1316.2947      248.4669      -1564.7616      326.8843      -681.55517      3840.7412      0.99696119
     71000  -1353.3608      233.77298     -1587.1338      307.5529      -765.00324      3840.7412      0.99696119
     72000  -1365.3821      223.95661     -1589.3387      294.63843     -1625.0952      3840.7412      0.99696119
     73000  -1333.7134      221.00657     -1554.72        290.75735     -1662.7529      3840.7412      0.99696119
     74000  -1346.0832      227.03822     -1573.1214      298.69262     -1792.6778      3840.7412      0.99696119
     75000  -1364.1808      227.17391     -1591.3547      298.87113     -57.873626      3840.7412      0.99696119
     76000  -1350.1073      218.71269     -1568.82        287.73951     -1257.3826      3840.7412      0.99696119
     77000  -1345.3531      217.05992     -1562.413       285.56512      311.461        3840.7412      0.99696119
     78000  -1332.9167      216.43917     -1549.3559      284.74846     -836.96634      3840.7412      0.99696119
     79000  -1331.2039      218.27088     -1549.4748      287.15826     -692.87996      3840.7412      0.99696119
     80000  -1314.8788      227.08948     -1541.9682      298.76005      119.43893      3840.7412      0.99696119
     81000  -1365.5775      213.81207     -1579.3895      281.29223     -312.15883      3840.7412      0.99696119
     82000  -1329.5482      215.43481     -1544.983       283.42711     -79.812861      3840.7412      0.99696119
     83000  -1315.7366      245.88557     -1561.6221      323.48828      1551.4796      3840.7412      0.99696119
     84000  -1351.9926      221.71828     -1573.7108      291.69368     -2502.8509      3840.7412      0.99696119
     85000  -1329.9092      233.58266     -1563.4919      307.30252     -661.15037      3840.7412      0.99696119
     86000  -1347.8764      227.07444     -1574.9508      298.74027     -386.47023      3840.7412      0.99696119
     87000  -1343.3523      225.95228     -1569.3046      297.26395     -533.92396      3840.7412      0.99696119
     88000  -1311.0866      242.9511      -1554.0377      319.62768      160.06868      3840.7412      0.99696119
     89000  -1343.2408      227.86908     -1571.1099      299.78571     -2768.4913      3840.7412      0.99696119
     90000  -1353.6448      216.86289     -1570.5077      285.3059      -994.56869      3840.7412      0.99696119
     91000  -1349.9629      224.60084     -1574.5637      295.48599     -184.64964      3840.7412      0.99696119
     92000  -1378.1986      212.84255     -1591.0412      280.01673     -520.70808      3840.7412      0.99696119
     93000  -1359.5587      221.68475     -1581.2435      291.64957      861.26904      3840.7412      0.99696119
     94000  -1361.0878      224.40345     -1585.4913      295.2263       1226.1432      3840.7412      0.99696119
     95000  -1352.4006      220.84052     -1573.2412      290.5389      -1884.9149      3840.7412      0.99696119
     96000  -1345.5506      225.20258     -1570.7532      296.27764     -2249.7369      3840.7412      0.99696119
     97000  -1360.1318      239.00947     -1599.1412      314.44205     -1073.9092      3840.7412      0.99696119
     98000  -1351.7243      218.21956     -1569.9439      287.09075     -2125.3203      3840.7412      0.99696119
     99000  -1367.0476      215.89873     -1582.9463      284.03744     -3404.105       3840.7412      0.99696119
    100000  -1359.3703      233.29708     -1592.6674      306.92681     -738.16378      3840.7412      0.99696119
    101000  -1360.5481      217.6774      -1578.2255      286.37747      194.25779      3840.7412      0.99696119
    102000  -1373.5056      227.39902     -1600.9047      299.16729     -675.49571      3840.7412      0.99696119
    103000  -1361.3884      213.51245     -1574.9009      280.89805     -3391.4809      3840.7412      0.99696119
    104000  -1349.6533      222.22396     -1571.8773      292.35896     -322.02816      3840.7412      0.99696119
    105000  -1286.0368      241.52284     -1527.5596      317.74865      502.94         3840.7412      0.99696119
    106000  -1352.7733      218.3922      -1571.1655      287.31788      2308.0731      3840.7412      0.99696119
    107000  -1377.2391      211.99225     -1589.2314      278.89806      858.23168      3840.7412      0.99696119
    108000  -1336.1371      226.87485     -1563.0119      298.47769     -285.31117      3840.7412      0.99696119
    109000  -1287.7477      233.42439     -1521.1721      307.0943      -893.05416      3840.7412      0.99696119
    110000  -1331.4184      236.67841     -1568.0968      311.37531     -64.129071      3840.7412      0.99696119
    111000  -1327.3698      216.07789     -1543.4477      284.27316      384.16584      3840.7412      0.99696119
    112000  -1350.6872      204.46236     -1555.1496      268.9917      -1507.8912      3840.7412      0.99696119
    113000  -1352.2858      219.44098     -1571.7268      288.69765      941.20353      3840.7412      0.99696119
    114000  -1297.028       228.40209     -1525.43        300.48693      151.59937      3840.7412      0.99696119
    115000  -1338.1314      222.92959     -1561.061       293.28729     -1424.64        3840.7412      0.99696119
    116000  -1321.0783      234.59129     -1555.6696      308.62947     -273.85624      3840.7412      0.99696119
    117000  -1331.2173      214.89821     -1546.1155      282.72116     -1410.3136      3840.7412      0.99696119
    118000  -1320.173       212.91305     -1533.086       280.10947     -1603.263       3840.7412      0.99696119
    119000  -1338.677       240.9167      -1579.5937      316.95122     -561.58835      3840.7412      0.99696119
    120000  -1365.9258      223.92849     -1589.8543      294.60144     -494.68145      3840.7412      0.99696119
    121000  -1324.9884      233.01706     -1558.0054      306.55841     -2095.0557      3840.7412      0.99696119
    122000  -1360.6667      216.99235     -1577.6591      285.47622      913.02293      3840.7412      0.99696119
    123000  -1317.5963      236.64453     -1554.2408      311.33073     -224.16655      3840.7412      0.99696119
    124000  -1315.3035      214.84991     -1530.1534      282.65762      62.993602      3840.7412      0.99696119
    125000  -1327.5765      235.29056     -1562.8671      309.54944     -1318.1842      3840.7412      0.99696119
    126000  -1360.5602      211.46111     -1572.0213      278.1993      -752.98945      3840.7412      0.99696119
    127000  -1354.8705      220.94014     -1575.8106      290.66996      152.56275      3840.7412      0.99696119
    128000  -1397.1388      212.13059     -1609.2694      279.08006     -1075.8923      3840.7412      0.99696119
    129000  -1344.2881      217.19165     -1561.4797      285.73842     -1285.5382      3840.7412      0.99696119
    130000  -1312.3497      228.69906     -1541.0487      300.87763      1017.3479      3840.7412      0.99696119
    131000  -1325.1591      231.63839     -1556.7975      304.74463     -1468.5452      3840.7412      0.99696119
    132000  -1342.5234      208.0887      -1550.6121      273.76254     -40.729044      3840.7412      0.99696119
    133000  -1316.0401      236.04094     -1552.081       310.53664     -2383.0011      3840.7412      0.99696119
    134000  -1324.7714      235.6552      -1560.4266      310.02916     -1237.2614      3840.7412      0.99696119
    135000  -1339.8427      226.4746      -1566.3173      297.95112      137.87762      3840.7412      0.99696119
    136000  -1360.2087      235.41927     -1595.628       309.71877      2024.2563      3840.7412      0.99696119
    137000  -1333.7882      233.28836     -1567.0766      306.91534     -650.31617      3840.7412      0.99696119
    138000  -1329.2347      231.68921     -1560.9239      304.81149     -255.76738      3840.7412      0.99696119
    139000  -1341.125       230.54361     -1571.6686      303.30432      1354.8741      3840.7412      0.99696119
    140000  -1332.8242      221.89028     -1554.7145      291.91996     -2564.0964      3840.7412      0.99696119
    141000  -1368.7731      209.7314      -1578.5045      275.92368     -967.26518      3840.7412      0.99696119
    142000  -1361.6089      227.42257     -1589.0315      299.19827     -12.556357      3840.7412      0.99696119
    143000  -1336.4977      225.96671     -1562.4644      297.28293      279.42576      3840.7412      0.99696119
    144000  -1317.1625      215.30527     -1532.4677      283.25669     -895.04074      3840.7412      0.99696119
    145000  -1321.4519      234.51646     -1555.9684      308.53103      604.73493      3840.7412      0.99696119
    146000  -1355.4469      220.45781     -1575.9047      290.0354      -310.23076      3840.7412      0.99696119
    147000  -1364.1622      217.81624     -1581.9784      286.56014      764.65346      3840.7412      0.99696119
    148000  -1334.5319      226.84573     -1561.3777      298.43937     -1715.6343      3840.7412      0.99696119
    149000  -1324.2637      239.41744     -1563.6812      314.97878     -1558.5221      3840.7412      0.99696119
    150000  -1361.6806      235.25088     -1596.9315      309.49724     -780.10879      3840.7412      0.99696119
    151000  -1348.6153      210.96428     -1559.5796      277.54566     -671.49181      3840.7412      0.99696119
    152000  -1335.0451      226.6857      -1561.7308      298.22885     -1471.1363      3840.7412      0.99696119
    153000  -1390.3813      209.84198     -1600.2233      276.06916     -66.053605      3840.7412      0.99696119
    154000  -1344.8858      214.93443     -1559.8202      282.76881     -621.72398      3840.7412      0.99696119
    155000  -1346.1588      241.72393     -1587.8828      318.01321     -225.88787      3840.7412      0.99696119
    156000  -1337.8325      234.53069     -1572.3632      308.54975     -1168.398       3840.7412      0.99696119
    157000  -1311.3272      222.29819     -1533.6253      292.45661      11.935001      3840.7412      0.99696119
    158000  -1338.7156      246.02873     -1584.7443      323.67662      1521.8637      3840.7412      0.99696119
    159000  -1362.75        215.47995     -1578.2299      283.4865      -672.55838      3840.7412      0.99696119
    160000  -1345.5609      230.87698     -1576.4379      303.74291      2157.498       3840.7412      0.99696119
    161000  -1389.8274      206.88415     -1596.7115      272.17782     -662.71856      3840.7412      0.99696119
    162000  -1347.9525      221.60225     -1569.5548      291.54103     -2216.9599      3840.7412      0.99696119
    163000  -1338.3415      227.4069      -1565.7484      299.17765      558.81073      3840.7412      0.99696119
    164000  -1328.7914      231.32715     -1560.1185      304.33516      932.36246      3840.7412      0.99696119
    165000  -1341.341       209.93065     -1551.2717      276.18582     -2702.3844      3840.7412      0.99696119
    166000  -1320.6542      214.99526     -1535.6494      282.84884     -1782.8314      3840.7412      0.99696119
    167000  -1326.8815      235.42974     -1562.3113      309.73255     -479.0887       3840.7412      0.99696119
    168000  -1320.1723      242.60052     -1562.7728      319.16646      472.53783      3840.7412      0.99696119
    169000  -1369.1743      223.80774     -1592.9821      294.44258     -2046.073       3840.7412      0.99696119
    170000  -1340.1943      236.65604     -1576.8504      311.34587      102.96654      3840.7412      0.99696119
    171000  -1330.3076      237.65362     -1567.9612      312.65829      80.815936      3840.7412      0.99696119
    172000  -1293.3909      241.09725     -1534.4882      317.18875     -738.67903      3840.7412      0.99696119
    173000  -1329.3973      219.43539     -1548.8327      288.69029     -1857.2119      3840.7412      0.99696119
    174000  -1377.2337      213.88634     -1591.12        281.38994     -555.16764      3840.7412      0.99696119
    175000  -1323.7622      232.17657     -1555.9387      305.45265     -1182.8979      3840.7412      0.99696119
    176000  -1392.691       209.39947     -1602.0905      275.48699      5.278019       3840.7412      0.99696119
    177000  -1325.1829      227.64656     -1552.8295      299.49295      741.1902       3840.7412      0.99696119
    178000  -1298.127       235.16933     -1533.2963      309.38994      2287.8971      3840.7412      0.99696119
    179000  -1349.3054      232.42024     -1581.7256      305.77324     -1314.6962      3840.7412      0.99696119
    180000  -1358.692       225.79428     -1584.4863      297.05608     -521.85509      3840.7412      0.99696119
    181000  -1329.3877      235.23225     -1564.6199      309.47273      70.70992       3840.7412      0.99696119
    182000  -1323.4921      238.63368     -1562.1258      313.94767     -1171.0459      3840.7412      0.99696119
    183000  -1345.5142      211.13548     -1556.6496      277.77089      1788.5657      3840.7412      0.99696119
    184000  -1355.3871      221.23459     -1576.6217      291.05733     -642.41155      3840.7412      0.99696119
    185000  -1310.268       237.79562     -1548.0636      312.84511     -956.74159      3840.7412      0.99696119
    186000  -1391.816       220.10172     -1611.9177      289.56692     -589.28117      3840.7412      0.99696119
    187000  -1378.9392      220.62895     -1599.5682      290.26055      674.9969       3840.7412      0.99696119
    188000  -1393.9667      204.85588     -1598.8226      269.50942     -671.40796      3840.7412      0.99696119
    189000  -1354.2784      227.26131     -1581.5397      298.98612     -935.87239      3840.7412      0.99696119
    190000  -1346.8471      231.89795     -1578.745       305.0861      -897.285        3840.7412      0.99696119
    191000  -1350.6258      218.69636     -1569.3221      287.71803     -1121.3475      3840.7412      0.99696119
    192000  -1357.1125      222.02628     -1579.1388      292.09889     -1224.818       3840.7412      0.99696119
    193000  -1348.8054      235.33204     -1584.1374      309.60401     -1317.002       3840.7412      0.99696119
    194000  -1350.9425      237.19735     -1588.1399      312.05802     -396.78044      3840.7412      0.99696119
    195000  -1344.6771      219.43118     -1564.1083      288.68476      1455.9092      3840.7412      0.99696119
    196000  -1355.6401      226.38522     -1582.0253      297.83353     -1043.1707      3840.7412      0.99696119
    197000  -1340.258       226.21966     -1566.4776      297.61572     -207.85188      3840.7412      0.99696119
    198000  -1337.9176      229.33993     -1567.2575      301.72076     -1334.5978      3840.7412      0.99696119
    199000  -1368.4847      220.35979     -1588.8445      289.90645      1216.3774      3840.7412      0.99696119
    200000  -1348.1566      241.65613     -1589.8127      317.92401      1842.479       3840.7412      0.99696119
    201000  -1336.9288      198.53281     -1535.4616      261.19076     -135.29098      3840.7412      0.99696119
    202000  -1334.1869      223.83264     -1558.0195      294.47534     -946.91593      3840.7412      0.99696119
    203000  -1334.9254      231.48193     -1566.4074      304.53878      119.30835      3840.7412      0.99696119
    204000  -1336.5714      218.71701     -1555.2884      287.74519     -752.87534      3840.7412      0.99696119
    205000  -1315.161       231.81555     -1546.9765      304.9777       615.63836      3840.7412      0.99696119
    206000  -1347.6394      214.96541     -1562.6048      282.80958     -1284.6647      3840.7412      0.99696119
    207000  -1290.6899      238.07117     -1528.761       313.20763     -141.44256      3840.7412      0.99696119
    208000  -1368.2228      223.27647     -1591.4993      293.74364     -1333.5283      3840.7412      0.99696119
    209000  -1330.6209      224.93163     -1555.5526      295.92118     -1716.4805      3840.7412      0.99696119
    210000  -1348.2367      224.19777     -1572.4345      294.9557       25.758699      3840.7412      0.99696119
    211000  -1337.1207      225.19368     -1562.3144      296.26593     -3726.7985      3840.7412      0.99696119
    212000  -1323.2064      246.86636     -1570.0728      324.77862     -989.6039       3840.7412      0.99696119
    213000  -1347.5959      209.92921     -1557.5251      276.18393     -733.89182      3840.7412      0.99696119
    214000  -1302.8366      248.16804     -1551.0046      326.49112     -359.35984      3840.7412      0.99696119
    215000  -1335.2216      209.74631     -1544.9679      275.9433      -757.05992      3840.7412      0.99696119
    216000  -1378.2204      218.30833     -1596.5287      287.20753     -244.01664      3840.7412      0.99696119
    217000  -1365.0726      214.58028     -1579.6529      282.30289      979.1765       3840.7412      0.99696119
    218000  -1351.579       230.97216     -1582.5512      303.86813      762.73839      3840.7412      0.99696119
    219000  -1374.4746      208.00456     -1582.4791      273.65185     -523.10182      3840.7412      0.99696119
    220000  -1347.9771      225.83073     -1573.8078      297.10404     -1129.5005      3840.7412      0.99696119
    221000  -1341.6095      220.82858     -1562.438       290.52318     -1159.8555      3840.7412      0.99696119
    222000  -1334.3841      214.16063     -1548.5447      281.7508       69.860266      3840.7412      0.99696119
    223000  -1326.1335      238.58869     -1564.7222      313.88847     -1698.0179      3840.7412      0.99696119
    224000  -1347.1692      213.63436     -1560.8036      281.05843      871.27456      3840.7412      0.99696119
    225000  -1356.8849      201.51459     -1558.3995      265.1136      -1304.3893      3840.7412      0.99696119
    226000  -1329.4453      213.08991     -1542.5352      280.34216      1120.9999      3840.7412      0.99696119
    227000  -1313.8611      232.11174     -1545.9728      305.36737     -743.04909      3840.7412      0.99696119
    228000  -1334.4704      218.31499     -1552.7854      287.21629      656.35082      3840.7412      0.99696119
    229000  -1351.9643      217.84621     -1569.8105      286.59956     -1555.0743      3840.7412      0.99696119
    230000  -1333.1783      233.42193     -1566.6002      307.09107      1466.2152      3840.7412      0.99696119
    231000  -1379.4407      211.87479     -1591.3155      278.74353     -1269.6384      3840.7412      0.99696119
    232000  -1344.8373      222.97707     -1567.8143      293.34975     -3256.9604      3840.7412      0.99696119
    233000  -1350.5014      219.35793     -1569.8593      288.58839     -1689.4866      3840.7412      0.99696119
    234000  -1355.7365      216.51181     -1572.2483      284.84402      1717.5854      3840.7412      0.99696119
    235000  -1296.2026      255.64437     -1551.8469      336.32701     -1390.6357      3840.7412      0.99696119
    236000  -1349.2975      207.05262     -1556.3501      272.39947      919.63369      3840.7412      0.99696119
    237000  -1307.6991      225.29986     -1532.9989      296.40563     -1820.2011      3840.7412      0.99696119
    238000  -1349.1898      215.31769     -1564.5075      283.27303     -788.65689      3840.7412      0.99696119
    239000  -1327.2569      228.07903     -1555.336       300.06192     -868.80382      3840.7412      0.99696119
    240000  -1312.8345      226.10256     -1538.937       297.46166     -1800.9846      3840.7412      0.99696119
    241000  -1354.5107      216.37341     -1570.8841      284.66194     -1799.9484      3840.7412      0.99696119
    242000  -1344.7405      246.821       -1591.5615      324.71894      576.09106      3840.7412      0.99696119
    243000  -1360.3869      218.10095     -1578.4878      286.93471     -425.35781      3840.7412      0.99696119
    244000  -1313.8513      248.86362     -1562.7149      327.40622      30.692082      3840.7412      0.99696119
    245000  -1341.3483      228.07601     -1569.4244      300.05795     -2289.3438      3840.7412      0.99696119
    246000  -1354.0472      230.8915      -1584.9386      303.76201     -457.24476      3840.7412      0.99696119
    247000  -1343.8112      218.61528     -1562.4264      287.61136      192.77693      3840.7412      0.99696119
    248000  -1368.6628      224.71112     -1593.3739      295.63107     -1367.4001      3840.7412      0.99696119
    249000  -1327.7371      229.80147     -1557.5386      302.32796     -720.49229      3840.7412      0.99696119
    250000  -1346.7775      211.75062     -1558.5281      278.58018     -134.749        3840.7412      0.99696119
    251000  -1344.7798      218.0369      -1562.8167      286.85044     -1046.8121      3840.7412      0.99696119
    252000  -1366.2425      214.22646     -1580.469       281.83741      522.64607      3840.7412      0.99696119
    253000  -1332.5158      231.01887     -1563.5347      303.92958     -516.68771      3840.7412      0.99696119
    254000  -1362.0314      214.63698     -1576.6684      282.37749      437.78031      3840.7412      0.99696119
    255000  -1331.6702      236.52378     -1568.194       311.17187     -166.8201       3840.7412      0.99696119
    256000  -1312.9425      229.56366     -1542.5062      302.01511      153.29079      3840.7412      0.99696119
    257000  -1295.0373      225.1227      -1520.16        296.17255      2922.0229      3840.7412      0.99696119
    258000  -1344.9606      217.48502     -1562.4456      286.12438     -465.66106      3840.7412      0.99696119
    259000  -1357.5588      198.6172      -1556.176       261.30178      505.26482      3840.7412      0.99696119
    260000  -1335.4463      220.07113     -1555.5174      289.52669      655.06099      3840.7412      0.99696119
    261000  -1358.3885      228.2697      -1586.6582      300.31277     -236.15703      3840.7412      0.99696119
    262000  -1324.1296      232.05205     -1556.1816      305.28884      177.38991      3840.7412      0.99696119
    263000  -1356.0621      222.18353     -1578.2456      292.30576      592.4686       3840.7412      0.99696119
    264000  -1322.1382      216.67587     -1538.8141      285.05986     -663.06231      3840.7412      0.99696119
    265000  -1289.3024      220.86772     -1510.1702      290.57468     -801.94401      3840.7412      0.99696119
    266000  -1340.3625      217.84728     -1558.2097      286.60098     -424.78535      3840.7412      0.99696119
    267000  -1319.2492      232.06615     -1551.3153      305.30739      39.152579      3840.7412      0.99696119
    268000  -1367.7822      212.23203     -1580.0143      279.21353     -1025.02        3840.7412      0.99696119
    269000  -1353.8837      224.82195     -1578.7056      295.77688     -627.06244      3840.7412      0.99696119
    270000  -1370.9963      218.37458     -1589.3709      287.29469     -434.42704      3840.7412      0.99696119
    271000  -1336.657       241.26807     -1577.925       317.41347      94.802692      3840.7412      0.99696119
    272000  -1344.6483      235.92905     -1580.5773      310.38943     -1824.3286      3840.7412      0.99696119
    273000  -1369.0801      206.19425     -1575.2744      271.27019      397.73386      3840.7412      0.99696119
    274000  -1340.257       235.60645     -1575.8635      309.96503     -676.66061      3840.7412      0.99696119
    275000  -1334.0991      223.36847     -1557.4675      293.86468      547.38299      3840.7412      0.99696119
    276000  -1347.5556      251.58744     -1599.143       330.98969      1346.3199      3840.7412      0.99696119
    277000  -1351.9505      224.42894     -1576.3795      295.25984      138.06443      3840.7412      0.99696119
    278000  -1314.7858      222.49705     -1537.2829      292.71824      488.77008      3840.7412      0.99696119
    279000  -1333.2443      206.0733      -1539.3175      271.11106      181.8263       3840.7412      0.99696119
    280000  -1334.291       243.8788      -1578.1698      320.84817     -530.36135      3840.7412      0.99696119
    281000  -1338.0942      239.6604      -1577.7546      315.29842      1929.8279      3840.7412      0.99696119
    282000  -1371.8123      219.37261     -1591.1849      288.6077      -154.36679      3840.7412      0.99696119
    283000  -1366.457       222.09918     -1588.5562      292.19479     -662.58126      3840.7412      0.99696119
    284000  -1333.2042      221.71391     -1554.9181      291.68792      377.18375      3840.7412      0.99696119
    285000  -1358.4013      231.60145     -1590.0027      304.69603      1215.6912      3840.7412      0.99696119
    286000  -1312.1723      244.75993     -1556.9322      322.00739      55.814905      3840.7412      0.99696119
    287000  -1366.1601      207.58486     -1573.7449      273.09968     -465.0027       3840.7412      0.99696119
    288000  -1340.517       243.51699     -1584.034       320.37218     -854.49363      3840.7412      0.99696119
    289000  -1304.4385      227.1329      -1531.5715      298.81718     -1137.7972      3840.7412      0.99696119
    290000  -1301.036       234.27678     -1535.3128      308.2157       635.02187      3840.7412      0.99696119
    291000  -1366.7722      219.13489     -1585.907       288.29496     -3099.803       3840.7412      0.99696119
    292000  -1352.6094      216.5305      -1569.1399      284.86862      340.3959       3840.7412      0.99696119
    293000  -1362.8654      215.65444     -1578.5198      283.71606      458.46997      3840.7412      0.99696119
    294000  -1318.1146      235.22345     -1553.338       309.46114      286.44354      3840.7412      0.99696119
    295000  -1349.674       218.43355     -1568.1076      287.37227     -360.30794      3840.7412      0.99696119
    296000  -1361.2664      212.00516     -1573.2716      278.91504      148.88817      3840.7412      0.99696119
    297000  -1350.8355      218.85035     -1569.6859      287.92062     -157.06424      3840.7412      0.99696119
    298000  -1331.6319      245.91617     -1577.5481      323.52855     -2356.961       3840.7412      0.99696119
    299000  -1367.4972      210.4146      -1577.9118      276.8225      -1854.5633      3840.7412      0.99696119
    300000  -1366.2891      208.81021     -1575.0993      274.71175     -1926.8115      3840.7412      0.99696119
    301000  -1342.7621      216.02742     -1558.7895      284.20675      976.12178      3840.7412      0.99696119
    302000  -1358.2836      222.53702     -1580.8207      292.77081     -1768.2319      3840.7412      0.99696119
    303000  -1355.8661      206.68132     -1562.5474      271.91099     -24.711703      3840.7412      0.99696119
    304000  -1353.2614      231.08391     -1584.3454      304.01514     -100.3942       3840.7412      0.99696119
    305000  -1352.2852      225.76199     -1578.0472      297.0136      -263.1867       3840.7412      0.99696119
    306000  -1370.0993      210.44491     -1580.5442      276.86238      781.38131      3840.7412      0.99696119
    307000  -1355.4595      214.69335     -1570.1528      282.45164     -1092.1173      3840.7412      0.99696119
    308000  -1338.3211      230.79229     -1569.1134      303.63149      232.87695      3840.7412      0.99696119
    309000  -1377.5692      227.63837     -1605.2076      299.48218      684.10867      3840.7412      0.99696119
    310000  -1351.9104      219.62547     -1571.5359      288.94037     -1031.3471      3840.7412      0.99696119
    311000  -1360.8811      230.13913     -1591.0203      302.77219     -906.45968      3840.7412      0.99696119
    312000  -1354.3493      227.8378      -1582.1871      299.74455     -1098.4145      3840.7412      0.99696119
    313000  -1347.8172      211.703       -1559.5202      278.51752     -1481.5835      3840.7412      0.99696119
    314000  -1354.1148      234.08079     -1588.1956      307.95786      317.02507      3840.7412      0.99696119
    315000  -1331.0541      223.63084     -1554.6849      294.20985     -40.82853       3840.7412      0.99696119
    316000  -1336.2592      228.06405     -1564.3233      300.04221     -1098.8983      3840.7412      0.99696119
    317000  -1346.2904      231.5231      -1577.8135      304.59296     -2162.0685      3840.7412      0.99696119
    318000  -1358.0544      218.2166      -1576.271       287.08686      968.91631      3840.7412      0.99696119
    319000  -1325.7509      236.13018     -1561.8811      310.65405      897.27695      3840.7412      0.99696119
    320000  -1312.8969      246.66364     -1559.5605      324.51192      629.67599      3840.7412      0.99696119
    321000  -1341.8714      232.83404     -1574.7054      306.31764     -12.441452      3840.7412      0.99696119
    322000  -1342.5162      213.65786     -1556.1741      281.08936      836.95857      3840.7412      0.99696119
    323000  -1357.4079      228.40172     -1585.8097      300.48645     -94.209577      3840.7412      0.99696119
    324000  -1321.0865      219.83761     -1540.9241      289.21946     -307.41993      3840.7412      0.99696119
    325000  -1320.3996      233.4685      -1553.8681      307.15233      1308.2717      3840.7412      0.99696119
    326000  -1325.4887      212.66068     -1538.1494      279.77746     -2021.1642      3840.7412      0.99696119
    327000  -1339.8235      227.3505      -1567.174       299.10346     -2028.0717      3840.7412      0.99696119
    328000  -1350.7007      224.20459     -1574.9053      294.96468     -385.87357      3840.7412      0.99696119
    329000  -1311.9671      219.98588     -1531.953       289.41452     -898.50516      3840.7412      0.99696119
    330000  -1324.6249      233.48371     -1558.1086      307.17233     -3426.3109      3840.7412      0.99696119
    331000  -1321.7389      231.55293     -1553.2918      304.6322       415.75789      3840.7412      0.99696119
    332000  -1338.1391      208.05466     -1546.1937      273.71775     -1982.3314      3840.7412      0.99696119
    333000  -1338.5487      213.41024     -1551.9589      280.76358     -1343.0898      3840.7412      0.99696119
    334000  -1322.3431      236.31412     -1558.6572      310.89604     -864.56245      3840.7412      0.99696119
    335000  -1325.7421      217.5245      -1543.2666      286.17633     -241.72689      3840.7412      0.99696119
    336000  -1319.8622      222.79674     -1542.659       293.11251     -1805.91        3840.7412      0.99696119
    337000  -1339.6241      212.65962     -1552.2837      279.77606     -2124.965       3840.7412      0.99696119
    338000  -1297.1279      243.44344     -1540.5713      320.27541      849.18075      3840.7412      0.99696119
    339000  -1314.9936      237.46662     -1552.4602      312.41227     -2152.2012      3840.7412      0.99696119
    340000  -1332.408       217.27927     -1549.6873      285.8537      -1251.3356      3840.7412      0.99696119
    341000  -1317.3465      228.71789     -1546.0644      300.9024      -2382.427       3840.7412      0.99696119
    342000  -1372.7295      208.15052     -1580.88        273.84386     -2053.5844      3840.7412      0.99696119
    343000  -1358.067       222.05061     -1580.1177      292.1309      -1962.3309      3840.7412      0.99696119
    344000  -1341.5762      221.10791     -1562.6841      290.89067     -2315.8141      3840.7412      0.99696119
    345000  -1336.0533      227.45203     -1563.5053      299.23702     -377.78057      3840.7412      0.99696119
    346000  -1341.348       220.50349     -1561.8515      290.0955      -545.66661      3840.7412      0.99696119
    347000  -1367.4127      207.03886     -1574.4515      272.38136     -188.48395      3840.7412      0.99696119
    348000  -1315.9682      228.16954     -1544.1377      300.18099     -1257.7976      3840.7412      0.99696119
    349000  -1360.0982      214.01753     -1574.1157      281.56253     -565.07499      3840.7412      0.99696119
    350000  -1340.1265      247.46723     -1587.5937      325.56912      120.33797      3840.7412      0.99696119
    351000  -1282.3054      247.2897      -1529.5951      325.33557     -555.11092      3840.7412      0.99696119
    352000  -1372.6214      207.21408     -1579.8355      272.61189     -1893.3977      3840.7412      0.99696119
    353000  -1330.1341      225.57403     -1555.7081      296.76632     -616.6197       3840.7412      0.99696119
    354000  -1331.4122      222.40322     -1553.8154      292.59479     -967.6463       3840.7412      0.99696119
    355000  -1373.246       205.50198     -1578.748       270.35943     -3508.2676      3840.7412      0.99696119
    356000  -1329.3086      225.8345      -1555.1432      297.109       -329.19606      3840.7412      0.99696119
    357000  -1325.7622      229.38867     -1555.1509      301.78489     -165.58513      3840.7412      0.99696119
    358000  -1332.0541      237.23959     -1569.2937      312.11359      434.06191      3840.7412      0.99696119
    359000  -1388.5114      209.32651     -1597.8379      275.391        923.33203      3840.7412      0.99696119
    360000  -1324.5587      234.81529     -1559.374       308.92417     -106.02829      3840.7412      0.99696119
    361000  -1315.9694      245.34128     -1561.3107      322.77222      1267.5796      3840.7412      0.99696119
    362000  -1316.503       217.16058     -1533.6635      285.69754     -649.37914      3840.7412      0.99696119
    363000  -1316.8937      237.29627     -1554.1899      312.18816     -462.08192      3840.7412      0.99696119
    364000  -1344.9516      216.60719     -1561.5588      284.9695      -1553.6363      3840.7412      0.99696119
    365000  -1343.5165      254.30386     -1597.8204      334.56343      42.329014      3840.7412      0.99696119
    366000  -1333.0481      237.02791     -1570.076       311.83511     -8.7684972      3840.7412      0.99696119
    367000  -1341.3293      222.2183      -1563.5476      292.35151     -1763.1128      3840.7412      0.99696119
    368000  -1374.106       213.30805     -1587.414       280.62913     -2267.8971      3840.7412      0.99696119
    369000  -1366.2701      207.96327     -1574.2334      273.59752     -38.553848      3840.7412      0.99696119
    370000  -1335.7794      236.64961     -1572.429       311.33741      408.32632      3840.7412      0.99696119
    371000  -1337.5599      224.36071     -1561.9207      295.17008     -570.59059      3840.7412      0.99696119
    372000  -1309.8685      236.14564     -1546.0142      310.67439     -1715.6138      3840.7412      0.99696119
    373000  -1326.0279      237.14429     -1563.1722      311.98821     -1433.2702      3840.7412      0.99696119
    374000  -1361.7478      216.54514     -1578.2929      284.88787     -1959.3165      3840.7412      0.99696119
    375000  -1349.6851      233.72535     -1583.4104      307.49024      2077.5892      3840.7412      0.99696119
    376000  -1320.1636      231.79974     -1551.9633      304.9569       648.23893      3840.7412      0.99696119
    377000  -1355.9871      230.86656     -1586.8537      303.7292       301.70922      3840.7412      0.99696119
    378000  -1372.9682      215.09896     -1588.0671      282.98527     -403.35517      3840.7412      0.99696119
    379000  -1354.9752      210.66083     -1565.636       277.14644     -279.84788      3840.7412      0.99696119
    380000  -1353.8441      216.59016     -1570.4342      284.9471      -693.66859      3840.7412      0.99696119
    381000  -1311.1483      242.67183     -1553.8201      319.26028     -1198.4706      3840.7412      0.99696119
    382000  -1341.2503      235.14137     -1576.3916      309.35317     -1858.4124      3840.7412      0.99696119
    383000  -1306.5102      248.97663     -1555.4868      327.5549      -2426.7786      3840.7412      0.99696119
    384000  -1330.7897      208.59153     -1539.3812      274.42406     -1862.2318      3840.7412      0.99696119
    385000  -1323.3075      226.12951     -1549.437       297.49712     -1286.7826      3840.7412      0.99696119
    386000  -1329.477       252.14325     -1581.6203      331.72092     -752.2113       3840.7412      0.99696119
    387000  -1345.4276      230.34179     -1575.7694      303.03881      717.95471      3840.7412      0.99696119
    388000  -1339.2737      234.58409     -1573.8578      308.62        -580.23589      3840.7412      0.99696119
    389000  -1290.3942      252.47775     -1542.8719      332.16099     -923.48501      3840.7412      0.99696119
    390000  -1328.2165      230.55229     -1558.7688      303.31575     -2456.9321      3840.7412      0.99696119
    391000  -1362.0596      224.92099     -1586.9806      295.90719     -983.74693      3840.7412      0.99696119
    392000  -1330.2431      248.77075     -1579.0138      327.28404      602.19051      3840.7412      0.99696119
    393000  -1345.6876      215.12965     -1560.8172      283.02565     -214.07634      3840.7412      0.99696119
    394000  -1384.3446      213.75963     -1598.1042      281.22324      690.97065      3840.7412      0.99696119
    395000  -1337.4231      209.50826     -1546.9313      275.63012     -302.04358      3840.7412      0.99696119
    396000  -1313.463       232.59008     -1546.0531      305.99667      324.2597       3840.7412      0.99696119
    397000  -1351.4154      221.43259     -1572.848       291.31782     -340.4416       3840.7412      0.99696119
    398000  -1300.8163      258.41469     -1559.231       339.97166     -516.25053      3840.7412      0.99696119
    399000  -1334.0569      233.51005     -1567.567       307.20699      628.73493      3840.7412      0.99696119
    400000  -1339.4737      220.55718     -1560.0309      290.16613     -2230.5218      3840.7412      0.99696119
    401000  -1349.2321      227.64504     -1576.8772      299.49096     -491.97367      3840.7412      0.99696119
    402000  -1368.2881      227.97709     -1596.2652      299.9278      -917.29074      3840.7412      0.99696119
    403000  -1350.4366      234.38342     -1584.82        308.356       -1112.9908      3840.7412      0.99696119
    404000  -1348.5922      227.76354     -1576.3557      299.64685     -826.25087      3840.7412      0.99696119
    405000  -1329.7123      237.63522     -1567.3475      312.63408     -1361.4219      3840.7412      0.99696119
    406000  -1284.0542      260.44162     -1544.4958      342.6383      -1547.3112      3840.7412      0.99696119
    407000  -1332.5312      224.42165     -1556.9528      295.25024     -2738.5128      3840.7412      0.99696119
    408000  -1374.4848      225.84105     -1600.3258      297.11762      184.53577      3840.7412      0.99696119
    409000  -1322.3108      215.28816     -1537.5989      283.23418     -865.87639      3840.7412      0.99696119
    410000  -1311.468       230.57986     -1542.0479      303.35202      128.25819      3840.7412      0.99696119
    411000  -1340.7992      232.89053     -1573.6897      306.39195      253.1065       3840.7412      0.99696119
    412000  -1366.9919      233.60506     -1600.597       307.33199     -782.08755      3840.7412      0.99696119
    413000  -1346.4193      228.23488     -1574.6542      300.26695     -753.59732      3840.7412      0.99696119
    414000  -1358.048       223.0829      -1581.1309      293.48898     -921.92559      3840.7412      0.99696119
    415000  -1360.4224      217.75923     -1578.1816      286.48514     -751.36904      3840.7412      0.99696119
    416000  -1365.6879      233.58042     -1599.2683      307.29957      1857.2585      3840.7412      0.99696119
    417000  -1345.6206      230.78734     -1576.408       303.62498      295.65984      3840.7412      0.99696119
    418000  -1306.5291      234.45022     -1540.9793      308.44388     -1155.5885      3840.7412      0.99696119
    419000  -1350.7051      225.98741     -1576.6925      297.31017      364.03585      3840.7412      0.99696119
    420000  -1320.3371      243.98304     -1564.3201      320.98531     -1715.5814      3840.7412      0.99696119
    421000  -1345.4696      221.02432     -1566.4939      290.78071     -3172.6724      3840.7412      0.99696119
    422000  -1382.4637      216.30479     -1598.7685      284.57167     -1219.008       3840.7412      0.99696119
    423000  -1368.8663      223.26555     -1592.1319      293.72927     -1148.0193      3840.7412      0.99696119
    424000  -1346.8114      224.0609      -1570.8723      294.77564      1410.517       3840.7412      0.99696119
    425000  -1306.6069      230.7231      -1537.33        303.54046     -530.08396      3840.7412      0.99696119
    426000  -1335.9655      242.18998     -1578.1554      318.62635     -3040.2475      3840.7412      0.99696119
    427000  -1362.7232      217.89763     -1580.6208      286.66721     -1335.1707      3840.7412      0.99696119
    428000  -1323.569       229.77103     -1553.34        302.28792     -227.28889      3840.7412      0.99696119
    429000  -1364.8659      207.88792     -1572.7538      273.49839     -911.32415      3840.7412      0.99696119
    430000  -1342.0068      236.15457     -1578.1614      310.68614     -1168.4186      3840.7412      0.99696119
    431000  -1336.8928      220.9033      -1557.7961      290.62149      111.24238      3840.7412      0.99696119
    432000  -1308.8678      236.58279     -1545.4506      311.24951      59.559142      3840.7412      0.99696119
    433000  -1336.2249      216.65638     -1552.8813      285.03422     -910.89042      3840.7412      0.99696119
    434000  -1367.6775      215.34833     -1583.0258      283.31334      460.03487      3840.7412      0.99696119
    435000  -1278.8648      252.89185     -1531.7566      332.70578      287.99561      3840.7412      0.99696119
    436000  -1332.365       218.14938     -1550.5144      286.99842     -2387.7303      3840.7412      0.99696119
    437000  -1292.396       243.49764     -1535.8936      320.34671      976.38515      3840.7412      0.99696119
    438000  -1336.6807      240.80781     -1577.4885      316.80797      235.94587      3840.7412      0.99696119
    439000  -1371.3151      214.67488     -1585.99        282.42734     -46.933844      3840.7412      0.99696119
    440000  -1356.5476      239.02434     -1595.5719      314.46162     -115.37707      3840.7412      0.99696119
    441000  -1382.1513      220.2082      -1602.3595      289.707       -3118.8519      3840.7412      0.99696119
    442000  -1334.5097      218.75151     -1553.2613      287.79059     -442.68369      3840.7412      0.99696119
    443000  -1346.7043      233.84799     -1580.5523      307.65158     -1954.3775      3840.7412      0.99696119
    444000  -1345.1307      216.23937     -1561.37        284.48559     -1143.1383      3840.7412      0.99696119
    445000  -1300.8398      253.68514     -1554.525       333.74944     -3089.0414      3840.7412      0.99696119
    446000  -1352.0023      219.81184     -1571.8141      289.18556     -2179.7149      3840.7412      0.99696119
    447000  -1334.3204      215.80397     -1550.1243      283.91278     -1331.387       3840.7412      0.99696119
    448000  -1340.6143      222.1629      -1562.7772      292.27862     -3208.6907      3840.7412      0.99696119
    449000  -1313.4277      240.32906     -1553.7568      316.17812     -332.89268      3840.7412      0.99696119
    450000  -1318.7644      233.77105     -1552.5354      307.55037      338.11915      3840.7412      0.99696119
    451000  -1378.5688      221.62047     -1600.1892      291.565       -2136.1928      3840.7412      0.99696119
    452000  -1316.6147      247.28659     -1563.9013      325.33147     -1956.9723      3840.7412      0.99696119
    453000  -1318.3362      231.93738     -1550.2735      305.13798     -1176.5271      3840.7412      0.99696119
    454000  -1355.7421      220.54291     -1576.285       290.14735     -189.52865      3840.7412      0.99696119
    455000  -1344.3298      220.99728     -1565.3271      290.74513     -387.4445       3840.7412      0.99696119
    456000  -1336.4374      228.04899     -1564.4864      300.02239     -299.06456      3840.7412      0.99696119
    457000  -1354.741       247.79911     -1602.5401      326.00575      1591.0169      3840.7412      0.99696119
    458000  -1381.5343      211.19106     -1592.7254      277.84401     -520.68941      3840.7412      0.99696119
    459000  -1306.7631      221.64811     -1528.4112      291.60136      1381.8612      3840.7412      0.99696119
    460000  -1296.7698      233.82759     -1530.5974      307.62475     -620.91149      3840.7412      0.99696119
    461000  -1337.4938      207.883       -1545.3768      273.49192     -1199.1939      3840.7412      0.99696119
    462000  -1313.6615      239.7466      -1553.4081      315.41182     -371.40811      3840.7412      0.99696119
    463000  -1321.5282      224.04394     -1545.5722      294.75333      437.62757      3840.7412      0.99696119
    464000  -1335.8286      224.1504      -1559.979       294.89339     -672.42277      3840.7412      0.99696119
    465000  -1310.4808      216.29001     -1526.7708      284.55222      1039.7581      3840.7412      0.99696119
    466000  -1338.3516      211.94716     -1550.2988      278.83875     -42.156149      3840.7412      0.99696119
    467000  -1340.8621      222.09076     -1562.9529      292.18372      348.41597      3840.7412      0.99696119
    468000  -1350.097       223.68546     -1573.7824      294.28171     -408.25711      3840.7412      0.99696119
    469000  -1353.6561      228.43756     -1582.0936      300.53359      1137.1422      3840.7412      0.99696119
    470000  -1375.5181      220.40823     -1595.9263      289.97017     -469.13168      3840.7412      0.99696119
    471000  -1329.0162      232.45549     -1561.4716      305.81961     -1771.8521      3840.7412      0.99696119
    472000  -1318.388       231.27815     -1549.6661      304.27069     -1073.1372      3840.7412      0.99696119
    473000  -1364.0592      230.79814     -1594.8573      303.63918     -1957.3279      3840.7412      0.99696119
    474000  -1316.957       227.95984     -1544.9169      299.90511      320.25579      3840.7412      0.99696119
    475000  -1277.8431      250.50424     -1528.3473      329.56463     -894.77591      3840.7412      0.99696119
    476000  -1371.7603      216.70989     -1588.4702      285.10462      563.08045      3840.7412      0.99696119
    477000  -1332.8069      212.99652     -1545.8034      280.21929     -1165.0797      3840.7412      0.99696119
    478000  -1384.9681      213.61502     -1598.5831      281.03298     -2201.254       3840.7412      0.99696119
    479000  -1339.6032      240.90566     -1580.5088      316.93669     -738.40257      3840.7412      0.99696119
    480000  -1395.8218      228.05766     -1623.8794      300.03379      988.8          3840.7412      0.99696119
    481000  -1365.6791      220.49995     -1586.1791      290.09083     -1167.7378      3840.7412      0.99696119
    482000  -1327.5787      233.58635     -1561.165       307.30737     -1209.3663      3840.7412      0.99696119
    483000  -1335.111       235.16979     -1570.2808      309.39056     -758.89796      3840.7412      0.99696119
    484000  -1358.0291      220.05651     -1578.0856      289.50745     -1237.5094      3840.7412      0.99696119
    485000  -1343.2126      238.03941     -1581.252       313.16584      22.079744      3840.7412      0.99696119
    486000  -1384.2423      215.19068     -1599.433       283.10594      1546.2818      3840.7412      0.99696119
    487000  -1360.937       220.53392     -1581.471       290.13553     -1752.7109      3840.7412      0.99696119
    488000  -1345.2703      230.50384     -1575.7742      303.252       -1523.0347      3840.7412      0.99696119
    489000  -1356.994       215.73498     -1572.729       283.82202     -1312.5599      3840.7412      0.99696119
    490000  -1336.3959      237.78447     -1574.1804      312.83044      959.30363      3840.7412      0.99696119
    491000  -1335.8626      226.26679     -1562.1294      297.67773     -559.02058      3840.7412      0.99696119
    492000  -1324.6516      227.97127     -1552.6229      299.92015     -362.40765      3840.7412      0.99696119
    493000  -1351.6665      211.25431     -1562.9208      277.92723     -1972.0739      3840.7412      0.99696119
    494000  -1350.5155      228.62036     -1579.1359      300.77409     -2170.0292      3840.7412      0.99696119
    495000  -1311.988       238.73758     -1550.7256      314.08435     -1264.0516      3840.7412      0.99696119
    496000  -1344.6032      212.42205     -1557.0252      279.46351     -116.70428      3840.7412      0.99696119
    497000  -1349.8257      223.47218     -1573.2979      294.00112     -1919.8183      3840.7412      0.99696119
    498000  -1320.5931      235.26409     -1555.8572      309.51461     -530.48776      3840.7412      0.99696119
    499000  -1360.1435      216.87605     -1577.0196      285.32322      892.17645      3840.7412      0.99696119
    500000  -1319.6695      233.86061     -1553.5301      307.66819     -332.39488      3840.7412      0.99696119
    501000  -1331.374       230.78872     -1562.1627      303.62679     -2029.7022      3840.7412      0.99696119
    502000  -1308.221       235.66171     -1543.8827      310.03773     -688.36526      3840.7412      0.99696119
    503000  -1344.6089      232.09618     -1576.7051      305.34689     -737.74912      3840.7412      0.99696119
    504000  -1336.4969      227.15299     -1563.6499      298.84361      0.84754217     3840.7412      0.99696119
    505000  -1331.9139      220.71188     -1552.6258      290.36965      740.14486      3840.7412      0.99696119
    506000  -1342.1891      217.9681      -1560.1572      286.75992     -622.59741      3840.7412      0.99696119
    507000  -1341.4563      222.1673      -1563.6236      292.28441     -726.34415      3840.7412      0.99696119
    508000  -1365.7543      222.76242     -1588.5168      293.06736      2683.1075      3840.7412      0.99696119
    509000  -1344.9679      227.22681     -1572.1947      298.94072      1161.9946      3840.7412      0.99696119
    510000  -1304.679       259.7329      -1564.4119      341.70591     -2320.3176      3840.7412      0.99696119
    511000  -1345.7607      221.35094     -1567.1116      291.2104      -1275.977       3840.7412      0.99696119
    512000  -1333.8592      225.37329     -1559.2325      296.50223     -1393.6971      3840.7412      0.99696119
    513000  -1320.2661      216.73698     -1537.0031      285.14025     -176.73179      3840.7412      0.99696119
    514000  -1367.8123      212.84945     -1580.6617      280.0258      -814.58944      3840.7412      0.99696119
    515000  -1353.7774      229.25741     -1583.0348      301.6122      -315.70632      3840.7412      0.99696119
    516000  -1289.5418      226.65391     -1516.1957      298.18702      1134.9502      3840.7412      0.99696119
    517000  -1343.7854      227.9611      -1571.7465      299.90676      1279.8133      3840.7412      0.99696119
    518000  -1336.2094      221.11892     -1557.3283      290.90516      1636.1964      3840.7412      0.99696119
    519000  -1344.2         210.10252     -1554.3025      276.41192      155.92078      3840.7412      0.99696119
    520000  -1306.4458      225.02316     -1531.469       296.0416      -600.49681      3840.7412      0.99696119
    521000  -1335.5139      233.41151     -1568.9254      307.07735      173.08342      3840.7412      0.99696119
    522000  -1393.7914      206.90105     -1600.6924      272.20006     -999.36376      3840.7412      0.99696119
    523000  -1288.3815      260.09183     -1548.4734      342.17811     -297.30453      3840.7412      0.99696119
    524000  -1311.4798      246.55193     -1558.0317      324.36495      1417.2615      3840.7412      0.99696119
    525000  -1314.2224      250.6506      -1564.873       329.75718     -232.89189      3840.7412      0.99696119
    526000  -1352.8861      214.14502     -1567.0311      281.73027      408.30629      3840.7412      0.99696119
    527000  -1327.5334      219.27492     -1546.8083      288.47919     -904.59575      3840.7412      0.99696119
    528000  -1359.6375      201.35305     -1560.9906      264.90108     -1952.7507      3840.7412      0.99696119
    529000  -1311.0638      236.90034     -1547.9641      311.66728     -844.07346      3840.7412      0.99696119
    530000  -1324.7096      221.02214     -1545.7318      290.77784     -150.81405      3840.7412      0.99696119
    531000  -1365.8659      223.17797     -1589.0438      293.61406     -724.68216      3840.7412      0.99696119
    532000  -1321.3036      233.45419     -1554.7578      307.1335       1051.1673      3840.7412      0.99696119
    533000  -1342.9371      206.4014      -1549.3385      271.54272      134.39725      3840.7412      0.99696119
    534000  -1339.5113      223.87287     -1563.3842      294.52827      996.9094       3840.7412      0.99696119
    535000  -1352.4652      226.9996      -1579.4648      298.6418      -805.37468      3840.7412      0.99696119
    536000  -1347.2015      206.69786     -1553.8994      271.93274      170.67539      3840.7412      0.99696119
    537000  -1352.7939      221.64168     -1574.4356      291.59291      894.06839      3840.7412      0.99696119
    538000  -1322.7392      241.41729     -1564.1565      317.60979      1053.3938      3840.7412      0.99696119
    539000  -1342.9151      240.03692     -1582.952       315.79378     -94.787349      3840.7412      0.99696119
    540000  -1345.2957      213.37204     -1558.6677      280.71333     -196.48461      3840.7412      0.99696119
    541000  -1316.9186      225.9091      -1542.8277      297.20714     -1188.9984      3840.7412      0.99696119
    542000  -1330.2194      222.11122     -1552.3306      292.21063     -311.29748      3840.7412      0.99696119
    543000  -1313.6733      225.05292     -1538.7262      296.08075      72.28913       3840.7412      0.99696119
    544000  -1320.378       237.20345     -1557.5814      312.06604     -736.711        3840.7412      0.99696119
    545000  -1297.4173      233.48803     -1530.9054      307.17802      862.31082      3840.7412      0.99696119
    546000  -1337.176       221.90906     -1559.085       291.94467     -682.92945      3840.7412      0.99696119
    547000  -1357.4149      228.34033     -1585.7553      300.40568     -3008.129       3840.7412      0.99696119
    548000  -1348.0342      229.45656     -1577.4908      301.8742      -320.04446      3840.7412      0.99696119
    549000  -1334.3424      243.63769     -1577.9801      320.53096      748.35926      3840.7412      0.99696119
    550000  -1371.9275      223.1669      -1595.0944      293.59949     -1141.7347      3840.7412      0.99696119
    551000  -1333.7568      226.04092     -1559.7977      297.38056      479.86201      3840.7412      0.99696119
    552000  -1324.6866      229.92655     -1554.6131      302.49252      132.80087      3840.7412      0.99696119
    553000  -1342.1217      210.02927     -1552.151       276.31555     -1304.8449      3840.7412      0.99696119
    554000  -1338.024       228.71143     -1566.7354      300.89391     -371.33755      3840.7412      0.99696119
    555000  -1342.8726      237.01715     -1579.8897      311.82095     -621.72303      3840.7412      0.99696119
    556000  -1348.8623      222.94819     -1571.8105      293.31176     -1845.1324      3840.7412      0.99696119
    557000  -1363.7177      226.59155     -1590.3093      298.10498     -553.65481      3840.7412      0.99696119
    558000  -1309.5632      234.64031     -1544.2035      308.69397     -1517.7388      3840.7412      0.99696119
    559000  -1342.4382      222.37571     -1564.8139      292.55859     -885.75579      3840.7412      0.99696119
    560000  -1351.0416      233.87981     -1584.9214      307.69345     -1232.5138      3840.7412      0.99696119
    561000  -1343.1794      216.0337      -1559.2131      284.21502     -250.01348      3840.7412      0.99696119
    562000  -1350.2989      231.24529     -1581.5442      304.22746     -1359.0958      3840.7412      0.99696119
    563000  -1333.7855      223.90957     -1557.6951      294.57656     -473.73462      3840.7412      0.99696119
    564000  -1359.3155      212.4552      -1571.7707      279.50713      3243.5097      3840.7412      0.99696119
    565000  -1388.0889      210.79556     -1598.8844      277.3237       1114.8842      3840.7412      0.99696119
    566000  -1339.9874      250.37316     -1590.3606      329.39218     -614.08965      3840.7412      0.99696119
    567000  -1314.8861      252.18892     -1567.075       331.78101     -1087.6821      3840.7412      0.99696119
    568000  -1385.3688      188.8957      -1574.2645      248.51213     -92.926655      3840.7412      0.99696119
    569000  -1337.4648      230.39987     -1567.8647      303.11522      308.7613       3840.7412      0.99696119
    570000  -1320.6469      232.03285     -1552.6798      305.26358     -616.18954      3840.7412      0.99696119
    571000  -1360.5442      213.80576     -1574.3499      281.28393     -387.63211      3840.7412      0.99696119
    572000  -1315.8891      239.9598      -1555.8489      315.69231     -473.41784      3840.7412      0.99696119
    573000  -1355.5462      218.94848     -1574.4946      288.04972      26.612908      3840.7412      0.99696119
    574000  -1295.877       254.97288     -1550.8499      335.4436       277.38094      3840.7412      0.99696119
    575000  -1332.2381      232.97973     -1565.2179      306.5093      -1914.849       3840.7412      0.99696119
    576000  -1345.3824      228.71712     -1574.0995      300.90138      1254.444       3840.7412      0.99696119
    577000  -1326.5662      225.60761     -1552.1738      296.8105      -1384.0824      3840.7412      0.99696119
    578000  -1320.776       233.82575     -1554.6017      307.62233     -608.07563      3840.7412      0.99696119
    579000  -1339.5074      232.31554     -1571.8229      305.63549     -391.79162      3840.7412      0.99696119
    580000  -1324.3152      232.31662     -1556.6318      305.63691      920.71243      3840.7412      0.99696119
    581000  -1342.0868      219.4128      -1561.4996      288.66057     -114.09578      3840.7412      0.99696119
    582000  -1306.3138      238.25158     -1544.5654      313.44497      1390.7124      3840.7412      0.99696119
    583000  -1341.0274      230.4221      -1571.4495      303.14447      352.66635      3840.7412      0.99696119
    584000  -1348.2008      225.70278     -1573.9036      296.93571      737.67333      3840.7412      0.99696119
    585000  -1331.8032      226.89491     -1558.6981      298.50409     -2782.192       3840.7412      0.99696119
    586000  -1332.2584      224.23228     -1556.4907      295.00112     -1605.903       3840.7412      0.99696119
    587000  -1339.645       222.11543     -1561.7604      292.21617     -3160.7685      3840.7412      0.99696119
    588000  -1335.5854      233.98037     -1569.5658      307.82575     -240.18337      3840.7412      0.99696119
    589000  -1348.6725      204.18357     -1552.8561      268.62492      205.32368      3840.7412      0.99696119
    590000  -1315.5269      243.37007     -1558.8969      320.17888     -679.84584      3840.7412      0.99696119
    591000  -1357.8469      229.78722     -1587.6342      302.30921     -11.207781      3840.7412      0.99696119
    592000  -1339.2385      244.86192     -1584.1004      322.14156      136.66325      3840.7412      0.99696119
    593000  -1354.0083      226.76661     -1580.7749      298.33529     -676.03141      3840.7412      0.99696119
    594000  -1357.1786      218.11028     -1575.2889      286.94697     -1172.7592      3840.7412      0.99696119
    595000  -1336.6407      233.98821     -1570.6289      307.83606     -1610.9302      3840.7412      0.99696119
    596000  -1297.4041      252.22308     -1549.6272      331.82595     -114.72805      3840.7412      0.99696119
    597000  -1335.5529      222.73982     -1558.2927      293.03762     -203.38278      3840.7412      0.99696119
    598000  -1324.0575      233.3987      -1557.4562      307.0605      -752.48475      3840.7412      0.99696119
    599000  -1342.4225      211.68955     -1554.1121      278.49983     -1815.304       3840.7412      0.99696119
    600000  -1320.0069      235.48635     -1555.4932      309.80702     -682.26113      3840.7412      0.99696119
    601000  -1333.1447      228.69285     -1561.8376      300.86945     -569.13664      3840.7412      0.99696119
    602000  -1303.6231      246.55843     -1550.1815      324.37351     -1241.6654      3840.7412      0.99696119
    603000  -1327.7002      216.62882     -1544.329       284.99796     -1695.0232      3840.7412      0.99696119
    604000  -1351.0381      220.43583     -1571.474       290.00649      291.40288      3840.7412      0.99696119
    605000  -1338.9129      199.63599     -1538.5489      262.64211     -1772.6432      3840.7412      0.99696119
    606000  -1346.1343      232.3936      -1578.5279      305.73818     -875.29237      3840.7412      0.99696119
    607000  -1312.1749      247.22401     -1559.3989      325.24914      10.617431      3840.7412      0.99696119
    608000  -1312.5058      226.65442     -1539.1602      298.18769     -1214.0492      3840.7412      0.99696119
    609000  -1365.4453      217.75205     -1583.1974      286.47569     -2250.0945      3840.7412      0.99696119
    610000  -1325.5682      236.28349     -1561.8517      310.85575     -1124.4534      3840.7412      0.99696119
    611000  -1363.4278      218.02306     -1581.4508      286.83224      543.15835      3840.7412      0.99696119
    612000  -1326.2859      252.13367     -1578.4196      331.70832     -342.13886      3840.7412      0.99696119
    613000  -1360.7999      218.27383     -1579.0737      287.16215     -2481.2763      3840.7412      0.99696119
    614000  -1341.3138      234.06859     -1575.3824      307.94181      569.63275      3840.7412      0.99696119
    615000  -1345.4726      229.20413     -1574.6767      301.5421      -614.05636      3840.7412      0.99696119
    616000  -1345.3916      208.20999     -1553.6016      273.9221       1722.1314      3840.7412      0.99696119
    617000  -1333.4507      218.2087      -1551.6594      287.07646     -906.03622      3840.7412      0.99696119
    618000  -1338.0514      228.65077     -1566.7022      300.81409      27.856692      3840.7412      0.99696119
    619000  -1332.0228      224.19767     -1556.2204      294.95557      269.81246      3840.7412      0.99696119
    620000  -1354.9541      215.92252     -1570.8766      284.06875      1240.7115      3840.7412      0.99696119
    621000  -1316.7359      234.671       -1551.4069      308.73434     -922.02436      3840.7412      0.99696119
    622000  -1330.7806      225.39421     -1556.1748      296.52975      71.884037      3840.7412      0.99696119
    623000  -1309.9065      214.95587     -1524.8623      282.79702      2462.5256      3840.7412      0.99696119
    624000  -1351.5412      191.91941     -1543.4607      252.49014     -1315.8358      3840.7412      0.99696119
    625000  -1353.7102      196.43147     -1550.1416      258.42622     -138.4795       3840.7412      0.99696119
    626000  -1339.4841      249.73921     -1589.2234      328.55815     -562.7294       3840.7412      0.99696119
    627000  -1366.827       215.28329     -1582.1103      283.22777     -546.85218      3840.7412      0.99696119
    628000  -1351.4854      222.08916     -1573.5746      292.18161      90.402611      3840.7412      0.99696119
    629000  -1343.3883      224.15225     -1567.5406      294.89582     -978.98056      3840.7412      0.99696119
    630000  -1342.1184      230.90439     -1573.0228      303.77897     -611.62059      3840.7412      0.99696119
    631000  -1319.2993      240.33868     -1559.638       316.19077      549.52462      3840.7412      0.99696119
    632000  -1314.4219      241.47849     -1555.9004      317.69031     -380.1925       3840.7412      0.99696119
    633000  -1378.9008      211.78131     -1590.6821      278.62056     -92.892674      3840.7412      0.99696119
    634000  -1351.3148      219.25623     -1570.5711      288.4546      -1228.7832      3840.7412      0.99696119
    635000  -1323.2281      233.26631     -1556.4944      306.88632     -899.8653       3840.7412      0.99696119
    636000  -1311.5395      208.17854     -1519.718       273.88073      571.65689      3840.7412      0.99696119
    637000  -1327.2777      229.62881     -1556.9065      302.10082     -630.89947      3840.7412      0.99696119
    638000  -1324.5962      230.55228     -1555.1484      303.31573      400.84323      3840.7412      0.99696119
    639000  -1354.0988      226.75101     -1580.8498      298.31476     -970.06637      3840.7412      0.99696119
    640000  -1318.2299      222.53469     -1540.7646      292.76775      472.10678      3840.7412      0.99696119
    641000  -1322.522       220.96045     -1543.4824      290.69668     -1238.0941      3840.7412      0.99696119
    642000  -1352.3684      215.56743     -1567.9358      283.60159     -1433.5329      3840.7412      0.99696119
    643000  -1352.3881      236.21288     -1588.6009      310.76285     -274.72419      3840.7412      0.99696119
    644000  -1364.4266      214.86447     -1579.2911      282.67678      516.99065      3840.7412      0.99696119
    645000  -1393.0324      211.95082     -1604.9832      278.84356      516.56267      3840.7412      0.99696119
    646000  -1295.5927      252.64055     -1548.2332      332.37518      1643.1587      3840.7412      0.99696119
    647000  -1322.2219      222.89735     -1545.1193      293.24487      40.13435       3840.7412      0.99696119
    648000  -1338.2053      224.24682     -1562.4521      295.02024     -801.46586      3840.7412      0.99696119
    649000  -1357.7899      223.8114      -1581.6012      294.44739     -995.13293      3840.7412      0.99696119
    650000  -1354.1417      219.40257     -1573.5443      288.64711      70.863084      3840.7412      0.99696119
    651000  -1313.1466      236.46528     -1549.6118      311.0949      -1088.2804      3840.7412      0.99696119
    652000  -1316.3142      242.83069     -1559.1449      319.46927     -259.35754      3840.7412      0.99696119
    653000  -1355.2338      229.42979     -1584.6636      301.83898     -1682.6285      3840.7412      0.99696119
    654000  -1366.1597      212.59994     -1578.7596      279.69755     -857.18123      3840.7412      0.99696119
    655000  -1353.7513      204.4348      -1558.1861      268.95545     -1493.5389      3840.7412      0.99696119
    656000  -1351.3022      240.53557     -1591.8378      316.4498      -181.49224      3840.7412      0.99696119
    657000  -1369.0377      220.02137     -1589.0591      289.46122     -256.79366      3840.7412      0.99696119
    658000  -1332.9083      243.79689     -1576.7052      320.7404       315.11741      3840.7412      0.99696119
    659000  -1375.2537      219.53651     -1594.7902      288.82333      265.3314       3840.7412      0.99696119
    660000  -1393.2173      206.28392     -1599.5012      271.38815     -216.96522      3840.7412      0.99696119
    661000  -1324.2508      231.5488      -1555.7996      304.62677     -54.628178      3840.7412      0.99696119
    662000  -1333.5293      222.56858     -1556.0979      292.81234     -1826.8284      3840.7412      0.99696119
    663000  -1354.5513      204.726       -1559.2773      269.33855     -224.9548       3840.7412      0.99696119
    664000  -1344.4453      231.06002     -1575.5053      303.98372     -347.68172      3840.7412      0.99696119
    665000  -1355.8934      225.26361     -1581.1571      296.35793      1650.4922      3840.7412      0.99696119
    666000  -1321.3558      233.11785     -1554.4736      306.69101     -1127.4186      3840.7412      0.99696119
    667000  -1338.1805      213.99271     -1552.1732      281.52988      805.48071      3840.7412      0.99696119
    668000  -1343.4022      231.91816     -1575.3203      305.11269      815.66713      3840.7412      0.99696119
    669000  -1369.2042      236.16452     -1605.3687      310.69923     -162.72816      3840.7412      0.99696119
    670000  -1362.2249      217.72657     -1579.9515      286.44216     -970.13844      3840.7412      0.99696119
    671000  -1372.1701      203.02043     -1575.1905      267.09469     -595.29272      3840.7412      0.99696119
    672000  -1324.4923      240.83608     -1565.3284      316.84515      2371.7026      3840.7412      0.99696119
    673000  -1333.2109      238.38831     -1571.5992      313.62486     -551.20312      3840.7412      0.99696119
    674000  -1334.1987      227.91237     -1562.111       299.84266     -2229.7171      3840.7412      0.99696119
    675000  -1361.404       211.93878     -1573.3428      278.82772     -1232.0194      3840.7412      0.99696119
    676000  -1349.6834      202.95538     -1552.6388      267.00911     -850.94666      3840.7412      0.99696119
    677000  -1338.3862      213.95345     -1552.3397      281.47823     -1211.685       3840.7412      0.99696119
    678000  -1314.7509      240.13841     -1554.8893      315.9273      -418.61874      3840.7412      0.99696119
    679000  -1351.5547      219.95525     -1571.5099      289.37423      977.35555      3840.7412      0.99696119
    680000  -1319.0615      239.65046     -1558.712       315.28534      780.70787      3840.7412      0.99696119
    681000  -1371.5423      223.53742     -1595.0798      294.08695     -1735.3238      3840.7412      0.99696119
    682000  -1363.1632      227.02541     -1590.1887      298.67577     -1446.4856      3840.7412      0.99696119
    683000  -1356.5067      219.08539     -1575.5921      288.22983     -2217.1316      3840.7412      0.99696119
    684000  -1380.2805      210.94282     -1591.2233      277.51744     -1342.6601      3840.7412      0.99696119
    685000  -1374.8709      234.82073     -1609.6917      308.93133     -269.11879      3840.7412      0.99696119
    686000  -1328.084       238.40185     -1566.4859      313.64267      283.07911      3840.7412      0.99696119
    687000  -1335.1704      220.52683     -1555.6972      290.1262      -2371.8868      3840.7412      0.99696119
    688000  -1344.9412      236.30632     -1581.2476      310.88578     -170.07794      3840.7412      0.99696119
    689000  -1345.1487      229.15646     -1574.3052      301.47939     -1145.7701      3840.7412      0.99696119
    690000  -1355.6204      216.76833     -1572.3887      285.1815      -1000.8554      3840.7412      0.99696119
    691000  -1344.9574      229.71161     -1574.6691      302.20974     -190.90849      3840.7412      0.99696119
    692000  -1381.2547      222.6725      -1603.9272      292.94905     -928.17609      3840.7412      0.99696119
    693000  -1340.5352      234.53235     -1575.0676      308.55194     -511.24707      3840.7412      0.99696119
    694000  -1369.221       209.75073     -1578.9717      275.94911      1755.8918      3840.7412      0.99696119
    695000  -1363.3465      239.59952     -1602.9461      315.21833      161.55796      3840.7412      0.99696119
    696000  -1382.5388      223.65828     -1606.1971      294.24596     -603.61354      3840.7412      0.99696119
    697000  -1403.8833      210.81005     -1614.6934      277.34275     -1450.0431      3840.7412      0.99696119
    698000  -1354.63        227.4916      -1582.1216      299.28909     -514.12219      3840.7412      0.99696119
    699000  -1366.3503      206.12893     -1572.4792      271.18425      321.71707      3840.7412      0.99696119
    700000  -1349.5921      232.89301     -1582.4851      306.39521     -244.10327      3840.7412      0.99696119
    701000  -1332.5643      236.34296     -1568.9073      310.93399     -313.73472      3840.7412      0.99696119
    702000  -1306.257       223.10117     -1529.3582      293.51302      657.28319      3840.7412      0.99696119
    703000  -1301.8822      233.76116     -1535.6433      307.53735     -1634.41        3840.7412      0.99696119
    704000  -1353.3025      211.25678     -1564.5593      277.93047     -2424.8688      3840.7412      0.99696119
    705000  -1329.6226      223.3073      -1552.9299      293.7842       1397.7182      3840.7412      0.99696119
    706000  -1377.1547      210.59074     -1587.7455      277.05424     -2406.7735      3840.7412      0.99696119
    707000  -1329.307       230.43262     -1559.7396      303.15831     -773.66237      3840.7412      0.99696119
    708000  -1385.7517      204.65561     -1590.4073      269.24595     -1640.3105      3840.7412      0.99696119
    709000  -1332.4286      229.71547     -1562.1441      302.21482     -873.62341      3840.7412      0.99696119
    710000  -1317.8559      216.20171     -1534.0576      284.43606      236.88648      3840.7412      0.99696119
    711000  -1353.0394      220.63225     -1573.6716      290.26489     -522.41321      3840.7412      0.99696119
    712000  -1337.2457      233.69144     -1570.9372      307.44562     -666.49866      3840.7412      0.99696119
    713000  -1359.4134      220.65335     -1580.0668      290.29265     -442.34752      3840.7412      0.99696119
    714000  -1332.7924      236.93241     -1569.7248      311.70946      1083.2622      3840.7412      0.99696119
    715000  -1372.2349      210.62414     -1582.859       277.09818      1405.3619      3840.7412      0.99696119
    716000  -1328.3659      213.60799     -1541.9738      281.02374      467.27898      3840.7412      0.99696119
    717000  -1306.7077      246.79614     -1553.5039      324.68624      335.54465      3840.7412      0.99696119
    718000  -1323.2963      232.18424     -1555.4806      305.46275     -11.750678      3840.7412      0.99696119
    719000  -1353.7239      230.32958     -1584.0535      303.02275     -773.51113      3840.7412      0.99696119
    720000  -1367.2351      204.64655     -1571.8816      269.23402     -1409.7915      3840.7412      0.99696119
    721000  -1342.5619      223.92879     -1566.4906      294.60184     -1382.1842      3840.7412      0.99696119
    722000  -1379.8635      235.60868     -1615.4722      309.96796     -1059.5266      3840.7412      0.99696119
    723000  -1344.798       209.56541     -1554.3634      275.70531     -1943.1034      3840.7412      0.99696119
    724000  -1328.4559      218.14008     -1546.596       286.98618      190.45146      3840.7412      0.99696119
    725000  -1339.3948      234.94625     -1574.3411      309.09647     -328.48202      3840.7412      0.99696119
    726000  -1338.4221      239.01299     -1577.4351      314.44669      2199.3165      3840.7412      0.99696119
    727000  -1368.2346      219.90939     -1588.144       289.3139      -1006.6966      3840.7412      0.99696119
    728000  -1354.6981      232.69906     -1587.3972      306.14005     -197.8366       3840.7412      0.99696119
    729000  -1321.8997      239.0492      -1560.9489      314.49433      241.26651      3840.7412      0.99696119
    730000  -1324.0633      222.68607     -1546.7493      292.96691     -1538.6266      3840.7412      0.99696119
    731000  -1345.5261      229.41971     -1574.9458      301.82572     -1283.6122      3840.7412      0.99696119
    732000  -1317.6089      229.77266     -1547.3816      302.29007     -712.68401      3840.7412      0.99696119
    733000  -1328.4015      220.77206     -1549.1736      290.44882     -473.74053      3840.7412      0.99696119
    734000  -1354.9352      218.11686     -1573.052       286.95564     -792.96913      3840.7412      0.99696119
    735000  -1337.9674      236.66719     -1574.6346      311.36054      1026.8142      3840.7412      0.99696119
    736000  -1313.8757      250.45744     -1564.3332      329.50307     -1907.874       3840.7412      0.99696119
    737000  -1329.9453      238.87585     -1568.8211      314.26626     -478.64035      3840.7412      0.99696119
    738000  -1354.2015      237.85334     -1592.0548      312.92104     -673.52796      3840.7412      0.99696119
    739000  -1368.0606      210.4753      -1578.5359      276.90236     -931.42491      3840.7412      0.99696119
    740000  -1331.4492      224.97097     -1556.4201      295.97294     -536.2889       3840.7412      0.99696119
    741000  -1339.5543      227.07017     -1566.6244      298.73465     -2618.9088      3840.7412      0.99696119
    742000  -1373.6841      196.93453     -1570.6186      259.08805     -1594.5729      3840.7412      0.99696119
    743000  -1323.2553      218.76784     -1542.0232      287.81206     -658.3524       3840.7412      0.99696119
    744000  -1339.4802      226.86071     -1566.341       298.45909     -77.445565      3840.7412      0.99696119
    745000  -1326.9994      232.30717     -1559.3066      305.62447     -669.97248      3840.7412      0.99696119
    746000  -1354.6629      228.39641     -1583.0593      300.47946     -1804.7532      3840.7412      0.99696119
    747000  -1346.9461      235.96356     -1582.9097      310.43484     -968.31716      3840.7412      0.99696119
    748000  -1353.6119      225.81576     -1579.4276      297.08434     -927.83149      3840.7412      0.99696119
    749000  -1364.4695      225.98294     -1590.4525      297.30428      753.03131      3840.7412      0.99696119
    750000  -1314.8026      236.36119     -1551.1638      310.95797     -2575.4279      3840.7412      0.99696119
    751000  -1317.0638      218.54711     -1535.6109      287.52167     -177.90469      3840.7412      0.99696119
    752000  -1343.4883      212.84285     -1556.3311      280.01711     -371.39542      3840.7412      0.99696119
    753000  -1359.5941      222.39121     -1581.9853      292.57899     -2463.3608      3840.7412      0.99696119
    754000  -1336.4791      235.46414     -1571.9433      309.7778      -639.65691      3840.7412      0.99696119
    755000  -1355.1667      225.9331      -1581.0998      297.23872     -2057.3386      3840.7412      0.99696119
    756000  -1330.3074      234.68184     -1564.9892      308.7486      -67.303601      3840.7412      0.99696119
    757000  -1325.771       238.39873     -1564.1697      313.63856     -687.99589      3840.7412      0.99696119
    758000  -1335.6465      240.92466     -1576.5712      316.96169     -1569.3025      3840.7412      0.99696119
    759000  -1325.0812      227.11432     -1552.1956      298.79274     -1950.4187      3840.7412      0.99696119
    760000  -1339.5598      216.87511     -1556.4349      285.32199     -233.59818      3840.7412      0.99696119
    761000  -1332.5515      229.86332     -1562.4148      302.40934     -352.08136      3840.7412      0.99696119
    762000  -1332.3363      200.96209     -1533.2984      264.38674     -1392.4225      3840.7412      0.99696119
    763000  -1321.9938      216.68318     -1538.6769      285.06948     -1034.3026      3840.7412      0.99696119
    764000  -1297.178       237.86721     -1535.0452      312.93929      165.51861      3840.7412      0.99696119
    765000  -1339.8825      226.94812     -1566.8306      298.57408     -1755.2504      3840.7412      0.99696119
    766000  -1339.5583      228.35932     -1567.9176      300.43066     -1012.6491      3840.7412      0.99696119
    767000  -1312.8145      223.76167     -1536.5761      294.38197     -566.24883      3840.7412      0.99696119
    768000  -1323.8056      223.66041     -1547.4661      294.24875     -1650.0803      3840.7412      0.99696119
    769000  -1358.3118      220.38852     -1578.7003      289.94424     -484.8691       3840.7412      0.99696119
    770000  -1341.9599      227.31917     -1569.279       299.06224     -647.61638      3840.7412      0.99696119
    771000  -1352.7075      225.54645     -1578.254       296.73004     -240.97658      3840.7412      0.99696119
    772000  -1358.9876      215.64916     -1574.6368      283.70911     -1830.7216      3840.7412      0.99696119
    773000  -1324.4971      228.99416     -1553.4913      301.26586     -628.39354      3840.7412      0.99696119
    774000  -1301.9634      229.09681     -1531.0602      301.40092     -572.33522      3840.7412      0.99696119
    775000  -1315.6722      228.65264     -1544.3248      300.81655      935.61795      3840.7412      0.99696119
    776000  -1327.4831      221.16826     -1548.6513      290.97007     -2395.4239      3840.7412      0.99696119
    777000  -1324.7633      208.9848      -1533.7481      274.94145     -1758.405       3840.7412      0.99696119
    778000  -1304.6157      237.41556     -1542.0313      312.3451      -1941.1885      3840.7412      0.99696119
    779000  -1354.1989      201.95375     -1556.1527      265.69137     -2890.1022      3840.7412      0.99696119
    780000  -1327.0921      220.62535     -1547.7174      290.25581     -39.560413      3840.7412      0.99696119
    781000  -1324.6272      248.41294     -1573.0401      326.81331      2193.3006      3840.7412      0.99696119
    782000  -1378.9291      218.96534     -1597.8944      288.07189     -1353.5937      3840.7412      0.99696119
    783000  -1354.5324      228.68759     -1583.22        300.86253     -2141.3761      3840.7412      0.99696119
    784000  -1320.7247      232.69227     -1553.417       306.13112      71.142344      3840.7412      0.99696119
    785000  -1345.2942      214.06943     -1559.3636      281.63081     -1026.8068      3840.7412      0.99696119
    786000  -1323.7881      253.44332     -1577.2315      333.4313      -151.48875      3840.7412      0.99696119
    787000  -1352.1406      227.48705     -1579.6277      299.2831      -2028.5211      3840.7412      0.99696119
    788000  -1320.0892      232.2484      -1552.3377      305.54716      716.17826      3840.7412      0.99696119
    789000  -1330.4129      225.69026     -1556.1032      296.91923      115.53372      3840.7412      0.99696119
    790000  -1334.1664      221.39147     -1555.5578      291.26372     -2735.3784      3840.7412      0.99696119
    791000  -1322.5805      234.92918     -1557.5097      309.074       -1182.184       3840.7412      0.99696119
    792000  -1374.0663      206.78393     -1580.8503      272.04597     -1168.0878      3840.7412      0.99696119
    793000  -1359.2558      220.49232     -1579.7481      290.0808       1887.5242      3840.7412      0.99696119
    794000  -1332.4114      231.55515     -1563.9666      304.63512     -5.6569213      3840.7412      0.99696119
    795000  -1366.1784      214.51627     -1580.6946      282.21868     -2065.0324      3840.7412      0.99696119
    796000  -1329.2735      223.4843      -1552.7578      294.01706     -720.21866      3840.7412      0.99696119
    797000  -1315.3882      230.58137     -1545.9695      303.35401     -63.394184      3840.7412      0.99696119
    798000  -1287.7272      227.18527     -1514.9125      298.88608      182.50798      3840.7412      0.99696119
    799000  -1336.038       235.12068     -1571.1587      309.32595      160.71592      3840.7412      0.99696119
    800000  -1356.82        216.61213     -1573.4321      284.97601     -3012.9439      3840.7412      0.99696119
    801000  -1352.4396      225.92997     -1578.3696      297.2346      -328.90293      3840.7412      0.99696119
    802000  -1327.8885      223.22124     -1551.1097      293.67098     -3348.2368      3840.7412      0.99696119
    803000  -1341.2032      236.4132      -1577.6164      311.02639     -1562.0891      3840.7412      0.99696119
    804000  -1323.3791      231.40236     -1554.7815      304.43411      1347.1046      3840.7412      0.99696119
    805000  -1357.0173      218.01252     -1575.0298      286.81837     -57.681087      3840.7412      0.99696119
    806000  -1354.9083      213.55266     -1568.4609      280.95095     -650.15667      3840.7412      0.99696119
    807000  -1344.9355      228.92705     -1573.8626      301.17758     -998.06297      3840.7412      0.99696119
    808000  -1312.0753      231.43176     -1543.507       304.47279     -1473.5619      3840.7412      0.99696119
    809000  -1360.1664      227.48611     -1587.6525      299.28187     -288.85812      3840.7412      0.99696119
    810000  -1320.4758      247.96827     -1568.4441      326.22829     -595.92604      3840.7412      0.99696119
    811000  -1340.6358      231.16506     -1571.8009      304.12191     -31.844662      3840.7412      0.99696119
    812000  -1347.0362      217.19164     -1564.2279      285.73841      2891.0135      3840.7412      0.99696119
    813000  -1385.692       221.79889     -1607.4909      291.79973     -2096.1321      3840.7412      0.99696119
    814000  -1347.3761      221.90383     -1569.2799      291.93778      418.5272       3840.7412      0.99696119
    815000  -1334.0883      226.88836     -1560.9767      298.49547     -899.86042      3840.7412      0.99696119
    816000  -1322.2997      228.13513     -1550.4348      300.13572     -703.57523      3840.7412      0.99696119
    817000  -1330.5221      236.24048     -1566.7626      310.79916     -478.93972      3840.7412      0.99696119
    818000  -1301.5808      241.55019     -1543.131       317.78464      1883.6437      3840.7412      0.99696119
    819000  -1349.1705      221.7688      -1570.9393      291.76014      112.08747      3840.7412      0.99696119
    820000  -1320.9034      234.08684     -1554.9902      307.96582     -181.15437      3840.7412      0.99696119
    821000  -1320.4206      233.35353     -1553.7741      307.00107     -1868.7909      3840.7412      0.99696119
    822000  -1308.5141      250.72445     -1559.2385      329.85434     -214.08017      3840.7412      0.99696119
    823000  -1380.0746      220.86821     -1600.9428      290.57532     -28.598426      3840.7412      0.99696119
    824000  -1344.3797      218.83856     -1563.2183      287.9051      -1376.3942      3840.7412      0.99696119
    825000  -1302.6811      245.09543     -1547.7765      322.44877      691.31289      3840.7412      0.99696119
    826000  -1311.4606      232.15577     -1543.6164      305.42529      735.19353      3840.7412      0.99696119
    827000  -1338.2413      234.58667     -1572.828       308.6234      -2450.3835      3840.7412      0.99696119
    828000  -1338.8501      233.49234     -1572.3424      307.18369     -1282.8173      3840.7412      0.99696119
    829000  -1309.4047      228.34901     -1537.7537      300.4171       838.27473      3840.7412      0.99696119
    830000  -1345.9779      216.08898     -1562.0669      284.28774      1093.1837      3840.7412      0.99696119
    831000  -1349.7831      208.74403     -1558.5271      274.62469     -860.14908      3840.7412      0.99696119
    832000  -1356.6142      227.58861     -1584.2028      299.41671     -704.30901      3840.7412      0.99696119
    833000  -1347.2032      221.56407     -1568.7673      291.4908      -2303.3898      3840.7412      0.99696119
    834000  -1366.5007      209.07464     -1575.5754      275.05964     -2683.1292      3840.7412      0.99696119
    835000  -1343.7558      215.56615     -1559.3219      283.59991     -1332.1928      3840.7412      0.99696119
    836000  -1347.4968      212.6468      -1560.1436      279.75919     -483.51993      3840.7412      0.99696119
    837000  -1342.8363      233.87102     -1576.7073      307.68188     -74.057803      3840.7412      0.99696119
    838000  -1312.6909      227.63542     -1540.3263      299.4783      -1715.5034      3840.7412      0.99696119
    839000  -1319.6111      251.69339     -1571.3045      331.12908      103.74387      3840.7412      0.99696119
    840000  -1338.3173      238.17062     -1576.4879      313.33846     -1350.8625      3840.7412      0.99696119
    841000  -1343.8924      223.01889     -1566.9113      293.40476      347.26087      3840.7412      0.99696119
    842000  -1364.1578      210.259       -1574.4168      276.6178      -1353.528       3840.7412      0.99696119
    843000  -1403.3982      193.63449     -1597.0327      254.74651     -459.51929      3840.7412      0.99696119
    844000  -1351.5087      233.21978     -1584.7285      306.82511     -1941.3498      3840.7412      0.99696119
    845000  -1325.1151      235.02922     -1560.1444      309.20562     -182.36916      3840.7412      0.99696119
    846000  -1315.9898      239.31448     -1555.3043      314.84332     -1132.3343      3840.7412      0.99696119
    847000  -1352.3469      219.09182     -1571.4388      288.2383       523.47316      3840.7412      0.99696119
    848000  -1357.1435      223.9228      -1581.0663      294.59396     -405.06638      3840.7412      0.99696119
    849000  -1358.2645      226.66426     -1584.9287      298.20064     -1643.0598      3840.7412      0.99696119
    850000  -1336.4524      226.65228     -1563.1047      298.18488     -1722.7339      3840.7412      0.99696119
    851000  -1300.9907      253.42222     -1554.413       333.40354     -983.869        3840.7412      0.99696119
    852000  -1328.9938      238.74828     -1567.742       314.09843     -1532.5145      3840.7412      0.99696119
    853000  -1347.0902      225.69344     -1572.7836      296.92341     -72.674897      3840.7412      0.99696119
    854000  -1335.3882      220.65622     -1556.0444      290.29643     -1409.1333      3840.7412      0.99696119
    855000  -1350.5687      228.21898     -1578.7877      300.24603      287.41969      3840.7412      0.99696119
    856000  -1366.214       211.17299     -1577.387       277.82024      665.93201      3840.7412      0.99696119
    857000  -1337.6503      216.37213     -1554.0224      284.66025     -1254.1434      3840.7412      0.99696119
    858000  -1336.9812      218.68053     -1555.6617      287.6972      -2740.7144      3840.7412      0.99696119
    859000  -1345.2105      229.65057     -1574.861       302.12944     -475.28409      3840.7412      0.99696119
    860000  -1378.8935      213.24147     -1592.135       280.54155     -921.23117      3840.7412      0.99696119
    861000  -1349.4122      233.87368     -1583.2859      307.68538     -994.92844      3840.7412      0.99696119
    862000  -1343.5848      237.41382     -1580.9986      312.34281     -1180.5851      3840.7412      0.99696119
    863000  -1327.0188      239.40979     -1566.4285      314.96871      70.709868      3840.7412      0.99696119
    864000  -1333.9805      227.41544     -1561.3959      299.1889       1194.0337      3840.7412      0.99696119
    865000  -1351.5017      205.30565     -1556.8073      270.10115     -1063.7569      3840.7412      0.99696119
    866000  -1325.5518      221.1636      -1546.7154      290.96394     -768.1525       3840.7412      0.99696119
    867000  -1323.9615      242.77369     -1566.7352      319.39428     -126.74715      3840.7412      0.99696119
    868000  -1364.4488      223.7219      -1588.1707      294.32966      426.76658      3840.7412      0.99696119
    869000  -1366.1167      215.9522      -1582.0689      284.1078      -1161.0123      3840.7412      0.99696119
    870000  -1367.3126      222.83963     -1590.1522      293.16893     -119.70418      3840.7412      0.99696119
    871000  -1293.514       246.17889     -1539.6929      323.87419     -1819.1422      3840.7412      0.99696119
    872000  -1300.0013      245.0365      -1545.0378      322.37125      1020.2769      3840.7412      0.99696119
    873000  -1324.8749      239.15959     -1564.0345      314.63956      623.7521       3840.7412      0.99696119
    874000  -1322.5789      222.45294     -1545.0318      292.6602       994.48091      3840.7412      0.99696119
    875000  -1362.2868      220.94301     -1583.2298      290.67373     -166.8209       3840.7412      0.99696119
    876000  -1373.5973      209.53835     -1583.1357      275.66971     -2504.088       3840.7412      0.99696119
    877000  -1350.4629      219.98074     -1570.4437      289.40777     -259.41725      3840.7412      0.99696119
    878000  -1374.6269      210.39026     -1585.0171      276.79048     -198.20156      3840.7412      0.99696119
    879000  -1354.1782      212.59325     -1566.7715      279.68874     -1819.3685      3840.7412      0.99696119
    880000  -1341.7378      211.75856     -1553.4963      278.59062      190.27058      3840.7412      0.99696119
    881000  -1373.3411      221.57716     -1594.9183      291.50802     -413.26338      3840.7412      0.99696119
    882000  -1330.4057      239.7817      -1570.1874      315.45801      72.242621      3840.7412      0.99696119
    883000  -1346.3177      231.39867     -1577.7163      304.42925      614.18393      3840.7412      0.99696119
    884000  -1314.6622      229.77895     -1544.4412      302.29833      291.68952      3840.7412      0.99696119
    885000  -1332.5746      227.39288     -1559.9674      299.15921     -2106.027       3840.7412      0.99696119
    886000  -1340.6896      220.19468     -1560.8843      289.68922     -450.09832      3840.7412      0.99696119
    887000  -1371.0348      225.24364     -1596.2785      296.33166      852.49538      3840.7412      0.99696119
    888000  -1339.3891      223.77296     -1563.1621      294.39682     -612.83605      3840.7412      0.99696119
    889000  -1344.6015      225.73111     -1570.3326      296.97298     -786.57969      3840.7412      0.99696119
    890000  -1318.1098      242.08282     -1560.1926      318.48537     -826.77217      3840.7412      0.99696119
    891000  -1329.8052      232.67259     -1562.4778      306.10523      104.0682       3840.7412      0.99696119
    892000  -1340.9139      233.46531     -1574.3792      307.14813      1749.221       3840.7412      0.99696119
    893000  -1362.3184      213.66934     -1575.9878      281.10446     -1709.1922      3840.7412      0.99696119
    894000  -1373.7427      203.68198     -1577.4247      267.96503     -1099.7452      3840.7412      0.99696119
    895000  -1320.9685      238.23723     -1559.2057      313.4261      -1264.1633      3840.7412      0.99696119
    896000  -1373.5991      200.28525     -1573.8843      263.49628     -1380.7037      3840.7412      0.99696119
    897000  -1329.716       228.21436     -1557.9304      300.23995     -1015.2196      3840.7412      0.99696119
    898000  -1317.3682      225.6277      -1542.9959      296.83693     -2319.9819      3840.7412      0.99696119
    899000  -1319.7465      251.89369     -1571.6402      331.3926      -1693.3584      3840.7412      0.99696119
    900000  -1311.1466      235.35743     -1546.504       309.63741     -787.15973      3840.7412      0.99696119
    901000  -1367.0197      228.42044     -1595.4402      300.51108     -737.3091       3840.7412      0.99696119
    902000  -1298.3601      218.75494     -1517.115       287.7951      -1872.748       3840.7412      0.99696119
    903000  -1277.655       238.59112     -1516.2461      313.89167     -1415.7588      3840.7412      0.99696119
    904000  -1321.4937      230.02659     -1551.5203      302.62414     -4593.7894      3840.7412      0.99696119
    905000  -1316.64        224.10204     -1540.742       294.82976     -1048.1943      3840.7412      0.99696119
    906000  -1350.2934      225.18011     -1575.4735      296.24808     -787.40499      3840.7412      0.99696119
    907000  -1318.0965      214.26933     -1532.3659      281.8938       673.5055       3840.7412      0.99696119
    908000  -1323.4453      226.23548     -1549.6808      297.63653     -321.36135      3840.7412      0.99696119
    909000  -1326.537       243.38282     -1569.9198      320.19565     -362.12559      3840.7412      0.99696119
    910000  -1311.7891      237.72275     -1549.5119      312.74924      564.54373      3840.7412      0.99696119
    911000  -1353.6539      230.43369     -1584.0875      303.15972     -645.71054      3840.7412      0.99696119
    912000  -1347.901       239.47562     -1587.3766      315.05532     -425.57785      3840.7412      0.99696119
    913000  -1328.6819      234.69905     -1563.3809      308.77124     -103.56935      3840.7412      0.99696119
    914000  -1322.922       229.48017     -1552.4022      301.90526     -900.23298      3840.7412      0.99696119
    915000  -1357.0239      221.72961     -1578.7535      291.70859      2030.7631      3840.7412      0.99696119
    916000  -1332.2582      234.09242     -1566.3506      307.97316      846.41013      3840.7412      0.99696119
    917000  -1354.5849      246.68347     -1601.2684      324.538       -641.35036      3840.7412      0.99696119
    918000  -1332.7089      219.94757     -1552.6564      289.36412      205.56099      3840.7412      0.99696119
    919000  -1373.9814      220.97127     -1594.9527      290.71091     -1492.2785      3840.7412      0.99696119
    920000  -1314.4658      232.11009     -1546.5759      305.3652       463.12574      3840.7412      0.99696119
    921000  -1328.7096      249.15539     -1577.865       327.79008     -337.69433      3840.7412      0.99696119
    922000  -1357.4862      219.44721     -1576.9334      288.70585      508.83169      3840.7412      0.99696119
    923000  -1377.7674      212.98213     -1590.7495      280.20036      346.16846      3840.7412      0.99696119
    924000  -1333.6541      222.11866     -1555.7728      292.22042     -216.83656      3840.7412      0.99696119
    925000  -1348.8942      219.46526     -1568.3594      288.72959     -2083.0658      3840.7412      0.99696119
    926000  -1353.6859      226.12765     -1579.8135      297.49467      12.738228      3840.7412      0.99696119
    927000  -1308.799       246.87549     -1555.6744      324.79063     -92.233946      3840.7412      0.99696119
    928000  -1364.0848      211.89635     -1575.9811      278.7719      -1398.9941      3840.7412      0.99696119
    929000  -1317.0807      212.24045     -1529.3212      279.2246       3144.8187      3840.7412      0.99696119
    930000  -1346.0408      200.71195     -1546.7528      264.05764     -1310.748       3840.7412      0.99696119
    931000  -1331.7383      223.84659     -1555.5849      294.4937      -2850.0435      3840.7412      0.99696119
    932000  -1349.7208      215.76173     -1565.4825      283.85722     -1049.7231      3840.7412      0.99696119
    933000  -1318.672       225.5724      -1544.2444      296.76418     -335.48077      3840.7412      0.99696119
    934000  -1364.9578      216.63269     -1581.5905      285.00305     -1427.5688      3840.7412      0.99696119
    935000  -1337.1476      233.2722      -1570.4198      306.89408     -624.19332      3840.7412      0.99696119
    936000  -1324.4919      251.29419     -1575.7861      330.60389     -229.63386      3840.7412      0.99696119
    937000  -1354.2179      216.9437      -1571.1616      285.41222     -366.68887      3840.7412      0.99696119
    938000  -1330.0848      232.66074     -1562.7455      306.08964     -1148.5113      3840.7412      0.99696119
    939000  -1376.9626      214.66565     -1591.6283      282.4152      -1806.8224      3840.7412      0.99696119
    940000  -1344.013       215.00699     -1559.02        282.86427      949.23122      3840.7412      0.99696119
    941000  -1331.4958      236.08455     -1567.5804      310.59401      1700.9645      3840.7412      0.99696119
    942000  -1314.8663      236.01062     -1550.8769      310.49675     -747.93287      3840.7412      0.99696119
    943000  -1339.8421      227.30513     -1567.1472      299.04377      254.54808      3840.7412      0.99696119
    944000  -1340.3613      242.98318     -1583.3445      319.66989     -983.03909      3840.7412      0.99696119
    945000  -1352.0118      229.03886     -1581.0506      301.32466     -63.937471      3840.7412      0.99696119
    946000  -1354.0364      229.44246     -1583.4788      301.85565      752.05382      3840.7412      0.99696119
    947000  -1358.8925      216.62032     -1575.5128      284.98678      1306.3751      3840.7412      0.99696119
    948000  -1387.1722      213.11607     -1600.2883      280.37657      431.66257      3840.7412      0.99696119
    949000  -1333.2336      242.65524     -1575.8888      319.23845     -162.47287      3840.7412      0.99696119
    950000  -1359.8995      213.20114     -1573.1006      280.48848     -748.09986      3840.7412      0.99696119
    951000  -1369.6507      206.65076     -1576.3015      271.87078     -1057.3367      3840.7412      0.99696119
    952000  -1349.4316      221.31575     -1570.7474      291.16411      307.80955      3840.7412      0.99696119
    953000  -1360.1067      238.97772     -1599.0844      314.40028     -853.64149      3840.7412      0.99696119
    954000  -1392.9268      213.88694     -1606.8137      281.39073     -1151.0145      3840.7412      0.99696119
    955000  -1350.7313      236.99897     -1587.7302      311.79704     -265.2249       3840.7412      0.99696119
    956000  -1383.8896      240.11555     -1624.0051      315.89723     -1806.1541      3840.7412      0.99696119
    957000  -1348.384       235.54023     -1583.9242      309.8779       57.343889      3840.7412      0.99696119
    958000  -1381.8052      219.93512     -1601.7403      289.34774     -2232.2576      3840.7412      0.99696119
    959000  -1368.8589      206.60897     -1575.4679      271.8158      -443.8981       3840.7412      0.99696119
    960000  -1325.6493      220.5896      -1546.2389      290.20878      238.7575       3840.7412      0.99696119
    961000  -1360.4469      206.2727      -1566.7196      271.37339     -1118.6884      3840.7412      0.99696119
    962000  -1299.8186      220.03039     -1519.849       289.47308     -776.9576       3840.7412      0.99696119
    963000  -1332.3094      232.71437     -1565.0237      306.1602      -2763.9487      3840.7412      0.99696119
    964000  -1319.6663      235.30805     -1554.9743      309.57245     -1100.0303      3840.7412      0.99696119
    965000  -1323.3955      226.99263     -1550.3881      298.63264     -1751.1542      3840.7412      0.99696119
    966000  -1306.4607      258.03305     -1564.4937      339.46957     -1708.855       3840.7412      0.99696119
    967000  -1338.139       226.90996     -1565.049       298.52387     -2399.4858      3840.7412      0.99696119
    968000  -1373.346       221.48865     -1594.8346      291.39157     -777.97209      3840.7412      0.99696119
    969000  -1345.8157      227.43369     -1573.2494      299.2129      -1341.5545      3840.7412      0.99696119
    970000  -1370.7534      225.4277      -1596.1811      296.57381     -2000.025       3840.7412      0.99696119
    971000  -1380.9405      239.98108     -1620.9215      315.72031     -1520.1074      3840.7412      0.99696119
    972000  -1339.4483      224.94772     -1564.396       295.94235      379.91653      3840.7412      0.99696119
    973000  -1361.5984      210.92533     -1572.5237      277.49442     -2002.5107      3840.7412      0.99696119
    974000  -1340.8743      238.8348      -1579.7091      314.21226     -1142.8093      3840.7412      0.99696119
    975000  -1341.5404      233.14579     -1574.6862      306.72777     -1921.5463      3840.7412      0.99696119
    976000  -1321.9321      237.2976      -1559.2297      312.18991     -305.0067       3840.7412      0.99696119
    977000  -1365.3503      215.52563     -1580.8759      283.5466      -1550.949       3840.7412      0.99696119
    978000  -1362.1967      220.24721     -1582.4439      289.75834     -165.81645      3840.7412      0.99696119
    979000  -1351.9623      234.65882     -1586.6211      308.71832     -478.90325      3840.7412      0.99696119
    980000  -1368.2826      207.94685     -1576.2294      273.57592      1077.7177      3840.7412      0.99696119
    981000  -1331.3518      253.06817     -1584.42        332.93775     -414.14569      3840.7412      0.99696119
    982000  -1323.08        249.7906      -1572.8706      328.62577      1630.6863      3840.7412      0.99696119
    983000  -1348.0808      218.41583     -1566.4966      287.34896     -523.06216      3840.7412      0.99696119
    984000  -1341.55        204.60363     -1546.1537      269.17755     -1102.057       3840.7412      0.99696119
    985000  -1348.2473      218.42318     -1566.6705      287.35863     -963.09732      3840.7412      0.99696119
    986000  -1370.6859      214.73034     -1585.4162      282.50031     -2218.1458      3840.7412      0.99696119
    987000  -1358.8341      205.88056     -1564.7146      270.85749     -786.28581      3840.7412      0.99696119
    988000  -1361.8762      212.57376     -1574.4499      279.6631      -1725.3496      3840.7412      0.99696119
    989000  -1339.377       225.45507     -1564.8321      296.60982     -698.05898      3840.7412      0.99696119
    990000  -1346.18        239.73065     -1585.9107      315.39085     -359.29973      3840.7412      0.99696119
    991000  -1312.8234      231.41953     -1544.2429      304.45669      1411.1925      3840.7412      0.99696119
    992000  -1330.8565      238.6721      -1569.5286      313.99821     -870.55993      3840.7412      0.99696119
    993000  -1353.1987      226.07234     -1579.271       297.4219      -930.80412      3840.7412      0.99696119
    994000  -1336.9012      229.6783      -1566.5795      302.16592     -1961.4097      3840.7412      0.99696119
    995000  -1339.9541      204.48601     -1544.4401      269.02282     -1699.4407      3840.7412      0.99696119
    996000  -1372.3384      207.97384     -1580.3123      273.61143     -260.6672       3840.7412      0.99696119
    997000  -1363.9396      234.49716     -1598.4367      308.50564     -1377.8845      3840.7412      0.99696119
    998000  -1338.581       236.70129     -1575.2823      311.4054      -777.82112      3840.7412      0.99696119
    999000  -1319.2091      238.71412     -1557.9233      314.05349     -822.7866       3840.7412      0.99696119
   1000000  -1329.451       225.58386     -1555.0348      296.77925     -664.49847      3840.7412      0.99696119
Loop time of 1174.77 on 2 procs for 1000000 steps with 384 atoms

Performance: 73.546 ns/day, 0.326 hours/ns, 851.228 timesteps/s
99.6% CPU use with 2 MPI tasks x 1 OpenMP threads

MPI task timing breakdown:
Section |  min time  |  avg time  |  max time  |%varavg| %total
---------------------------------------------------------------
Pair    | 757.58     | 764.66     | 771.73     |  25.6 | 65.09
Bond    | 0.085915   | 0.088633   | 0.09135    |   0.9 |  0.01
Kspace  | 214.72     | 221.3      | 227.89     |  44.3 | 18.84
Neigh   | 52.333     | 52.334     | 52.336     |   0.0 |  4.45
Comm    | 77.788     | 78.277     | 78.765     |   5.5 |  6.66
Output  | 0.28773    | 0.28991    | 0.29208    |   0.4 |  0.02
Modify  | 54.695     | 54.81      | 54.924     |   1.5 |  4.67
Other   |            | 3.015      |            |       |  0.26

Nlocal:            192 ave         197 max         187 min
Histogram: 1 0 0 0 0 0 0 0 0 1
Nghost:           4797 ave        4815 max        4779 min
Histogram: 1 0 0 0 0 0 0 0 0 1
Neighs:        69326.5 ave       71622 max       67031 min
Histogram: 1 0 0 0 0 0 0 0 0 1

Total # of neighbors = 138653
Ave neighs/atom = 361.07552
Ave special neighs/atom = 2
Neighbor list builds = 32470
Dangerous builds = 0
# write data file
write_data data.after_eq.lmp
System init for write_data ...
PPPM initialization ...
  using 12-bit tables for long-range coulomb (src/kspace.cpp:342)
  G vector (1/distance) = 0.31203871
  grid = 15 15 15
  stencil order = 5
  estimated absolute RMS force accuracy = 0.0022228175
  estimated relative force accuracy = 6.6939488e-06
  using double precision FFTW3
  3d grid and FFT values/proc = 6776 1800
Generated 1 of 1 mixed pair_coeff terms from geometric mixing rule

# clean up
undump dEQUI

# production
# 2 ns
dump dPROD all custom 1000 prod.lammpstrj id element xu yu zu
dump_modify dPROD element H O sort id
run 2000000
PPPM initialization ...
  using 12-bit tables for long-range coulomb (src/kspace.cpp:342)
  G vector (1/distance) = 0.31203871
  grid = 15 15 15
  stencil order = 5
  estimated absolute RMS force accuracy = 0.0022228175
  estimated relative force accuracy = 6.6939488e-06
  using double precision FFTW3
  3d grid and FFT values/proc = 6776 1800
Generated 1 of 1 mixed pair_coeff terms from geometric mixing rule
Per MPI rank memory allocation (min/avg/max) = 9.714 | 9.714 | 9.714 Mbytes
   Step         TotEng         KinEng         PotEng          Temp          Press          Volume        Density
   1000000  -1329.451       225.58386     -1555.0348      296.77925     -663.97916      3840.7412      0.99696119
   1001000  -1346.7876      224.18245     -1570.97        294.93555     -651.65736      3840.7412      0.99696119
   1002000  -1351.9452      229.32111     -1581.2663      301.69601     -791.23475      3840.7412      0.99696119
   1003000  -1347.9995      221.75373     -1569.7532      291.74032      1223.2398      3840.7412      0.99696119
   1004000  -1371.134       223.06479     -1594.1988      293.46516     -1792.9255      3840.7412      0.99696119
   1005000  -1344.7003      222.71682     -1567.4171      293.00736     -766.04901      3840.7412      0.99696119
   1006000  -1347.858       217.89506     -1565.753       286.66383     -1709.8959      3840.7412      0.99696119
   1007000  -1331.652       220.24589     -1551.8979      289.75659     -1889.17        3840.7412      0.99696119
   1008000  -1319.5463      240.69335     -1560.2397      316.65738     -1342.611       3840.7412      0.99696119
   1009000  -1326.8499      247.43641     -1574.2863      325.52858     -3168.8395      3840.7412      0.99696119
   1010000  -1320.1201      230.76388     -1550.884       303.59412      202.31502      3840.7412      0.99696119
   1011000  -1356.7442      216.78468     -1573.5289      285.20301     -1965.0034      3840.7412      0.99696119
   1012000  -1329.6299      224.52731     -1554.1572      295.38925      1082.7475      3840.7412      0.99696119
   1013000  -1328.8806      226.80625     -1555.6868      298.38744     -1225.1152      3840.7412      0.99696119
   1014000  -1301.3715      224.33983     -1525.7113      295.1426      -207.0194       3840.7412      0.99696119
   1015000  -1365.7438      208.40304     -1574.1469      274.17608      356.11148      3840.7412      0.99696119
   1016000  -1399.2129      210.75921     -1609.9721      277.27587     -1695.2189      3840.7412      0.99696119
   1017000  -1348.9606      235.25739     -1584.2179      309.50581     -1386.9764      3840.7412      0.99696119
   1018000  -1322.4741      236.78541     -1559.2595      311.51607     -1186.3859      3840.7412      0.99696119
   1019000  -1377.9423      220.79359     -1598.7359      290.47716     -226.55837      3840.7412      0.99696119
   1020000  -1349.2325      219.0172      -1568.2497      288.14012      83.945191      3840.7412      0.99696119
   1021000  -1311.5569      266.89307     -1578.4499      351.12586     -1663.2712      3840.7412      0.99696119
   1022000  -1329.886       228.48274     -1558.3687      300.59303     -1004.1197      3840.7412      0.99696119
   1023000  -1315.2521      228.56606     -1543.8182      300.70266     -1713.7092      3840.7412      0.99696119
   1024000  -1297.1431      228.0407      -1525.1838      300.01148     -1150.9885      3840.7412      0.99696119
   1025000  -1325.0646      233.62159     -1558.6862      307.35373      293.16673      3840.7412      0.99696119
   1026000  -1347.5663      217.0009      -1564.5672      285.48747     -695.63012      3840.7412      0.99696119
   1027000  -1338.621       229.14145     -1567.7625      301.45964     -944.89093      3840.7412      0.99696119
   1028000  -1357.2552      213.87103     -1571.1262      281.3698      -1827.0039      3840.7412      0.99696119
   1029000  -1342.9118      226.24341     -1569.1552      297.64697     -203.49958      3840.7412      0.99696119
   1030000  -1320.0683      248.33025     -1568.3986      326.70452     -668.65838      3840.7412      0.99696119
   1031000  -1314.733       235.66519     -1550.3982      310.0423       107.65046      3840.7412      0.99696119
   1032000  -1313.1596      228.37634     -1541.5359      300.45306     -59.446079      3840.7412      0.99696119
   1033000  -1340.0338      217.59872     -1557.6325      286.27396     -1335.8046      3840.7412      0.99696119
   1034000  -1368.1533      237.9342      -1606.0875      313.02742     -216.64928      3840.7412      0.99696119
   1035000  -1293.6137      251.16229     -1544.7759      330.43036     -1003.0332      3840.7412      0.99696119
   1036000  -1332.6035      223.31642     -1555.9199      293.7962      -176.98416      3840.7412      0.99696119
   1037000  -1304.5822      235.56037     -1540.1426      309.9044      -3402.0278      3840.7412      0.99696119
   1038000  -1326.2937      243.4674      -1569.7611      320.30693      463.66705      3840.7412      0.99696119
   1039000  -1299.358       242.17874     -1541.5367      318.61156     -1205.7517      3840.7412      0.99696119
   1040000  -1325.2819      210.14528     -1535.4272      276.46818     -1271.6187      3840.7412      0.99696119
   1041000  -1332.2287      217.79446     -1550.0232      286.53148      661.83951      3840.7412      0.99696119
   1042000  -1353.8732      245.68917     -1599.5623      323.22991     -1336.4486      3840.7412      0.99696119
   1043000  -1313.7964      223.38359     -1537.18        293.88457      59.002364      3840.7412      0.99696119
   1044000  -1354.2628      210.0463      -1564.3091      276.33796     -1755.1115      3840.7412      0.99696119
   1045000  -1322.6377      242.69392     -1565.3316      319.28933     -1664.7922      3840.7412      0.99696119
   1046000  -1355.6869      223.0211      -1578.708       293.40768     -1769.3129      3840.7412      0.99696119
   1047000  -1347.4687      246.13625     -1593.6049      323.81808     -643.63581      3840.7412      0.99696119
   1048000  -1342.0234      211.988       -1554.0114      278.89247      654.69266      3840.7412      0.99696119
   1049000  -1348.762       218.95048     -1567.7125      288.05235      127.45189      3840.7412      0.99696119
   1050000  -1345.7336      234.57204     -1580.3056      308.60415     -1533.991       3840.7412      0.99696119
   1051000  -1340.0588      227.50319     -1567.562       299.30434     -395.64865      3840.7412      0.99696119
   1052000  -1351.9589      224.17699     -1576.1358      294.92838      267.85048      3840.7412      0.99696119
   1053000  -1323.2894      232.32471     -1555.6141      305.64756     -2352.1866      3840.7412      0.99696119
   1054000  -1369.1629      231.11745     -1600.2803      304.05927      1872.7595      3840.7412      0.99696119
   1055000  -1323.2368      234.28242     -1557.5192      308.22312      283.40727      3840.7412      0.99696119
   1056000  -1354.5383      234.63137     -1589.1696      308.6822       202.99249      3840.7412      0.99696119
   1057000  -1307.249       258.16338     -1565.4124      339.64104     -1710.076       3840.7412      0.99696119
   1058000  -1329.7712      233.33312     -1563.1044      306.97422      905.57004      3840.7412      0.99696119
   1059000  -1332.548       231.81884     -1564.3669      304.98203      581.96744      3840.7412      0.99696119
   1060000  -1348.8526      222.6754      -1571.528       292.95287     -1604.02        3840.7412      0.99696119
   1061000  -1337.9227      221.40488     -1559.3276      291.28137     -1267.4074      3840.7412      0.99696119
   1062000  -1331.3014      226.82327     -1558.1247      298.40983     -3077.4636      3840.7412      0.99696119
   1063000  -1333.2298      218.32958     -1551.5594      287.23549     -952.78931      3840.7412      0.99696119
   1064000  -1300.9436      230.33559     -1531.2792      303.03065     -424.55209      3840.7412      0.99696119
   1065000  -1325.0108      229.39969     -1554.4105      301.79938      398.81066      3840.7412      0.99696119
   1066000  -1323.3675      231.19657     -1554.5641      304.16337      1640.0561      3840.7412      0.99696119
   1067000  -1339.6808      236.0679      -1575.7487      310.57211     -1776.1592      3840.7412      0.99696119
   1068000  -1367.2201      223.79197     -1591.012       294.42184     -1396.9013      3840.7412      0.99696119
   1069000  -1343.527       231.26692     -1574.7939      304.25592      112.57531      3840.7412      0.99696119
   1070000  -1389.1616      221.129       -1610.2906      290.91842      1218.5016      3840.7412      0.99696119
   1071000  -1348.3455      219.94771     -1568.2932      289.36431     -388.28065      3840.7412      0.99696119
   1072000  -1308.8432      233.83773     -1542.6809      307.63809     -1780.6083      3840.7412      0.99696119
   1073000  -1332.5858      221.33163     -1553.9174      291.18501     -1923.9111      3840.7412      0.99696119
   1074000  -1355.4699      213.727       -1569.1969      281.18031     -133.87781      3840.7412      0.99696119
   1075000  -1349.6509      212.36786     -1562.0188      279.39222      106.20091      3840.7412      0.99696119
   1076000  -1357.0168      212.85841     -1569.8752      280.03759     -1564.075       3840.7412      0.99696119
   1077000  -1343.4854      225.30458     -1568.79        296.41184     -796.17135      3840.7412      0.99696119
   1078000  -1340.7926      229.9421      -1570.7347      302.51298     -185.33349      3840.7412      0.99696119
   1079000  -1311.9043      235.42432     -1547.3286      309.72541     -1325.1078      3840.7412      0.99696119
   1080000  -1356.0752      230.49174     -1586.5669      303.23608     -506.9263       3840.7412      0.99696119
   1081000  -1375.6672      233.20056     -1608.8678      306.79982     -2304.2748      3840.7412      0.99696119
   1082000  -1365.4932      239.18044     -1604.6737      314.66698      1629.2956      3840.7412      0.99696119
   1083000  -1356.6778      241.22371     -1597.9015      317.35512      626.09386      3840.7412      0.99696119
   1084000  -1372.9016      226.38183     -1599.2834      297.82907     -177.20853      3840.7412      0.99696119
   1085000  -1384.7563      216.56453     -1601.3208      284.91338     -574.88097      3840.7412      0.99696119
   1086000  -1375.9443      232.0095      -1607.9538      305.23287      84.527462      3840.7412      0.99696119
   1087000  -1377.1864      222.82726     -1600.0137      293.15265     -365.64915      3840.7412      0.99696119
   1088000  -1377.3294      228.80161     -1606.131       301.01255     -1290.4578      3840.7412      0.99696119
   1089000  -1344.2858      213.75321     -1558.039       281.21479     -562.74816      3840.7412      0.99696119
   1090000  -1373.2487      237.60446     -1610.8531      312.59362      523.59768      3840.7412      0.99696119
   1091000  -1371.993       233.8429      -1605.8359      307.64489     -674.41845      3840.7412      0.99696119
   1092000  -1320.0696      253.8657      -1573.9353      333.98698     -1255.5885      3840.7412      0.99696119
   1093000  -1334.208       220.7229      -1554.9309      290.38415     -102.02606      3840.7412      0.99696119
   1094000  -1325.9179      227.77303     -1553.6909      299.65934     -1159.4338      3840.7412      0.99696119
   1095000  -1357.0314      236.20686     -1593.2383      310.75493     -697.74418      3840.7412      0.99696119
   1096000  -1327.0262      236.88448     -1563.9107      311.64641     -1000.4128      3840.7412      0.99696119
   1097000  -1327.1886      219.56958     -1546.7581      288.86684     -1200.9772      3840.7412      0.99696119
   1098000  -1335.8529      223.74925     -1559.6021      294.36564     -403.06468      3840.7412      0.99696119
   1099000  -1347.3416      234.95427     -1582.2958      309.10701     -490.55808      3840.7412      0.99696119
   1100000  -1347.9914      230.4967      -1578.4881      303.24261     -1110.912       3840.7412      0.99696119
   1101000  -1309.1047      233.11346     -1542.2182      306.68523     -1652.5794      3840.7412      0.99696119
   1102000  -1314.8213      246.86316     -1561.6844      324.77441      681.83742      3840.7412      0.99696119
   1103000  -1351.411       210.29022     -1561.7012      276.65886     -1399.8541      3840.7412      0.99696119
   1104000  -1313.2674      221.71929     -1534.9867      291.695        3.8068293      3840.7412      0.99696119
   1105000  -1356.5092      200.94139     -1557.4506      264.35949     -375.33523      3840.7412      0.99696119
   1106000  -1333.9732      224.07538     -1558.0486      294.79469      1214.521       3840.7412      0.99696119
   1107000  -1304.2511      251.40563     -1555.6567      330.75051     -1889.447       3840.7412      0.99696119
   1108000  -1337.5671      229.01725     -1566.5843      301.29625     -1448.5085      3840.7412      0.99696119
   1109000  -1319.8436      241.59016     -1561.4338      317.83723     -413.70384      3840.7412      0.99696119
   1110000  -1340.2353      231.02449     -1571.2598      303.93697     -682.24778      3840.7412      0.99696119
   1111000  -1353.4021      224.1282      -1577.5303      294.86418     -589.07837      3840.7412      0.99696119
   1112000  -1313.6165      236.29956     -1549.9161      310.87689     -421.80887      3840.7412      0.99696119
   1113000  -1334.9075      235.16042     -1570.068       309.37823      788.95918      3840.7412      0.99696119
   1114000  -1355.4447      227.74973     -1583.1944      299.62869     -1001.6806      3840.7412      0.99696119
   1115000  -1337.3189      217.20906     -1554.528       285.76133     -34.603225      3840.7412      0.99696119
   1116000  -1338.728       224.52666     -1563.2547      295.38839      953.22321      3840.7412      0.99696119
   1117000  -1339.4373      217.54156     -1556.9788      286.19877      302.73433      3840.7412      0.99696119
   1118000  -1322.7322      231.6748      -1554.407       304.79252     -1371.112       3840.7412      0.99696119
   1119000  -1328.0254      233.37942     -1561.4048      307.03514     -858.82385      3840.7412      0.99696119
   1120000  -1352.7024      241.14051     -1593.8429      317.24566     -89.948396      3840.7412      0.99696119
   1121000  -1367.5834      231.98725     -1599.5707      305.20359     -1181.7471      3840.7412      0.99696119
   1122000  -1331.7172      224.06915     -1555.7864      294.78649     -532.90623      3840.7412      0.99696119
   1123000  -1312.5051      217.07899     -1529.5841      285.5902      -1955.1504      3840.7412      0.99696119
   1124000  -1351.8205      203.7675      -1555.588       268.07754      317.41696      3840.7412      0.99696119
   1125000  -1304.5688      230.16348     -1534.7323      302.80423     -561.51072      3840.7412      0.99696119
   1126000  -1311.4127      223.81103     -1535.2237      294.44692      1446.5925      3840.7412      0.99696119
   1127000  -1319.844       206.23032     -1526.0743      271.31764     -226.37456      3840.7412      0.99696119
   1128000  -1332.6566      227.37496     -1560.0316      299.13563     -164.54563      3840.7412      0.99696119
   1129000  -1333.0487      224.67572     -1557.7244      295.5845      -279.26488      3840.7412      0.99696119
   1130000  -1357.7167      226.11816     -1583.8349      297.48219     -2353.7305      3840.7412      0.99696119
   1131000  -1326.4708      229.44871     -1555.9196      301.86387     -361.29255      3840.7412      0.99696119
   1132000  -1310.4458      233.63241     -1544.0782      307.36797     -891.25239      3840.7412      0.99696119
   1133000  -1299.5136      233.17642     -1532.69        306.76806     -1718.1458      3840.7412      0.99696119
   1134000  -1298.684       255.47379     -1554.1578      336.1026       600.61014      3840.7412      0.99696119
   1135000  -1341.8058      224.71315     -1566.519       295.63374     -658.6804       3840.7412      0.99696119
   1136000  -1356.2917      192.15593     -1548.4476      252.80131     -278.68899      3840.7412      0.99696119
   1137000  -1302.7803      219.52142     -1522.3017      288.80348     -1931.3649      3840.7412      0.99696119
   1138000  -1348.316       230.82253     -1579.1385      303.67127     -1402.7496      3840.7412      0.99696119
   1139000  -1338.3822      239.5117      -1577.8939      315.10279     -1748.3702      3840.7412      0.99696119
   1140000  -1356.1459      213.0188      -1569.1647      280.2486      -771.62432      3840.7412      0.99696119
   1141000  -1345.9194      205.68268     -1551.6021      270.59716     -1620.6813      3840.7412      0.99696119
   1142000  -1370.8515      229.49226     -1600.3438      301.92117      307.83544      3840.7412      0.99696119
   1143000  -1339.5392      229.23348     -1568.7727      301.58072      829.67889      3840.7412      0.99696119
   1144000  -1298.5107      231.42114     -1529.9319      304.45882     -1486.6811      3840.7412      0.99696119
   1145000  -1367.4283      221.16828     -1588.5966      290.9701      -1033.7413      3840.7412      0.99696119
   1146000  -1337.8876      231.08709     -1568.9747      304.01934     -252.91767      3840.7412      0.99696119
   1147000  -1350.634       228.98261     -1579.6166      301.25066     -1335.5354      3840.7412      0.99696119
   1148000  -1327.2269      225.59164     -1552.8185      296.78949      802.50051      3840.7412      0.99696119
   1149000  -1344.652       226.17355     -1570.8256      297.55505     -526.5225       3840.7412      0.99696119
   1150000  -1343.7587      236.14957     -1579.9082      310.67955      1419.6803      3840.7412      0.99696119
   1151000  -1362.5924      212.68098     -1575.2734      279.80416     -795.17335      3840.7412      0.99696119
   1152000  -1331.9477      226.58436     -1558.5321      298.09552     -1563.4052      3840.7412      0.99696119
   1153000  -1327.0673      238.40692     -1565.4742      313.64934     -2054.5732      3840.7412      0.99696119
   1154000  -1363.2246      225.09593     -1588.3205      296.13734     -1516.0005      3840.7412      0.99696119
   1155000  -1380.3554      209.59401     -1589.9494      275.74293      1644.8982      3840.7412      0.99696119
   1156000  -1355.8177      228.77693     -1584.5947      300.98007      513.65402      3840.7412      0.99696119
   1157000  -1387.1434      213.59752     -1600.7409      281.00997      217.48738      3840.7412      0.99696119
   1158000  -1351.3702      237.64059     -1589.0108      312.64115      609.71045      3840.7412      0.99696119
   1159000  -1366.2405      232.56091     -1598.8014      305.9583       1585.3083      3840.7412      0.99696119
   1160000  -1319.2912      228.25132     -1547.5425      300.28858      128.45349      3840.7412      0.99696119
   1161000  -1374.8072      208.79665     -1583.6039      274.69392     -1591.6108      3840.7412      0.99696119
   1162000  -1338.7054      238.80362     -1577.509       314.17123     -1069.4021      3840.7412      0.99696119
   1163000  -1299.1645      255.85681     -1555.0213      336.6065      -821.0606       3840.7412      0.99696119
   1164000  -1356.2691      216.71445     -1572.9835      285.11061      224.94902      3840.7412      0.99696119
   1165000  -1325.8326      223.79186     -1549.6245      294.42169      1224.8358      3840.7412      0.99696119
   1166000  -1335.3244      218.16175     -1553.4861      287.01469     -483.67474      3840.7412      0.99696119
   1167000  -1366.8548      216.36737     -1583.2222      284.654       -926.48342      3840.7412      0.99696119
   1168000  -1371.0469      227.07446     -1598.1214      298.7403       8.1712587      3840.7412      0.99696119
   1169000  -1348.2933      215.83561     -1564.129       283.95442      1097.9737      3840.7412      0.99696119
   1170000  -1359.667       218.29395     -1577.9609      287.18861     -2020.3509      3840.7412      0.99696119
   1171000  -1336.3253      238.3194      -1574.6447      313.5342      -286.01133      3840.7412      0.99696119
   1172000  -1342.241       236.64638     -1578.8874      311.33317     -763.24836      3840.7412      0.99696119
   1173000  -1343.9401      220.12203     -1564.0622      289.59365     -710.94755      3840.7412      0.99696119
   1174000  -1345.5957      222.98479     -1568.5805      293.3599       633.3023       3840.7412      0.99696119
   1175000  -1323.88        243.95188     -1567.8318      320.94431      1560.8952      3840.7412      0.99696119
   1176000  -1332.0823      230.88035     -1562.9627      303.74734      201.92597      3840.7412      0.99696119
   1177000  -1346.2897      207.36795     -1553.6577      272.81431     -1479.4221      3840.7412      0.99696119
   1178000  -1336.8729      232.55912     -1569.432       305.95594      489.90364      3840.7412      0.99696119
   1179000  -1326.2793      225.51194     -1551.7912      296.68463     -58.439319      3840.7412      0.99696119
   1180000  -1340.8197      212.11099     -1552.9307      279.05429     -872.50135      3840.7412      0.99696119
   1181000  -1310.059       211.54302     -1521.602       278.30706      620.02034      3840.7412      0.99696119
   1182000  -1329.9348      218.49557     -1548.4304      287.45386     -1928.0571      3840.7412      0.99696119
   1183000  -1300.826       240.53542     -1541.3614      316.4496       495.55608      3840.7412      0.99696119
   1184000  -1349.4273      217.43566     -1566.863       286.05944     -986.02332      3840.7412      0.99696119
   1185000  -1329.8569      241.17312     -1571.03        317.28856     -1531.0084      3840.7412      0.99696119
   1186000  -1340.9638      215.32355     -1556.2873      283.28075      624.65706      3840.7412      0.99696119
   1187000  -1320.8688      234.83762     -1555.7064      308.95355     -1216.5919      3840.7412      0.99696119
   1188000  -1358.2895      212.28638     -1570.5759      279.28503     -403.53742      3840.7412      0.99696119
   1189000  -1325.6961      246.93505     -1572.6311      324.86899     -1750.945       3840.7412      0.99696119
   1190000  -1368.4088      207.83958     -1576.2484      273.4348       1815.8783      3840.7412      0.99696119
   1191000  -1302.3591      235.54091     -1537.9         309.8788       176.68262      3840.7412      0.99696119
   1192000  -1333.6303      226.0731      -1559.7034      297.4229      -560.32706      3840.7412      0.99696119
   1193000  -1318.1654      204.19251     -1522.3579      268.63669      505.9444       3840.7412      0.99696119
   1194000  -1282.1248      251.12698     -1533.2518      330.38391     -99.453045      3840.7412      0.99696119
   1195000  -1340.0568      203.24581     -1543.3026      267.39121      337.62647      3840.7412      0.99696119
   1196000  -1339.045       220.15151     -1559.1965      289.63243     -209.57459      3840.7412      0.99696119
   1197000  -1339.2007      219.88174     -1559.0824      289.27752      70.970063      3840.7412      0.99696119
   1198000  -1332.3015      244.49771     -1576.7992      321.66241     -376.83855      3840.7412      0.99696119
   1199000  -1337.1338      227.17482     -1564.3086      298.87233      678.0724       3840.7412      0.99696119
   1200000  -1358.9807      207.56848     -1566.5492      273.07814     -791.66508      3840.7412      0.99696119
   1201000  -1354.8733      227.94517     -1582.8184      299.8858       298.6092       3840.7412      0.99696119
   1202000  -1348.4145      219.92983     -1568.3443      289.34079     -1367.4352      3840.7412      0.99696119
   1203000  -1349.2255      219.57501     -1568.8005      288.87398     -2515.0882      3840.7412      0.99696119
   1204000  -1309.3359      230.6026      -1539.9385      303.38194     -1108.1689      3840.7412      0.99696119
   1205000  -1337.5478      223.37836     -1560.9262      293.87769     -992.14161      3840.7412      0.99696119
   1206000  -1319.6908      226.18337     -1545.8742      297.56798     -1043.4258      3840.7412      0.99696119
   1207000  -1323.396       224.31101     -1547.707       295.10469     -31.803385      3840.7412      0.99696119
   1208000  -1325.3026      234.66534     -1559.9679      308.7269      -1135.1329      3840.7412      0.99696119
   1209000  -1318.4391      228.40889     -1546.848       300.49588     -1469.6209      3840.7412      0.99696119
   1210000  -1308.4085      242.40292     -1550.8114      318.90649     -1660.3416      3840.7412      0.99696119
   1211000  -1356.8805      232.82092     -1589.7014      306.30037      892.60378      3840.7412      0.99696119
   1212000  -1311.366       234.46042     -1545.8264      308.4573      -988.89808      3840.7412      0.99696119
   1213000  -1326.7505      232.15159     -1558.9021      305.4198      -402.9637       3840.7412      0.99696119
   1214000  -1316.6184      240.91625     -1557.5346      316.95062      248.18531      3840.7412      0.99696119
   1215000  -1384.0318      210.13198     -1594.1637      276.45069     -30.727581      3840.7412      0.99696119
   1216000  -1322.8444      248.64355     -1571.4879      327.11669     -1769.7368      3840.7412      0.99696119
   1217000  -1317.6033      227.43921     -1545.0425      299.22017      478.1208       3840.7412      0.99696119
   1218000  -1360.6383      231.36445     -1592.0027      304.38424     -673.26362      3840.7412      0.99696119
   1219000  -1340.859       223.18711     -1564.0461      293.62608     -1275.5288      3840.7412      0.99696119
   1220000  -1363.6594      216.62008     -1580.2795      284.98646     -2124.2864      3840.7412      0.99696119
   1221000  -1351.7061      236.92564     -1588.6317      311.70055     -348.42573      3840.7412      0.99696119
   1222000  -1319.9722      240.3431      -1560.3153      316.19659     -935.82335      3840.7412      0.99696119
   1223000  -1353.7213      225.71193     -1579.4332      296.94775     -2660.5656      3840.7412      0.99696119
   1224000  -1313.971       234.54629     -1548.5173      308.57027     -23.586623      3840.7412      0.99696119
   1225000  -1273.447       253.75124     -1527.1982      333.8364      -226.483        3840.7412      0.99696119
   1226000  -1316.1825      218.70456     -1534.8871      287.72881      549.69469      3840.7412      0.99696119
   1227000  -1341.4709      217.13982     -1558.6107      285.67024      6.5109841      3840.7412      0.99696119
   1228000  -1309.5565      206.78026     -1516.3368      272.04115     -1118.1511      3840.7412      0.99696119
   1229000  -1321.3941      212.74163     -1534.1358      279.88395     -83.958561      3840.7412      0.99696119
   1230000  -1344.7778      236.3893      -1581.1671      310.99494      480.10911      3840.7412      0.99696119
   1231000  -1306.1432      234.8513      -1540.9945      308.97155      480.37292      3840.7412      0.99696119
   1232000  -1343.9847      220.45677     -1564.4414      290.03403      90.600684      3840.7412      0.99696119
   1233000  -1305.0455      221.0917      -1526.1372      290.86935     -673.79601      3840.7412      0.99696119
   1234000  -1348.7252      214.87712     -1563.6023      282.69341      347.63214      3840.7412      0.99696119
   1235000  -1300.6483      236.56768     -1537.216       311.22962      314.9601       3840.7412      0.99696119
   1236000  -1320.5082      238.4895      -1558.9977      313.75799      559.35995      3840.7412      0.99696119
   1237000  -1350.2012      217.26524     -1567.4665      285.83524     -1238.9458      3840.7412      0.99696119
   1238000  -1323.8176      259.09798     -1582.9155      340.8706       577.23521      3840.7412      0.99696119
   1239000  -1345.5257      235.12234     -1580.6481      309.32812      220.25872      3840.7412      0.99696119
   1240000  -1323.9081      231.88009     -1555.7882      305.06261     -1915.1385      3840.7412      0.99696119
   1241000  -1342.6117      216.10894     -1558.7206      284.314       -905.56089      3840.7412      0.99696119
   1242000  -1306.1276      222.28946     -1528.4171      292.44513     -84.21281       3840.7412      0.99696119
   1243000  -1303.5929      251.421       -1555.0139      330.77073     -671.29304      3840.7412      0.99696119
   1244000  -1319.003       210.50549     -1529.5085      276.94208     -2600.6208      3840.7412      0.99696119
   1245000  -1360.4422      209.98343     -1570.4256      276.25526     -1076.502       3840.7412      0.99696119
   1246000  -1327.2594      224.34946     -1551.6089      295.15527      977.34965      3840.7412      0.99696119
   1247000  -1349.3249      211.45068     -1560.7756      278.18557      235.18725      3840.7412      0.99696119
   1248000  -1329.2245      231.80666     -1561.0312      304.966       -1388.7451      3840.7412      0.99696119
   1249000  -1360.7199      219.03033     -1579.7502      288.1574       944.2875       3840.7412      0.99696119
   1250000  -1355.6746      231.19552     -1586.8701      304.16199     -2019.1286      3840.7412      0.99696119
   1251000  -1355.9208      216.15331     -1572.0741      284.37238      737.78679      3840.7412      0.99696119
   1252000  -1356.1904      223.42552     -1579.6159      293.93974     -596.15968      3840.7412      0.99696119
   1253000  -1381.0061      219.86364     -1600.8698      289.25371     -743.71664      3840.7412      0.99696119
   1254000  -1377.1194      213.46764     -1590.5871      280.83909     -75.472972      3840.7412      0.99696119
   1255000  -1357.6859      221.51063     -1579.1966      291.4205      -1055.592       3840.7412      0.99696119
   1256000  -1401.2991      197.41315     -1598.7123      259.71773      792.18864      3840.7412      0.99696119
   1257000  -1353.4423      230.09545     -1583.5378      302.71473      119.7601       3840.7412      0.99696119
   1258000  -1317.4649      222.5648      -1540.0297      292.80737     -439.36663      3840.7412      0.99696119
   1259000  -1357.5175      231.46198     -1588.9795      304.51254     -1270.8114      3840.7412      0.99696119
   1260000  -1338.222       232.13605     -1570.3581      305.39935     -451.78368      3840.7412      0.99696119
   1261000  -1313.5823      225.11751     -1538.6998      296.16572      1810.3317      3840.7412      0.99696119
   1262000  -1345.947       230.13617     -1576.0832      302.7683       606.6258       3840.7412      0.99696119
   1263000  -1383.1576      207.08481     -1590.2424      272.44182     -1286.0802      3840.7412      0.99696119
   1264000  -1327.91        248.39814     -1576.3081      326.79384     -1145.5983      3840.7412      0.99696119
   1265000  -1344.1867      231.24607     -1575.4328      304.22848      190.28129      3840.7412      0.99696119
   1266000  -1319.4767      253.36132     -1572.838       333.32342     -627.10876      3840.7412      0.99696119
   1267000  -1356.4004      212.81688     -1569.2173      279.98295     -1193.2998      3840.7412      0.99696119
   1268000  -1355.5662      213.36338     -1568.9296      280.70194     -520.11281      3840.7412      0.99696119
   1269000  -1346.7389      208.59057     -1555.3294      274.42279     -705.7626       3840.7412      0.99696119
   1270000  -1327.6738      231.32264     -1558.9965      304.32923      953.12597      3840.7412      0.99696119
   1271000  -1327.4085      222.32361     -1549.7321      292.49005     -59.292895      3840.7412      0.99696119
   1272000  -1335.5978      218.63611     -1554.234       287.63876     -111.86838      3840.7412      0.99696119
   1273000  -1337.7399      234.86099     -1572.6009      308.98429     -1745.6197      3840.7412      0.99696119
   1274000  -1359.8002      222.26725     -1582.0674      292.41591     -681.76148      3840.7412      0.99696119
   1275000  -1372.3458      207.73762     -1580.0834      273.30065      1636.5402      3840.7412      0.99696119
   1276000  -1372.9825      229.40712     -1602.3897      301.80915     -2491.9829      3840.7412      0.99696119
   1277000  -1361.7887      224.92572     -1586.7144      295.9134      -943.52557      3840.7412      0.99696119
   1278000  -1385.5842      228.35133     -1613.9355      300.42015     -201.31146      3840.7412      0.99696119
   1279000  -1383.6961      225.36158     -1609.0577      296.48682      276.11967      3840.7412      0.99696119
   1280000  -1368.8138      220.49001     -1589.3038      290.07776     -356.57853      3840.7412      0.99696119
   1281000  -1373.8378      220.08354     -1593.9214      289.54301      605.68688      3840.7412      0.99696119
   1282000  -1364.0203      238.64916     -1602.6695      313.96803      1520.3834      3840.7412      0.99696119
   1283000  -1335.0527      225.93356     -1560.9863      297.23932      670.52821      3840.7412      0.99696119
   1284000  -1354.4861      224.99451     -1579.4806      296.00391     -2569.1184      3840.7412      0.99696119
   1285000  -1368.9672      208.60295     -1577.5702      274.43909     -2074.6747      3840.7412      0.99696119
   1286000  -1359.3951      221.68592     -1581.081       291.65111      1456.671       3840.7412      0.99696119
   1287000  -1389.9772      205.75215     -1595.7293      270.68856      821.24317      3840.7412      0.99696119
   1288000  -1333.0132      230.47789     -1563.4911      303.21787      35.386881      3840.7412      0.99696119
   1289000  -1327.0648      235.82036     -1562.8852      310.24645     -16.455198      3840.7412      0.99696119
   1290000  -1302.0662      236.20984     -1538.276       310.75885     -1664.3473      3840.7412      0.99696119
   1291000  -1321.9491      233.93985     -1555.889       307.77244     -2317.5806      3840.7412      0.99696119
   1292000  -1318.6685      233.84521     -1552.5137      307.64793      1127.1079      3840.7412      0.99696119
   1293000  -1327.1782      217.94756     -1545.1258      286.7329      -818.72125      3840.7412      0.99696119
   1294000  -1391.4308      211.8164      -1603.2472      278.66671     -969.17924      3840.7412      0.99696119
   1295000  -1373.8929      201.07076     -1574.9636      264.5297      -1389.1867      3840.7412      0.99696119
   1296000  -1353.7871      232.76757     -1586.5547      306.23018      209.83799      3840.7412      0.99696119
   1297000  -1374.73        226.92382     -1601.6538      298.54211     -760.36732      3840.7412      0.99696119
   1298000  -1333.8293      244.17042     -1577.9997      321.23182     -2828.1616      3840.7412      0.99696119
   1299000  -1377.5746      225.61141     -1603.186       296.8155      -623.1085       3840.7412      0.99696119
   1300000  -1326.4998      238.59802     -1565.0978      313.90075     -344.49742      3840.7412      0.99696119
   1301000  -1307.0911      239.64808     -1546.7392      315.28221      430.11005      3840.7412      0.99696119
   1302000  -1340.3532      226.26228     -1566.6154      297.67179      1137.7371      3840.7412      0.99696119
   1303000  -1343.5855      238.48209     -1582.0676      313.74823     -730.43061      3840.7412      0.99696119
   1304000  -1307.5066      253.83847     -1561.345       333.95116      814.7557       3840.7412      0.99696119
   1305000  -1326.8991      227.10984     -1554.009       298.78684     -508.63523      3840.7412      0.99696119
   1306000  -1359.7066      209.96225     -1569.6688      276.22739     -2856.1773      3840.7412      0.99696119
   1307000  -1306.0739      249.04582     -1555.1197      327.64593     -1068.5282      3840.7412      0.99696119
   1308000  -1337.2483      210.10116     -1547.3494      276.41014     -1538.9682      3840.7412      0.99696119
   1309000  -1354.8707      216.20218     -1571.0729      284.43668      850.39141      3840.7412      0.99696119
   1310000  -1315.9803      253.39861     -1569.379       333.37248     -1172.7671      3840.7412      0.99696119
   1311000  -1352.0491      212.89724     -1564.9463      280.08868     -1212.1         3840.7412      0.99696119
   1312000  -1368.9722      218.43013     -1587.4023      287.36777     -715.8699       3840.7412      0.99696119
   1313000  -1357.9448      221.40578     -1579.3506      291.28255     -1146.4468      3840.7412      0.99696119
   1314000  -1350.7086      233.75277     -1584.4614      307.52632     -371.86629      3840.7412      0.99696119
   1315000  -1362.9336      227.37235     -1590.3059      299.13221      250.55883      3840.7412      0.99696119
   1316000  -1342.4909      208.57008     -1551.0609      274.39584     -110.15157      3840.7412      0.99696119
   1317000  -1326.8926      234.21197     -1561.1045      308.13044      105.91962      3840.7412      0.99696119
   1318000  -1353.02        208.85873     -1561.8787      274.77559     -904.40293      3840.7412      0.99696119
   1319000  -1353.9682      224.61717     -1578.5854      295.50748      141.72521      3840.7412      0.99696119
   1320000  -1377.208       212.60252     -1589.8105      279.70093      131.13995      3840.7412      0.99696119
   1321000  -1364.7361      216.89285     -1581.6289      285.34532     -1177.3541      3840.7412      0.99696119
   1322000  -1387.3092      218.3882      -1605.6974      287.31261     -913.85413      3840.7412      0.99696119
   1323000  -1334.9806      231.66429     -1566.6449      304.7787      -1844.8459      3840.7412      0.99696119
   1324000  -1357.1192      205.79294     -1562.9122      270.74223     -1868.1004      3840.7412      0.99696119
   1325000  -1332.8084      217.12525     -1549.9337      285.65107      1611.532       3840.7412      0.99696119
   1326000  -1291.696       239.75165     -1531.4477      315.41847     -175.19556      3840.7412      0.99696119
   1327000  -1326.9129      213.44693     -1540.3598      280.81186      1675.0052      3840.7412      0.99696119
   1328000  -1342.0552      219.89023     -1561.9454      289.28869      471.10063      3840.7412      0.99696119
   1329000  -1294.029       249.8779      -1543.9069      328.74062     -281.42708      3840.7412      0.99696119
   1330000  -1335.8982      214.71574     -1550.6139      282.48111     -3477.0512      3840.7412      0.99696119
   1331000  -1319.3889      226.51274     -1545.9016      298.0013      -1183.1342      3840.7412      0.99696119
   1332000  -1351.4306      220.48234     -1571.913       290.06767     -64.048958      3840.7412      0.99696119
   1333000  -1342.1223      249.75511     -1591.8774      328.57908     -980.07518      3840.7412      0.99696119
   1334000  -1325.3395      240.52435     -1565.8639      316.43504     -421.18938      3840.7412      0.99696119
   1335000  -1308.4189      240.14866     -1548.5676      315.94078     -1810.4918      3840.7412      0.99696119
   1336000  -1385.0324      209.62732     -1594.6597      275.78675     -331.50849      3840.7412      0.99696119
   1337000  -1330.2158      240.52403     -1570.7399      316.43462     -2429.2163      3840.7412      0.99696119
   1338000  -1309.0716      244.21077     -1553.2823      321.28492      597.4048       3840.7412      0.99696119
   1339000  -1324.8229      232.9729      -1557.7958      306.50032      368.48555      3840.7412      0.99696119
   1340000  -1317.7245      229.95265     -1547.6772      302.52686     -2570.6992      3840.7412      0.99696119
   1341000  -1364.6504      222.25203     -1586.9024      292.39588     -732.89554      3840.7412      0.99696119
   1342000  -1328.2404      232.96696     -1561.2073      306.4925       540.01285      3840.7412      0.99696119
   1343000  -1339.9662      228.02091     -1567.9871      299.98545      966.92558      3840.7412      0.99696119
   1344000  -1332.4556      246.07843     -1578.534       323.74202     -117.5073       3840.7412      0.99696119
   1345000  -1266.8752      250.23099     -1517.1062      329.20515      1098.4318      3840.7412      0.99696119
   1346000  -1326.7856      215.47935     -1542.265       283.48571     -409.62908      3840.7412      0.99696119
   1347000  -1329.6331      219.67765     -1549.3108      289.00901     -3028.8598      3840.7412      0.99696119
   1348000  -1328.0344      223.8834      -1551.9178      294.54212     -1238.091       3840.7412      0.99696119
   1349000  -1309.4361      233.42896     -1542.865       307.10031     -2649.2645      3840.7412      0.99696119
   1350000  -1316.6337      231.09717     -1547.7309      304.03259     -250.56584      3840.7412      0.99696119
   1351000  -1309.9087      228.5205      -1538.4292      300.64271     -1020.7203      3840.7412      0.99696119
   1352000  -1316.9845      233.49885     -1550.4833      307.19226     -2055.6975      3840.7412      0.99696119
   1353000  -1311.6641      224.00501     -1535.6691      294.70212      133.6009       3840.7412      0.99696119
   1354000  -1323.7913      217.32952     -1541.1209      285.91981     -2516.7511      3840.7412      0.99696119
   1355000  -1328.0272      232.65685     -1560.684       306.08451     -542.10472      3840.7412      0.99696119
   1356000  -1373.0469      198.91288     -1571.9598      261.69078     -1908.8263      3840.7412      0.99696119
   1357000  -1377.4159      215.63172     -1593.0476      283.68617     -955.8173       3840.7412      0.99696119
   1358000  -1332.979       227.37063     -1560.3496      299.12994     -578.26984      3840.7412      0.99696119
   1359000  -1333.1724      214.85943     -1548.0319      282.67015     -780.52662      3840.7412      0.99696119
   1360000  -1361.9841      210.15195     -1572.136       276.47696     -101.31278      3840.7412      0.99696119
   1361000  -1343.0379      225.48438     -1568.5222      296.64838     -454.97023      3840.7412      0.99696119
   1362000  -1378.3423      217.89645     -1596.2388      286.66566     -39.981308      3840.7412      0.99696119
   1363000  -1337.6473      225.86889     -1563.5162      297.15425      418.31796      3840.7412      0.99696119
   1364000  -1353.2602      235.37006     -1588.6303      309.65403     -1502.895       3840.7412      0.99696119
   1365000  -1359.627       211.46681     -1571.0938      278.20679     -1895.2504      3840.7412      0.99696119
   1366000  -1372.7956      197.93317     -1570.7288      260.40187     -453.84973      3840.7412      0.99696119
   1367000  -1365.3548      226.75878     -1592.1136      298.32499     -337.71341      3840.7412      0.99696119
   1368000  -1358.5345      215.92551     -1574.46        284.07268     -310.43979      3840.7412      0.99696119
   1369000  -1403.2185      204.80169     -1608.0202      269.43813      527.61256      3840.7412      0.99696119
   1370000  -1364.4177      231.76466     -1596.1824      304.91075     -1409.7098      3840.7412      0.99696119
   1371000  -1390.5652      218.1293      -1608.6945      286.972       -1416.0936      3840.7412      0.99696119
   1372000  -1347.5835      230.36966     -1577.9532      303.07547     -1373.1754      3840.7412      0.99696119
   1373000  -1382.1594      220.42957     -1602.5889      289.99825      198.71809      3840.7412      0.99696119
   1374000  -1363.3984      233.4605      -1596.8589      307.14181      194.12499      3840.7412      0.99696119
   1375000  -1345.8145      240.24895     -1586.0635      316.07272     -857.12429      3840.7412      0.99696119
   1376000  -1379.3527      229.47207     -1608.8247      301.8946       2146.4443      3840.7412      0.99696119
   1377000  -1361.4421      219.52745     -1580.9696      288.81141     -763.38399      3840.7412      0.99696119
   1378000  -1318.1244      238.55494     -1556.6793      313.84407      470.46759      3840.7412      0.99696119
   1379000  -1352.935       230.12426     -1583.0593      302.75263     -918.12087      3840.7412      0.99696119
   1380000  -1324.2453      235.13922     -1559.3845      309.35033     -302.63675      3840.7412      0.99696119
   1381000  -1333.1333      219.75353     -1552.8868      289.10885     -978.08525      3840.7412      0.99696119
   1382000  -1283.799       247.25652     -1531.0555      325.29192     -1867.5282      3840.7412      0.99696119
   1383000  -1349.2315      235.70529     -1584.9368      310.09506     -862.41262      3840.7412      0.99696119
   1384000  -1338.5434      214.62467     -1553.168       282.36129      628.00154      3840.7412      0.99696119
   1385000  -1314.2669      243.96713     -1558.2341      320.96438      1880.159       3840.7412      0.99696119
   1386000  -1349.6316      228.61064     -1578.2422      300.7613      -2853.7346      3840.7412      0.99696119
   1387000  -1342.0759      229.6762      -1571.7521      302.16315     -1128.5092      3840.7412      0.99696119
   1388000  -1318.8674      222.56852     -1541.4359      292.81226     -432.36098      3840.7412      0.99696119
   1389000  -1311.1454      226.76138     -1537.9068      298.32841     -1916.4148      3840.7412      0.99696119
   1390000  -1351.8552      217.69471     -1569.55        286.40025      378.51029      3840.7412      0.99696119
   1391000  -1326.0413      223.71973     -1549.7611      294.3268      -2296.0414      3840.7412      0.99696119
   1392000  -1341.9505      232.41017     -1574.3607      305.75999     -103.94934      3840.7412      0.99696119
   1393000  -1305.2822      235.95949     -1541.2417      310.42949     -277.80014      3840.7412      0.99696119
   1394000  -1352.9382      221.55558     -1574.4938      291.47963     -487.81134      3840.7412      0.99696119
   1395000  -1321.675       215.95085     -1537.6258      284.10601     -926.66204      3840.7412      0.99696119
   1396000  -1327.363       223.52313     -1550.8861      294.06815     -1285.0697      3840.7412      0.99696119
   1397000  -1332.9843      224.43053     -1557.4148      295.26193     -1048.7592      3840.7412      0.99696119
   1398000  -1328.6166      232.90777     -1561.5244      306.41462     -258.69851      3840.7412      0.99696119
   1399000  -1323.5294      235.25033     -1558.7797      309.49651     -600.39176      3840.7412      0.99696119
   1400000  -1275.0492      234.35021     -1509.3994      308.31231     -1305.5714      3840.7412      0.99696119
   1401000  -1362.1835      218.95945     -1581.143       288.06415     -1131.7982      3840.7412      0.99696119
   1402000  -1354.7525      227.73356     -1582.4861      299.60742     -1885.6253      3840.7412      0.99696119
   1403000  -1322.5003      230.99754     -1553.4978      303.90153     -3073.4637      3840.7412      0.99696119
   1404000  -1331.9828      231.22584     -1563.2087      304.20187      867.04211      3840.7412      0.99696119
   1405000  -1370.5615      221.90454     -1592.466       291.93872     -1034.3833      3840.7412      0.99696119
   1406000  -1357.669       228.79724     -1586.4662      301.00679     -419.29637      3840.7412      0.99696119
   1407000  -1353.0087      225.72996     -1578.7386      296.97147      397.12276      3840.7412      0.99696119
   1408000  -1342.3424      239.71679     -1582.0592      315.37261      711.44876      3840.7412      0.99696119
   1409000  -1344.1784      209.92364     -1554.102       276.17659     -697.70723      3840.7412      0.99696119
   1410000  -1376.4559      207.13821     -1583.5941      272.51206     -387.436        3840.7412      0.99696119
   1411000  -1360.7664      213.75172     -1574.5181      281.21283      992.14966      3840.7412      0.99696119
   1412000  -1324.4785      227.35997     -1551.8385      299.11592      410.42479      3840.7412      0.99696119
   1413000  -1351.563       232.25249     -1583.8155      305.55254     -989.41912      3840.7412      0.99696119
   1414000  -1344.2379      227.36312     -1571.6011      299.12006      2098.8553      3840.7412      0.99696119
   1415000  -1335.6175      221.12595     -1556.7435      290.9144      -468.28458      3840.7412      0.99696119
   1416000  -1333.2408      229.64009     -1562.8809      302.11565      697.57484      3840.7412      0.99696119
   1417000  -1374.0769      235.7544      -1609.8313      310.15967      1597.7544      3840.7412      0.99696119
   1418000  -1374.5375      213.77215     -1588.3096      281.23971     -764.42456      3840.7412      0.99696119
   1419000  -1353.6355      229.53131     -1583.1668      301.97254      57.671223      3840.7412      0.99696119
   1420000  -1307.1654      231.24275     -1538.4082      304.22412      79.600212      3840.7412      0.99696119
   1421000  -1360.8849      223.04643     -1583.9314      293.441        1493.4681      3840.7412      0.99696119
   1422000  -1364.8363      232.70592     -1597.5422      306.14908      391.68295      3840.7412      0.99696119
   1423000  -1340.4138      231.92807     -1572.3419      305.12573     -1594.3848      3840.7412      0.99696119
   1424000  -1352.7271      217.1151      -1569.8422      285.63771     -52.518649      3840.7412      0.99696119
   1425000  -1348.3839      205.46294     -1553.8469      270.30807      843.10373      3840.7412      0.99696119
   1426000  -1332.1559      228.45528     -1560.6112      300.55691      153.4          3840.7412      0.99696119
   1427000  -1348.4288      222.28808     -1570.7169      292.44331     -52.274782      3840.7412      0.99696119
   1428000  -1361.1928      228.83526     -1590.0281      301.05682     -99.269366      3840.7412      0.99696119
   1429000  -1367.6287      223.83381     -1591.4625      294.47688     -874.11589      3840.7412      0.99696119
   1430000  -1317.5913      240.91369     -1558.505       316.94726     -2833.6748      3840.7412      0.99696119
   1431000  -1326.9486      224.55571     -1551.5043      295.42662     -1766.6977      3840.7412      0.99696119
   1432000  -1342.4871      223.76391     -1566.251       294.38492      318.62579      3840.7412      0.99696119
   1433000  -1324.7725      231.29427     -1556.0668      304.2919       206.91293      3840.7412      0.99696119
   1434000  -1330.2282      234.27014     -1564.4984      308.20696     -1038.4708      3840.7412      0.99696119
   1435000  -1358.7573      213.4821      -1572.2394      280.85812     -2003.3571      3840.7412      0.99696119
   1436000  -1340.1         215.31119     -1555.4111      283.26448     -46.947526      3840.7412      0.99696119
   1437000  -1348.8636      211.77826     -1560.6419      278.61654     -433.63523      3840.7412      0.99696119
   1438000  -1316.9329      230.3041      -1547.237       302.98923      138.8331       3840.7412      0.99696119
   1439000  -1340.5367      216.30041     -1556.8371      284.5659      -830.65388      3840.7412      0.99696119
   1440000  -1356.3751      206.61462     -1562.9898      271.82323     -521.61385      3840.7412      0.99696119
   1441000  -1367.7154      214.62599     -1582.3414      282.36303      1628.8434      3840.7412      0.99696119
   1442000  -1336.2592      251.04461     -1587.3038      330.27555     -1988.5911      3840.7412      0.99696119
   1443000  -1288.0269      242.75867     -1530.7856      319.37453     -711.92388      3840.7412      0.99696119
   1444000  -1334.0931      216.20928     -1550.3024      284.44601     -1264.5152      3840.7412      0.99696119
   1445000  -1362.6389      209.67987     -1572.3188      275.85589     -623.78963      3840.7412      0.99696119
   1446000  -1325.3841      223.45414     -1548.8383      293.97739     -1765.9093      3840.7412      0.99696119
   1447000  -1324.178       229.45164     -1553.6296      301.86772      1534.0363      3840.7412      0.99696119
   1448000  -1347.6665      213.62092     -1561.2875      281.04075     -329.4181       3840.7412      0.99696119
   1449000  -1350.0855      235.99598     -1586.0815      310.4775      -500.34393      3840.7412      0.99696119
   1450000  -1356.2359      233.72124     -1589.9571      307.48483      545.28961      3840.7412      0.99696119
   1451000  -1365.7075      217.21641     -1582.9239      285.771        338.78697      3840.7412      0.99696119
   1452000  -1332.6702      228.25939     -1560.9296      300.29919     -691.81885      3840.7412      0.99696119
   1453000  -1359.6999      233.04909     -1592.749       306.60055     -1896.1338      3840.7412      0.99696119
   1454000  -1347.9227      232.1492      -1580.0719      305.41666     -59.517212      3840.7412      0.99696119
   1455000  -1342.9391      221.20791     -1564.147       291.02223     -701.60264      3840.7412      0.99696119
   1456000  -1352.5083      230.35202     -1582.8604      303.05227      974.77675      3840.7412      0.99696119
   1457000  -1332.1636      231.05012     -1563.2138      303.9707       1136.2011      3840.7412      0.99696119
   1458000  -1350.7454      202.9519      -1553.6973      267.00453      1089.0073      3840.7412      0.99696119
   1459000  -1330.6565      238.97795     -1569.6345      314.40059     -2212.6856      3840.7412      0.99696119
   1460000  -1274.2588      248.98443     -1523.2432      327.56516     -345.06154      3840.7412      0.99696119
   1461000  -1315.7278      245.89585     -1561.6236      323.50181     -1190.509       3840.7412      0.99696119
   1462000  -1352.1107      222.10041     -1574.2111      292.19641      381.18221      3840.7412      0.99696119
   1463000  -1328.703       246.53599     -1575.239       324.34398     -1204.1881      3840.7412      0.99696119
   1464000  -1339.6645      247.20811     -1586.8726      325.22823     -588.51         3840.7412      0.99696119
   1465000  -1310.8821      238.4664      -1549.3485      313.72759     -819.50982      3840.7412      0.99696119
   1466000  -1360.1139      193.34599     -1553.4599      254.36695     -1984.8805      3840.7412      0.99696119
   1467000  -1345.3301      208.81173     -1554.1418      274.71376      89.299479      3840.7412      0.99696119
   1468000  -1356.7687      224.71107     -1581.4797      295.63101     -1507.2982      3840.7412      0.99696119
   1469000  -1354.5951      245.24971     -1599.8448      322.65174     -549.43232      3840.7412      0.99696119
   1470000  -1344.0527      239.89627     -1583.949       315.60873     -1043.0039      3840.7412      0.99696119
   1471000  -1361.7013      227.00262     -1588.7039      298.64578     -147.01073      3840.7412      0.99696119
   1472000  -1340.9998      216.36761     -1557.3675      284.65431      526.57556      3840.7412      0.99696119
   1473000  -1344.3623      222.2172      -1566.5795      292.35007     -2579.4814      3840.7412      0.99696119
   1474000  -1289.1424      247.27033     -1536.4127      325.31009     -2556.8297      3840.7412      0.99696119
   1475000  -1352.4183      204.16456     -1556.5828      268.59992     -1172.5976      3840.7412      0.99696119
   1476000  -1305.3528      249.64968     -1555.0025      328.44036     -2558.7192      3840.7412      0.99696119
   1477000  -1310.0357      237.72267     -1547.7584      312.74913      856.02993      3840.7412      0.99696119
   1478000  -1351.5605      231.75502     -1583.3156      304.89806     -1396.3859      3840.7412      0.99696119
   1479000  -1330.8593      245.8573      -1576.7166      323.4511       527.80488      3840.7412      0.99696119
   1480000  -1370.1924      223.70571     -1593.8981      294.30835      494.78175      3840.7412      0.99696119
   1481000  -1369.9658      216.01234     -1585.9782      284.18692     -287.23239      3840.7412      0.99696119
   1482000  -1329.7637      219.08768     -1548.8514      288.23284     -1382.7048      3840.7412      0.99696119
   1483000  -1333.7973      227.18588     -1560.9831      298.88688     -506.28886      3840.7412      0.99696119
   1484000  -1335.4346      233.64411     -1569.0787      307.38336     -1326.1194      3840.7412      0.99696119
   1485000  -1349.0424      229.38061     -1578.423       301.77428     -890.94782      3840.7412      0.99696119
   1486000  -1332.4299      219.00209     -1551.432       288.12024     -1509.6073      3840.7412      0.99696119
   1487000  -1328.8395      227.68059     -1556.5201      299.53773     -1432.8567      3840.7412      0.99696119
   1488000  -1364.0654      212.898       -1576.9634      280.08967     -1799.2376      3840.7412      0.99696119
   1489000  -1337.4734      226.5618      -1564.0352      298.06584     -2047.2424      3840.7412      0.99696119
   1490000  -1334.1729      242.64796     -1576.8208      319.22887     -1236.0721      3840.7412      0.99696119
   1491000  -1317.0343      249.19873     -1566.2331      327.8471      -2699.9395      3840.7412      0.99696119
   1492000  -1356.5207      219.49447     -1576.0152      288.76802     -2142.2926      3840.7412      0.99696119
   1493000  -1357.9246      230.76658     -1588.6911      303.59767     -1709.5308      3840.7412      0.99696119
   1494000  -1376.1814      211.78967     -1587.9711      278.63155     -5.4782265      3840.7412      0.99696119
   1495000  -1357.6769      225.91361     -1583.5905      297.21307      275.09403      3840.7412      0.99696119
   1496000  -1328.8585      218.24732     -1547.1059      287.12727     -2269.1936      3840.7412      0.99696119
   1497000  -1350.8125      236.68562     -1587.4981      311.38478     -1165.5307      3840.7412      0.99696119
   1498000  -1356.2707      228.47305     -1584.7437      300.58029      622.86255      3840.7412      0.99696119
   1499000  -1344.1391      213.38922     -1557.5283      280.73592      1271.8509      3840.7412      0.99696119
   1500000  -1330.3562      245.03232     -1575.3885      322.36575     -215.94018      3840.7412      0.99696119
   1501000  -1348.1697      232.26367     -1580.4334      305.56725     -1196.0435      3840.7412      0.99696119
   1502000  -1364.4717      217.46565     -1581.9373      286.0989       807.64271      3840.7412      0.99696119
   1503000  -1369.317       223.56406     -1592.8811      294.122       -1734.4936      3840.7412      0.99696119
   1504000  -1375.9608      220.05517     -1596.016       289.50568      1139.0339      3840.7412      0.99696119
   1505000  -1338.6511      212.14542     -1550.7965      279.09957     -919.27901      3840.7412      0.99696119
   1506000  -1336.4676      246.75099     -1583.2186      324.62684     -2164.3146      3840.7412      0.99696119
   1507000  -1291.6107      226.15891     -1517.7696      297.53579     -913.8568       3840.7412      0.99696119
   1508000  -1337.1017      239.7143      -1576.816       315.36934     -1132.9959      3840.7412      0.99696119
   1509000  -1358.1883      216.35704     -1574.5454      284.6404      -923.01703      3840.7412      0.99696119
   1510000  -1343.8525      231.62666     -1575.4792      304.72919     -941.55571      3840.7412      0.99696119
   1511000  -1362.4808      216.79549     -1579.2763      285.21723     -500.60714      3840.7412      0.99696119
   1512000  -1370.4845      229.7868      -1600.2713      302.30866     -172.88144      3840.7412      0.99696119
   1513000  -1361.1986      211.28007     -1572.4786      277.96111     -2298.0187      3840.7412      0.99696119
   1514000  -1347.4375      224.87144     -1572.3089      295.84199     -1295.596       3840.7412      0.99696119
   1515000  -1309.7834      242.53361     -1552.317       319.07843      327.11279      3840.7412      0.99696119
   1516000  -1320.8307      234.30481     -1555.1355      308.25258     -2178.4201      3840.7412      0.99696119
   1517000  -1331.4632      226.96734     -1558.4305      298.59937     -1928.1889      3840.7412      0.99696119
   1518000  -1335.2423      223.17122     -1558.4135      293.60517     -725.46208      3840.7412      0.99696119
   1519000  -1340.9682      226.04794     -1567.0162      297.38981     -2011.6609      3840.7412      0.99696119
   1520000  -1319.1723      218.67008     -1537.8423      287.68346     -2661.1742      3840.7412      0.99696119
   1521000  -1306.6964      243.75967     -1550.4561      320.69144      248.76861      3840.7412      0.99696119
   1522000  -1303.2386      246.85372     -1550.0923      324.76199     -613.49638      3840.7412      0.99696119
   1523000  -1333.7751      223.64372     -1557.4188      294.2268      -1492.0841      3840.7412      0.99696119
   1524000  -1315.4684      222.79022     -1538.2587      293.10393     -1218.8955      3840.7412      0.99696119
   1525000  -1344.6696      204.59247     -1549.2621      269.16288     -546.11075      3840.7412      0.99696119
   1526000  -1354.762       212.87999     -1567.642       280.06599     -311.32022      3840.7412      0.99696119
   1527000  -1319.4562      230.7602      -1550.2164      303.58927      100.20355      3840.7412      0.99696119
   1528000  -1334.7802      220.12741     -1554.9076      289.60072     -467.10198      3840.7412      0.99696119
   1529000  -1327.949       218.0684      -1546.0174      286.89188     -1472.8722      3840.7412      0.99696119
   1530000  -1328.8829      219.61412     -1548.497       288.92544     -963.66176      3840.7412      0.99696119
   1531000  -1346.0113      197.89798     -1543.9093      260.35558     -2251.1985      3840.7412      0.99696119
   1532000  -1325.5193      244.09629     -1569.6155      321.1343       253.84771      3840.7412      0.99696119
   1533000  -1342.1705      231.11992     -1573.2904      304.06253     -2171.1719      3840.7412      0.99696119
   1534000  -1300.6055      226.66306     -1527.2686      298.19905     -635.71804      3840.7412      0.99696119
   1535000  -1305.0455      245.97645     -1551.0219      323.60785      1151.9599      3840.7412      0.99696119
   1536000  -1314.6465      234.1797      -1548.8262      308.08798     -2375.9668      3840.7412      0.99696119
   1537000  -1341.792       204.39947     -1546.1914      268.90897     -1327.5695      3840.7412      0.99696119
   1538000  -1322.2334      238.52246     -1560.7558      313.80134     -747.1296       3840.7412      0.99696119
   1539000  -1336.1031      219.06101     -1555.1641      288.19777      791.22966      3840.7412      0.99696119
   1540000  -1326.4037      241.06169     -1567.4654      317.14196      1335.3374      3840.7412      0.99696119
   1541000  -1337.868       232.19579     -1570.0638      305.47795      267.18231      3840.7412      0.99696119
   1542000  -1337.9644      223.20904     -1561.1735      293.65493     -1026.6581      3840.7412      0.99696119
   1543000  -1325.8148      247.3728      -1573.1876      325.4449       83.115011      3840.7412      0.99696119
   1544000  -1315.0974      244.67493     -1559.7724      321.89557     -1098.986       3840.7412      0.99696119
   1545000  -1339.7336      240.31312     -1580.0467      316.15715     -560.53666      3840.7412      0.99696119
   1546000  -1346.4239      230.41434     -1576.8382      303.13426      537.60435      3840.7412      0.99696119
   1547000  -1378.6501      217.17484     -1595.8249      285.71631     -1075.3204      3840.7412      0.99696119
   1548000  -1352.5891      223.91621     -1576.5053      294.58529      475.08463      3840.7412      0.99696119
   1549000  -1316.8946      223.15412     -1540.0487      293.58268     -1402.9995      3840.7412      0.99696119
   1550000  -1353.2105      236.32185     -1589.5323      310.90621      1453.5391      3840.7412      0.99696119
   1551000  -1341.245       249.10283     -1590.3478      327.72093     -110.50736      3840.7412      0.99696119
   1552000  -1353.0496      220.78648     -1573.836       290.4678       1114.0616      3840.7412      0.99696119
   1553000  -1348.3218      216.50506     -1564.8269      284.83514     -483.3299       3840.7412      0.99696119
   1554000  -1315.8571      227.54105     -1543.3981      299.35415     -3240.6131      3840.7412      0.99696119
   1555000  -1332.6499      211.99653     -1544.6464      278.9037      -1131.2481      3840.7412      0.99696119
   1556000  -1345.3065      221.84681     -1567.1533      291.86278     -447.81389      3840.7412      0.99696119
   1557000  -1365.2585      219.12549     -1584.384       288.2826      -438.92359      3840.7412      0.99696119
   1558000  -1356.1993      231.6069      -1587.8062      304.7032       308.08723      3840.7412      0.99696119
   1559000  -1346.5316      206.17804     -1552.7096      271.24886     -173.93202      3840.7412      0.99696119
   1560000  -1326.5992      219.31204     -1545.9112      288.52802     -842.15439      3840.7412      0.99696119
   1561000  -1360.4334      220.06967     -1580.5031      289.52475     -2883.6498      3840.7412      0.99696119
   1562000  -1320.4027      233.52438     -1553.9271      307.22584     -621.50896      3840.7412      0.99696119
   1563000  -1365.0184      211.05468     -1576.0731      277.6646       636.84913      3840.7412      0.99696119
   1564000  -1317.6856      256.97647     -1574.6621      338.07953     -930.95754      3840.7412      0.99696119
   1565000  -1347.2532      248.79138     -1596.0446      327.31119     -1645.4047      3840.7412      0.99696119
   1566000  -1295.9023      274.24536     -1570.1477      360.79857     -250.18093      3840.7412      0.99696119
   1567000  -1364.9411      228.61827     -1593.5594      300.77134     -1838.9806      3840.7412      0.99696119
   1568000  -1348.5706      248.17677     -1596.7474      326.50261     -2160.2346      3840.7412      0.99696119
   1569000  -1329.925       234.0723      -1563.9973      307.94668     -1077.0878      3840.7412      0.99696119
   1570000  -1287.1662      246.2294      -1533.3956      323.94063      1778.9309      3840.7412      0.99696119
   1571000  -1334.3708      251.25443     -1585.6253      330.55159      651.16995      3840.7412      0.99696119
   1572000  -1357.5296      223.15741     -1580.687       293.587        1219.2238      3840.7412      0.99696119
   1573000  -1368.2159      216.02001     -1584.2359      284.19701     -1332.0796      3840.7412      0.99696119
   1574000  -1348.873       222.82972     -1571.7028      293.15589     -1660.7047      3840.7412      0.99696119
   1575000  -1314.3193      233.20608     -1547.5254      306.80708     -1066.1119      3840.7412      0.99696119
   1576000  -1354.2111      229.17121     -1583.3824      301.49879     -819.6436       3840.7412      0.99696119
   1577000  -1343.7755      244.93261     -1588.7081      322.23457      672.97409      3840.7412      0.99696119
   1578000  -1338.8128      216.61859     -1555.4314      284.9845       1422.754       3840.7412      0.99696119
   1579000  -1328.9665      224.2217      -1553.1882      294.98719      1968.7448      3840.7412      0.99696119
   1580000  -1347.8202      231.14691     -1578.9672      304.09803      325.86675      3840.7412      0.99696119
   1581000  -1292.5899      226.00317     -1518.593       297.33091     -886.35184      3840.7412      0.99696119
   1582000  -1314.4016      227.65856     -1542.0601      299.50874     -1714.868       3840.7412      0.99696119
   1583000  -1346.7103      231.06109     -1577.7714      303.98513      610.06605      3840.7412      0.99696119
   1584000  -1324.1598      231.99037     -1556.1502      305.20769     -567.50296      3840.7412      0.99696119
   1585000  -1339.1032      214.14388     -1553.2471      281.72876     -1247.8228      3840.7412      0.99696119
   1586000  -1306.0534      211.29188     -1517.3452      277.97666      443.31392      3840.7412      0.99696119
   1587000  -1257.1506      228.78021     -1485.9308      300.98439     -1460.1502      3840.7412      0.99696119
   1588000  -1338.0306      207.53898     -1545.5696      273.03932     -1923.0161      3840.7412      0.99696119
   1589000  -1306.9922      235.21549     -1542.2077      309.45068     -346.97004      3840.7412      0.99696119
   1590000  -1331.0999      241.19859     -1572.2985      317.32207     -1776.3494      3840.7412      0.99696119
   1591000  -1307.4363      216.2232      -1523.6595      284.46433      1130.3439      3840.7412      0.99696119
   1592000  -1366.4         229.10603     -1595.5061      301.41304      2190.7001      3840.7412      0.99696119
   1593000  -1350.6307      232.2979      -1582.9286      305.61228      629.57272      3840.7412      0.99696119
   1594000  -1320.5869      233.20692     -1553.7938      306.8082       391.57766      3840.7412      0.99696119
   1595000  -1345.4854      214.56746     -1560.0528      282.28602      490.73763      3840.7412      0.99696119
   1596000  -1320.3891      234.26369     -1554.6528      308.19849     -887.90946      3840.7412      0.99696119
   1597000  -1337.6014      223.85589     -1561.4573      294.50593     -2417.1398      3840.7412      0.99696119
   1598000  -1329.0153      227.63341     -1556.6487      299.47566     -1307.5233      3840.7412      0.99696119
   1599000  -1358.6829      217.09782     -1575.7807      285.61498     -280.17578      3840.7412      0.99696119
   1600000  -1360.3187      222.57387     -1582.8926      292.8193       201.6668       3840.7412      0.99696119
   1601000  -1358.0545      231.22482     -1589.2793      304.20053      1117.6587      3840.7412      0.99696119
   1602000  -1353.1341      245.39495     -1598.529       322.84282     -396.99165      3840.7412      0.99696119
   1603000  -1380.5308      225.22418     -1605.755       296.30605      936.93008      3840.7412      0.99696119
   1604000  -1335.2061      212.7237      -1547.9298      279.86036     -1655.7216      3840.7412      0.99696119
   1605000  -1340.7543      224.51417     -1565.2685      295.37197     -1932.5519      3840.7412      0.99696119
   1606000  -1335.368       215.39407     -1550.7621      283.37352     -547.58546      3840.7412      0.99696119
   1607000  -1367.5707      227.60776     -1595.1785      299.44191      106.12378      3840.7412      0.99696119
   1608000  -1323.5053      227.03619     -1550.5415      298.68995      2316.5929      3840.7412      0.99696119
   1609000  -1308.9102      228.13119     -1537.0414      300.13054     -2364.2248      3840.7412      0.99696119
   1610000  -1368.199       211.16443     -1579.3635      277.80898     -2486.0875      3840.7412      0.99696119
   1611000  -1292.1059      255.94013     -1548.046       336.71612     -172.57493      3840.7412      0.99696119
   1612000  -1346.7358      231.17873     -1577.9145      304.13989     -1839.6875      3840.7412      0.99696119
   1613000  -1362.5497      214.63109     -1577.1808      282.36974      924.24725      3840.7412      0.99696119
   1614000  -1340.2978      225.24528     -1565.5431      296.33382      1753.5033      3840.7412      0.99696119
   1615000  -1351.8503      213.84944     -1565.6997      281.34139     -1451.3335      3840.7412      0.99696119
   1616000  -1339.501       235.49733     -1574.9983      309.82147     -658.38203      3840.7412      0.99696119
   1617000  -1346.8526      222.16881     -1569.0214      292.2864      -452.95773      3840.7412      0.99696119
   1618000  -1360.1207      214.56682     -1574.6875      282.28518     -738.40344      3840.7412      0.99696119
   1619000  -1341.8639      219.33137     -1561.1953      288.55345     -1703.8889      3840.7412      0.99696119
   1620000  -1374.3343      227.0836      -1601.4179      298.75233     -181.88165      3840.7412      0.99696119
   1621000  -1352.3215      217.513       -1569.8345      286.16119      519.09907      3840.7412      0.99696119
   1622000  -1358.484       213.83905     -1572.3231      281.32772     -1590.2325      3840.7412      0.99696119
   1623000  -1350.4518      243.93045     -1594.3822      320.91612     -354.46844      3840.7412      0.99696119
   1624000  -1317           218.50592     -1535.5059      287.46749     -1048.0305      3840.7412      0.99696119
   1625000  -1321.9387      218.85891     -1540.7976      287.93187      485.45886      3840.7412      0.99696119
   1626000  -1329.1204      204.18104     -1533.3015      268.6216      -1229.2005      3840.7412      0.99696119
   1627000  -1317.4206      239.1954      -1556.616       314.68667     -1422.2552      3840.7412      0.99696119
   1628000  -1294.7377      245.54783     -1540.2855      323.04396      1706.809       3840.7412      0.99696119
   1629000  -1349.044       230.52694     -1579.571       303.2824      -1172.2398      3840.7412      0.99696119
   1630000  -1316.7548      238.62678     -1555.3816      313.93858      394.72177      3840.7412      0.99696119
   1631000  -1298.9832      233.32872     -1532.3119      306.96843     -2415.2082      3840.7412      0.99696119
   1632000  -1336.0792      219.83051     -1555.9097      289.21012     -2684.9501      3840.7412      0.99696119
   1633000  -1353.0517      229.4526      -1582.5043      301.86899     -2635.6944      3840.7412      0.99696119
   1634000  -1349.7576      220.25538     -1570.013       289.76908     -2165.6255      3840.7412      0.99696119
   1635000  -1330.4529      220.69419     -1551.1471      290.34639     -733.80031      3840.7412      0.99696119
   1636000  -1310.7153      228.08455     -1538.7999      300.06918     -1093.135       3840.7412      0.99696119
   1637000  -1339.8974      219.43891     -1559.3363      288.69492     -703.97677      3840.7412      0.99696119
   1638000  -1355.0704      231.9402      -1587.0106      305.14169     -2077.8443      3840.7412      0.99696119
   1639000  -1301.6576      238.95295     -1540.6106      314.3677      -1888.593       3840.7412      0.99696119
   1640000  -1340.4957      212.66234     -1553.158       279.77964     -879.99811      3840.7412      0.99696119
   1641000  -1296.8001      243.06873     -1539.8688      319.78243     -259.55578      3840.7412      0.99696119
   1642000  -1348.9501      222.41431     -1571.3644      292.60937     -551.56043      3840.7412      0.99696119
   1643000  -1322.0369      219.69856     -1541.7355      289.03652      487.80058      3840.7412      0.99696119
   1644000  -1358.673       221.9593      -1580.6323      292.01077      184.36003      3840.7412      0.99696119
   1645000  -1378.5574      238.38049     -1616.9379      313.61456     -2088.5572      3840.7412      0.99696119
   1646000  -1341.2965      231.82993     -1573.1265      304.99662      796.58736      3840.7412      0.99696119
   1647000  -1350.4742      232.06939     -1582.5436      305.31165     -3462.7296      3840.7412      0.99696119
   1648000  -1387.0796      211.27555     -1598.3551      277.95517     -1680.484       3840.7412      0.99696119
   1649000  -1355.5974      226.03301     -1581.6305      297.37016     -698.19764      3840.7412      0.99696119
   1650000  -1331.6992      228.25968     -1559.9589      300.29958      725.90302      3840.7412      0.99696119
   1651000  -1399.9037      218.86555     -1618.7693      287.94062     -835.03466      3840.7412      0.99696119
   1652000  -1327.4657      223.75886     -1551.2246      294.37828      1122.9762      3840.7412      0.99696119
   1653000  -1358.0403      233.5529      -1591.5932      307.26336     -1339.2236      3840.7412      0.99696119
   1654000  -1347.5873      251.82052     -1599.4078      331.29634     -3088.4654      3840.7412      0.99696119
   1655000  -1371.5589      211.1232      -1582.6821      277.75474     -558.07586      3840.7412      0.99696119
   1656000  -1326.2069      231.35443     -1557.5614      304.37105     -1296.5552      3840.7412      0.99696119
   1657000  -1354.5564      245.67764     -1600.2341      323.21473     -107.21028      3840.7412      0.99696119
   1658000  -1364.6718      219.32782     -1583.9997      288.54878     -276.19905      3840.7412      0.99696119
   1659000  -1351.9529      225.10194     -1577.0548      296.14524     -306.83794      3840.7412      0.99696119
   1660000  -1361.5732      220.66966     -1582.2428      290.31411      943.82897      3840.7412      0.99696119
   1661000  -1355.9775      228.84034     -1584.8178      301.06349     -1117.6565      3840.7412      0.99696119
   1662000  -1379.4392      197.82528     -1577.2644      260.25993     -1786.0712      3840.7412      0.99696119
   1663000  -1340.344       217.97035     -1558.3144      286.76288     -1003.9071      3840.7412      0.99696119
   1664000  -1334.1528      222.50236     -1556.6552      292.72522     -520.69279      3840.7412      0.99696119
   1665000  -1307.3798      246.84799     -1554.2278      324.75445     -488.17203      3840.7412      0.99696119
   1666000  -1344.5161      226.71406     -1571.2302      298.26616      537.72252      3840.7412      0.99696119
   1667000  -1355.8479      224.52637     -1580.3742      295.38802     -1068.6703      3840.7412      0.99696119
   1668000  -1343.1212      230.57191     -1573.6931      303.34155      568.4738       3840.7412      0.99696119
   1669000  -1350.5412      211.34938     -1561.8905      278.05231     -1724.4042      3840.7412      0.99696119
   1670000  -1337.4748      222.11594     -1559.5908      292.21684      664.98866      3840.7412      0.99696119
   1671000  -1364.1686      233.07931     -1597.248       306.64031      1160.2892      3840.7412      0.99696119
   1672000  -1378.7577      198.1374      -1576.8951      260.67055      510.31785      3840.7412      0.99696119
   1673000  -1342.0932      231.75961     -1573.8528      304.90411      179.46015      3840.7412      0.99696119
   1674000  -1316.8924      257.54509     -1574.4375      338.8276      -1640.9779      3840.7412      0.99696119
   1675000  -1324.3063      225.84469     -1550.151       297.12241     -558.93696      3840.7412      0.99696119
   1676000  -1344.2838      217.13695     -1561.4207      285.66646     -754.95546      3840.7412      0.99696119
   1677000  -1349.2782      237.1527      -1586.4309      311.99929     -933.48281      3840.7412      0.99696119
   1678000  -1351.8203      228.69557     -1580.5159      300.87303     -579.06267      3840.7412      0.99696119
   1679000  -1365.0715      224.21919     -1589.2907      294.98388     -490.20962      3840.7412      0.99696119
   1680000  -1373.9503      226.82668     -1600.777       298.41431      110.88408      3840.7412      0.99696119
   1681000  -1361.1496      218.06205     -1579.2117      286.88353     -1602.0458      3840.7412      0.99696119
   1682000  -1368.7747      224.13167     -1592.9064      294.86875     -889.62665      3840.7412      0.99696119
   1683000  -1364.8168      228.15384     -1592.9707      300.16033      55.382633      3840.7412      0.99696119
   1684000  -1358.9562      223.67224     -1582.6285      294.26432      1399.2369      3840.7412      0.99696119
   1685000  -1370.5623      214.84909     -1585.4114      282.65654     -254.15782      3840.7412      0.99696119
   1686000  -1338.8886      239.97867     -1578.8673      315.71713      1590.7958      3840.7412      0.99696119
   1687000  -1367.3552      219.74875     -1587.104       289.10256      724.07822      3840.7412      0.99696119
   1688000  -1338.5282      245.91786     -1584.4461      323.53077     -253.77406      3840.7412      0.99696119
   1689000  -1354.4815      220.03322     -1574.5147      289.4768      -268.42771      3840.7412      0.99696119
   1690000  -1350.4773      217.37465     -1567.8519      285.97917     -1189.6532      3840.7412      0.99696119
   1691000  -1319.6914      217.03105     -1536.7225      285.52714     -1086.4627      3840.7412      0.99696119
   1692000  -1343.4515      220.53386     -1563.9854      290.13544     -734.25104      3840.7412      0.99696119
   1693000  -1366.6026      223.59146     -1590.194       294.15805      65.001425      3840.7412      0.99696119
   1694000  -1332.1923      241.87598     -1574.0683      318.21324     -1632.0996      3840.7412      0.99696119
   1695000  -1358.8717      212.94662     -1571.8183      280.15364     -191.73051      3840.7412      0.99696119
   1696000  -1363.0816      217.2257      -1580.3073      285.78322     -1036.3537      3840.7412      0.99696119
   1697000  -1344.468       205.27816     -1549.7462      270.06497     -453.16215      3840.7412      0.99696119
   1698000  -1328.7294      234.86068     -1563.5901      308.98389     -493.32669      3840.7412      0.99696119
   1699000  -1315.1954      238.82424     -1554.0196      314.19836     -840.3533       3840.7412      0.99696119
   1700000  -1310.3637      222.0504      -1532.4141      292.13061      243.40139      3840.7412      0.99696119
   1701000  -1317.0103      217.94213     -1534.9524      286.72575     -925.06284      3840.7412      0.99696119
   1702000  -1302.3301      239.85374     -1542.1838      315.55278     -1128.752       3840.7412      0.99696119
   1703000  -1331.3632      230.81107     -1562.1742      303.6562      -942.62435      3840.7412      0.99696119
   1704000  -1337.672       219.19371     -1556.8657      288.37234      1126.8831      3840.7412      0.99696119
   1705000  -1336.679       228.7324      -1565.4114      300.92149     -1339.8925      3840.7412      0.99696119
   1706000  -1351.0879      236.94044     -1588.0284      311.72003     -835.07991      3840.7412      0.99696119
   1707000  -1312.9001      226.41129     -1539.3114      297.86783     -840.0371       3840.7412      0.99696119
   1708000  -1349.0418      216.44115     -1565.4829      284.75106     -631.47507      3840.7412      0.99696119
   1709000  -1332.7357      225.43711     -1558.1728      296.58619      2443.1466      3840.7412      0.99696119
   1710000  -1338.3229      222.81851     -1561.1414      293.14115      519.09038      3840.7412      0.99696119
   1711000  -1362.5051      216.52071     -1579.0258      284.85572     -572.65945      3840.7412      0.99696119
   1712000  -1360.9979      216.56095     -1577.5589      284.90868     -96.249702      3840.7412      0.99696119
   1713000  -1394.6708      212.84786     -1607.5186      280.02372      469.38762      3840.7412      0.99696119
   1714000  -1331.2032      223.0194      -1554.2226      293.40544     -1349.862       3840.7412      0.99696119
   1715000  -1321.4002      231.39086     -1552.7911      304.41898     -378.16214      3840.7412      0.99696119
   1716000  -1364.711       215.24355     -1579.9545      283.17549     -355.76065      3840.7412      0.99696119
   1717000  -1327.0411      232.85407     -1559.8952      306.34398     -922.41276      3840.7412      0.99696119
   1718000  -1316.6217      237.42014     -1554.0419      312.35113     -185.96726      3840.7412      0.99696119
   1719000  -1365.1406      220.61671     -1585.7573      290.24445     -2163.7038      3840.7412      0.99696119
   1720000  -1310.3199      230.6636      -1540.9835      303.46219     -1226.9089      3840.7412      0.99696119
   1721000  -1311.1675      227.136       -1538.3035      298.82126     -797.55122      3840.7412      0.99696119
   1722000  -1350.5526      236.35156     -1586.9042      310.94529     -2424.6556      3840.7412      0.99696119
   1723000  -1337.6613      209.1179      -1546.7792      275.11655      682.89088      3840.7412      0.99696119
   1724000  -1328.0331      226.19189     -1554.225       297.57919     -1202.7473      3840.7412      0.99696119
   1725000  -1341.9246      218.78927     -1560.7139      287.84026     -372.76152      3840.7412      0.99696119
   1726000  -1286.9513      251.37496     -1538.3262      330.71015      716.12931      3840.7412      0.99696119
   1727000  -1351.7349      222.89907     -1574.634       293.24713      884.42779      3840.7412      0.99696119
   1728000  -1375.02        218.35292     -1593.3729      287.26619     -2057.5432      3840.7412      0.99696119
   1729000  -1322.0124      244.9279      -1566.9403      322.22838     -381.10134      3840.7412      0.99696119
   1730000  -1300.8614      241.64502     -1542.5064      317.9094      -1455.43        3840.7412      0.99696119
   1731000  -1333.3872      214.27869     -1547.6659      281.90611     -661.11437      3840.7412      0.99696119
   1732000  -1316.2021      247.38706     -1563.5892      325.46366      653.96311      3840.7412      0.99696119
   1733000  -1331.277       212.41051     -1543.6875      279.44833      1215.727       3840.7412      0.99696119
   1734000  -1352.826       231.24533     -1584.0713      304.22751     -2355.6253      3840.7412      0.99696119
   1735000  -1318.8769      230.94748     -1549.8243      303.83566     -1120.6793      3840.7412      0.99696119
   1736000  -1355.598       213.10561     -1568.7036      280.36281     -450.30039      3840.7412      0.99696119
   1737000  -1342.9235      213.52459     -1556.4481      280.91402     -2013.3346      3840.7412      0.99696119
   1738000  -1327.0882      215.21966     -1542.3078      283.14406     -396.73546      3840.7412      0.99696119
   1739000  -1329.2392      226.53245     -1555.7716      298.02722      310.85029      3840.7412      0.99696119
   1740000  -1333.6131      245.03277     -1578.6459      322.36634      1815.6377      3840.7412      0.99696119
   1741000  -1371.0532      219.7707      -1590.8239      289.13144      716.71589      3840.7412      0.99696119
   1742000  -1323.3807      244.60384     -1567.9846      321.80204     -1617.1417      3840.7412      0.99696119
   1743000  -1356.0438      223.05584     -1579.0997      293.45338     -1134.0989      3840.7412      0.99696119
   1744000  -1316.0064      221.01448     -1537.0208      290.76776     -540.57435      3840.7412      0.99696119
   1745000  -1326.5858      242.06178     -1568.6476      318.45769     -28.170827      3840.7412      0.99696119
   1746000  -1316.7173      236.83702     -1553.5543      311.58397     -320.6694       3840.7412      0.99696119
   1747000  -1302.4159      247.32782     -1549.7437      325.38572     -1965.5494      3840.7412      0.99696119
   1748000  -1355.3249      210.01728     -1565.3422      276.29979     -1991.2906      3840.7412      0.99696119
   1749000  -1312.6492      227.89105     -1540.5402      299.8146      -1985.2521      3840.7412      0.99696119
   1750000  -1355.3795      231.08349     -1586.463       304.0146      -2676.3679      3840.7412      0.99696119
   1751000  -1342.0554      240.85099     -1582.9064      316.86476      621.02816      3840.7412      0.99696119
   1752000  -1331.4641      225.28974     -1556.7539      296.39232     -253.77675      3840.7412      0.99696119
   1753000  -1336.0221      223.85515     -1559.8772      294.50496     -2619.9891      3840.7412      0.99696119
   1754000  -1353.4842      221.61848     -1575.1026      291.56238     -538.78987      3840.7412      0.99696119
   1755000  -1368.4305      218.69073     -1587.1212      287.71061      1139.0297      3840.7412      0.99696119
   1756000  -1308.068       254.14927     -1562.2173      334.36005     -836.25317      3840.7412      0.99696119
   1757000  -1354.9653      232.12161     -1587.0869      305.38035     -2330.0301      3840.7412      0.99696119
   1758000  -1344.6905      212.71422     -1557.4047      279.84789     -33.252197      3840.7412      0.99696119
   1759000  -1320.2298      234.86519     -1555.095       308.98982     -1852.865       3840.7412      0.99696119
   1760000  -1305.6545      234.3637      -1540.0182      308.33005     -787.0266       3840.7412      0.99696119
   1761000  -1317.5863      217.83075     -1535.417       286.57922      510.76827      3840.7412      0.99696119
   1762000  -1363.3283      215.47664     -1578.8049      283.48214     -3640.8155      3840.7412      0.99696119
   1763000  -1331.9392      229.57939     -1561.5186      302.03579     -623.04664      3840.7412      0.99696119
   1764000  -1324.8061      237.22608     -1562.0322      312.09582     -608.78948      3840.7412      0.99696119
   1765000  -1339.4164      217.55603     -1556.9725      286.2178      -2100.5075      3840.7412      0.99696119
   1766000  -1314.3611      228.16202     -1542.5231      300.17109     -1564.2321      3840.7412      0.99696119
   1767000  -1360.9841      208.82273     -1569.8068      274.72823     -58.503426      3840.7412      0.99696119
   1768000  -1333.9419      216.16203     -1550.1039      284.38385     -978.61961      3840.7412      0.99696119
   1769000  -1354.397       220.57207     -1574.969       290.18572     -185.60268      3840.7412      0.99696119
   1770000  -1366.5307      219.53465     -1586.0653      288.82089     -1143.206       3840.7412      0.99696119
   1771000  -1366.7689      233.87856     -1600.6475      307.69181     -859.59391      3840.7412      0.99696119
   1772000  -1316.8163      251.03686     -1567.8531      330.26535     -906.54992      3840.7412      0.99696119
   1773000  -1347.1119      233.42409     -1580.536       307.0939      -630.51619      3840.7412      0.99696119
   1774000  -1314.9024      231.12786     -1546.0303      304.07297     -1012.7862      3840.7412      0.99696119
   1775000  -1340.1817      232.03894     -1572.2207      305.27159     -614.63695      3840.7412      0.99696119
   1776000  -1356.4535      245.95024     -1602.4037      323.57336     -3142.3449      3840.7412      0.99696119
   1777000  -1308.4622      235.83332     -1544.2956      310.26349      231.4983       3840.7412      0.99696119
   1778000  -1361.0815      214.89854     -1575.9801      282.72159      395.596        3840.7412      0.99696119
   1779000  -1337.613       234.50873     -1572.1218      308.52086     -2581.9755      3840.7412      0.99696119
   1780000  -1361.1999      211.22471     -1572.4246      277.88829     -2079.1068      3840.7412      0.99696119
   1781000  -1331.8291      212.60685     -1544.436       279.70664      553.01993      3840.7412      0.99696119
   1782000  -1373.0008      212.62914     -1585.6299      279.73596     -2134.02        3840.7412      0.99696119
   1783000  -1306.977       252.98319     -1559.9602      332.82595      803.07944      3840.7412      0.99696119
   1784000  -1364.9667      218.47634     -1583.443       287.42857     -1016.0728      3840.7412      0.99696119
   1785000  -1361.538       221.1592      -1582.6972      290.95815     -2185.0253      3840.7412      0.99696119
   1786000  -1339.7859      223.09778     -1562.8837      293.50855     -1687.9431      3840.7412      0.99696119
   1787000  -1343.7474      229.88976     -1573.6371      302.44412      69.339028      3840.7412      0.99696119
   1788000  -1364.4084      221.98734     -1586.3957      292.04765      274.28629      3840.7412      0.99696119
   1789000  -1361.7468      223.35383     -1585.1007      293.84541     -678.79881      3840.7412      0.99696119
   1790000  -1314.5372      215.41488     -1529.9521      283.4009      -173.24498      3840.7412      0.99696119
   1791000  -1338.4566      222.21772     -1560.6743      292.35074     -1223.0057      3840.7412      0.99696119
   1792000  -1296.9766      231.09404     -1528.0706      304.02848      910.91616      3840.7412      0.99696119
   1793000  -1338.7364      229.01022     -1567.7466      301.28699      48.967537      3840.7412      0.99696119
   1794000  -1320.0733      221.89333     -1541.9667      291.92398     -1233.4375      3840.7412      0.99696119
   1795000  -1332.8277      244.2242      -1577.0519      321.30258      143.40939      3840.7412      0.99696119
   1796000  -1336.9516      224.09895     -1561.0505      294.8257      -740.15529      3840.7412      0.99696119
   1797000  -1327.9463      228.62161     -1556.5679      300.77574      1334.0513      3840.7412      0.99696119
   1798000  -1338.5192      218.97284     -1557.4921      288.08177     -929.55288      3840.7412      0.99696119
   1799000  -1352.6503      216.68373     -1569.3341      285.0702      -1065.97        3840.7412      0.99696119
   1800000  -1371.5346      229.40404     -1600.9386      301.8051      -234.26558      3840.7412      0.99696119
   1801000  -1387.5267      238.60782     -1626.1345      313.91364     -625.50134      3840.7412      0.99696119
   1802000  -1357.3946      228.27778     -1585.6724      300.32339     -1404.6584      3840.7412      0.99696119
   1803000  -1377.1299      230.59884     -1607.7288      303.37699     -377.4198       3840.7412      0.99696119
   1804000  -1392.7054      214.75067     -1607.4561      282.52706     -1698.4879      3840.7412      0.99696119
   1805000  -1356.6866      224.44426     -1581.1309      295.28        -1293.9343      3840.7412      0.99696119
   1806000  -1369.3563      211.25248     -1580.6088      277.92482     -2051.8639      3840.7412      0.99696119
   1807000  -1349.5879      233.19286     -1582.7808      306.7897      -1934.3218      3840.7412      0.99696119
   1808000  -1336.3926      224.76225     -1561.1549      295.69834     -230.8136       3840.7412      0.99696119
   1809000  -1341.7523      236.39173     -1578.1441      310.99814     -325.81022      3840.7412      0.99696119
   1810000  -1325.2931      247.3669      -1572.66        325.43713     -1029.426       3840.7412      0.99696119
   1811000  -1307.4991      243.39972     -1550.8988      320.21789      632.1291       3840.7412      0.99696119
   1812000  -1376.8884      221.85537     -1598.7437      291.87403     -1330.4453      3840.7412      0.99696119
   1813000  -1390.0693      215.23368     -1605.303       283.1625      -397.88662      3840.7412      0.99696119
   1814000  -1359.882       218.00497     -1577.887       286.80843     -94.966576      3840.7412      0.99696119
   1815000  -1366.3337      218.28073     -1584.6145      287.17122     -1070.7525      3840.7412      0.99696119
   1816000  -1348.5116      239.0588      -1587.5704      314.50695     -524.01568      3840.7412      0.99696119
   1817000  -1375.1594      216.7724      -1591.9317      285.18685     -2053.118       3840.7412      0.99696119
   1818000  -1328.4224      229.86093     -1558.2833      302.4062       108.66105      3840.7412      0.99696119
   1819000  -1326.0888      215.67925     -1541.768       283.74871     -333.73682      3840.7412      0.99696119
   1820000  -1304.6796      261.84255     -1566.5221      344.48137     -439.96117      3840.7412      0.99696119
   1821000  -1365.1308      192.26607     -1557.3969      252.9462       306.27665      3840.7412      0.99696119
   1822000  -1375.729       207.78854     -1583.5175      273.36764     -4466.7028      3840.7412      0.99696119
   1823000  -1354.774       221.5905      -1576.3645      291.52558     -489.3273       3840.7412      0.99696119
   1824000  -1316.0028      235.41864     -1551.4214      309.71794      1036.3163      3840.7412      0.99696119
   1825000  -1356.374       215.67429     -1572.0483      283.74218      2278.0569      3840.7412      0.99696119
   1826000  -1327.8829      235.7512      -1563.6341      310.15546     -1241.6811      3840.7412      0.99696119
   1827000  -1333.1602      220.69157     -1553.8518      290.34294     -2315.7447      3840.7412      0.99696119
   1828000  -1278.4895      231.92671     -1510.4162      305.12395     -500.23427      3840.7412      0.99696119
   1829000  -1337.2541      245.21125     -1582.4653      322.60114     -975.25835      3840.7412      0.99696119
   1830000  -1398.7672      216.80009     -1615.5673      285.22329     -741.24145      3840.7412      0.99696119
   1831000  -1347.6259      225.39269     -1573.0186      296.52776     -2131.3754      3840.7412      0.99696119
   1832000  -1323.9675      206.7004      -1530.6679      271.93608     -2361.9567      3840.7412      0.99696119
   1833000  -1329.9003      220.63468     -1550.535       290.26809     -447.8773       3840.7412      0.99696119
   1834000  -1336.3562      223.14248     -1559.4987      293.56736     -2170.3345      3840.7412      0.99696119
   1835000  -1310.5397      228.95715     -1539.4969      301.21717     -1541.627       3840.7412      0.99696119
   1836000  -1318.9676      236.92203     -1555.8896      311.69581     -2661.2008      3840.7412      0.99696119
   1837000  -1335.7047      214.02004     -1549.7247      281.56583     -490.10192      3840.7412      0.99696119
   1838000  -1345.026       233.014       -1578.04        306.55438     -679.51106      3840.7412      0.99696119
   1839000  -1372.1282      229.41869     -1601.5469      301.82438      808.64345      3840.7412      0.99696119
   1840000  -1351.48        229.1308      -1580.6108      301.44563     -1725.3659      3840.7412      0.99696119
   1841000  -1330.7819      230.61615     -1561.398       303.39976      47.742905      3840.7412      0.99696119
   1842000  -1323.6547      214.78101     -1538.4357      282.56697      41.394544      3840.7412      0.99696119
   1843000  -1364.306       227.32361     -1591.6296      299.06808     -1688.5253      3840.7412      0.99696119
   1844000  -1359.528       222.29213     -1581.8201      292.44863      1000.2082      3840.7412      0.99696119
   1845000  -1331.3852      235.15125     -1566.5364      309.36616     -509.34548      3840.7412      0.99696119
   1846000  -1397.3612      203.73345     -1601.0947      268.03275     -1311.6988      3840.7412      0.99696119
   1847000  -1368.0365      212.58862     -1580.6252      279.68266      754.88775      3840.7412      0.99696119
   1848000  -1326.0259      235.99975     -1562.0257      310.48246      1088.6826      3840.7412      0.99696119
   1849000  -1346.4466      222.00084     -1568.4474      292.06542     -1502.9147      3840.7412      0.99696119
   1850000  -1377.4788      226.74638     -1604.2252      298.30867      13.007589      3840.7412      0.99696119
   1851000  -1339.5027      230.56095     -1570.0637      303.32714     -162.33892      3840.7412      0.99696119
   1852000  -1348.2817      230.13197     -1578.4137      302.76278      862.44639      3840.7412      0.99696119
   1853000  -1366.3763      221.5179      -1587.8942      291.43005     -1343.7246      3840.7412      0.99696119
   1854000  -1330.8843      230.32249     -1561.2068      303.01342     -976.53283      3840.7412      0.99696119
   1855000  -1321.8766      245.98485     -1567.8614      323.61891     -1034.2332      3840.7412      0.99696119
   1856000  -1362.4478      219.45676     -1581.9045      288.71841      277.6346       3840.7412      0.99696119
   1857000  -1325.6515      243.81893     -1569.4705      320.76941     -132.26231      3840.7412      0.99696119
   1858000  -1362.0053      224.69825     -1586.7035      295.61414      1014.5298      3840.7412      0.99696119
   1859000  -1358.0956      223.09705     -1581.1927      293.50759     -311.46883      3840.7412      0.99696119
   1860000  -1325.1968      232.64504     -1557.8418      306.06898     -618.23138      3840.7412      0.99696119
   1861000  -1323.7304      233.588       -1557.3184      307.30954     -1984.4038      3840.7412      0.99696119
   1862000  -1369.2525      210.29911     -1579.5516      276.67056     -689.62912      3840.7412      0.99696119
   1863000  -1362.0904      222.71339     -1584.8038      293.00286     -912.26233      3840.7412      0.99696119
   1864000  -1342.611       218.82014     -1561.4312      287.88087     -1446.399       3840.7412      0.99696119
   1865000  -1365.1395      231.8581      -1596.9976      305.03367     -1155.2843      3840.7412      0.99696119
   1866000  -1334.8076      219.51137     -1554.319       288.79025     -2502.038       3840.7412      0.99696119
   1867000  -1354.1437      221.16928     -1575.313       290.97141     -1122.5443      3840.7412      0.99696119
   1868000  -1317.6417      240.53412     -1558.1758      316.4479      -1158.2404      3840.7412      0.99696119
   1869000  -1386.1304      219.83126     -1605.9617      289.21111     -993.84315      3840.7412      0.99696119
   1870000  -1357.8719      226.4265      -1584.2984      297.88784      1.8472988      3840.7412      0.99696119
   1871000  -1359.7239      230.64276     -1590.3667      303.43477     -250.15659      3840.7412      0.99696119
   1872000  -1341.2697      233.89322     -1575.163       307.71109     -4.0830395      3840.7412      0.99696119
   1873000  -1322.9066      225.81179     -1548.7184      297.07912      596.97816      3840.7412      0.99696119
   1874000  -1337.0919      228.42763     -1565.5195      300.52053     -1744.4698      3840.7412      0.99696119
   1875000  -1335.5064      223.83433     -1559.3408      294.47757     -1184.9731      3840.7412      0.99696119
   1876000  -1344.7333      232.92715     -1577.6604      306.44012      583.51589      3840.7412      0.99696119
   1877000  -1372.9141      227.62071     -1600.5348      299.45894     -798.09614      3840.7412      0.99696119
   1878000  -1338.0582      231.58948     -1569.6477      304.68028      609.55586      3840.7412      0.99696119
   1879000  -1346.8752      229.60553     -1576.4808      302.07019     -338.80993      3840.7412      0.99696119
   1880000  -1346.8575      224.01662     -1570.8742      294.71739     -1205.6856      3840.7412      0.99696119
   1881000  -1323.5995      240.45313     -1564.0527      316.34135     -841.22866      3840.7412      0.99696119
   1882000  -1322.3367      236.04742     -1558.3841      310.54517      38.274912      3840.7412      0.99696119
   1883000  -1353.3546      215.93424     -1569.2888      284.08416     -1186.8005      3840.7412      0.99696119
   1884000  -1340.4735      221.12967     -1561.6031      290.91931     -1329.7224      3840.7412      0.99696119
   1885000  -1392.9176      205.90961     -1598.8272      270.89572     -1266.4379      3840.7412      0.99696119
   1886000  -1348.5728      222.0147      -1570.5875      292.08365      1711.4048      3840.7412      0.99696119
   1887000  -1294.1653      245.52227     -1539.6875      323.01032     -1490.2621      3840.7412      0.99696119
   1888000  -1362.8204      225.15388     -1587.9743      296.21357     -1759.9035      3840.7412      0.99696119
   1889000  -1310.6356      252.93306     -1563.5686      332.75999      24.701004      3840.7412      0.99696119
   1890000  -1326.1143      225.2273      -1551.3416      296.31016     -663.84159      3840.7412      0.99696119
   1891000  -1267.4937      245.06437     -1512.5581      322.40792     -194.4309       3840.7412      0.99696119
   1892000  -1304.591       229.75245     -1534.3435      302.26348     -903.51105      3840.7412      0.99696119
   1893000  -1286.7506      244.31288     -1531.0634      321.41925     -3355.2144      3840.7412      0.99696119
   1894000  -1314.1565      223.66206     -1537.8185      294.25093     -2328.1883      3840.7412      0.99696119
   1895000  -1329.8683      226.4513      -1556.3196      297.92047     -349.7125       3840.7412      0.99696119
   1896000  -1380.738       210.07457     -1590.8125      276.37516     -955.71293      3840.7412      0.99696119
   1897000  -1342.4491      225.72035     -1568.1695      296.95883     -722.77495      3840.7412      0.99696119
   1898000  -1347.9082      229.71979     -1577.628       302.2205      -943.17921      3840.7412      0.99696119
   1899000  -1342.4085      239.45557     -1581.8641      315.02895     -1946.2952      3840.7412      0.99696119
   1900000  -1352.2248      234.15965     -1586.3845      308.06161      551.93159      3840.7412      0.99696119
   1901000  -1340.0825      228.85992     -1568.9424      301.08926      530.54695      3840.7412      0.99696119
   1902000  -1343.7871      227.77465     -1571.5617      299.66147      394.48847      3840.7412      0.99696119
   1903000  -1369.4544      196.49335     -1565.9478      258.50764     -1870.3884      3840.7412      0.99696119
   1904000  -1349.8707      231.24118     -1581.1119      304.22206     -113.9583       3840.7412      0.99696119
   1905000  -1293.9592      228.74191     -1522.7011      300.934        894.92179      3840.7412      0.99696119
   1906000  -1333.2681      230.0849      -1563.353       302.70085     -2333.9903      3840.7412      0.99696119
   1907000  -1369.4252      221.35235     -1590.7776      291.21225     -3511.545       3840.7412      0.99696119
   1908000  -1330.8974      223.38108     -1554.2785      293.88126     -1255.5261      3840.7412      0.99696119
   1909000  -1349.8833      221.40919     -1571.2925      291.28704     -698.44373      3840.7412      0.99696119
   1910000  -1342.1962      215.81285     -1558.0091      283.92447     -237.21667      3840.7412      0.99696119
   1911000  -1335.301       213.45866     -1548.7596      280.82729      17.674253      3840.7412      0.99696119
   1912000  -1353.3877      228.33525     -1581.723       300.399       -1518.0935      3840.7412      0.99696119
   1913000  -1355.2748      235.66589     -1590.9407      310.04323     -2718.1054      3840.7412      0.99696119
   1914000  -1346.4343      229.08182     -1575.5162      301.38119      861.95787      3840.7412      0.99696119
   1915000  -1352.3887      223.74776     -1576.1365      294.36367     -1609.4179      3840.7412      0.99696119
   1916000  -1361.9071      219.39831     -1581.3054      288.64151     -227.13823      3840.7412      0.99696119
   1917000  -1349.1546      215.53421     -1564.6888      283.55789     -617.72542      3840.7412      0.99696119
   1918000  -1329.5796      236.75203     -1566.3316      311.47216     -2749.0674      3840.7412      0.99696119
   1919000  -1371.3556      205.05663     -1576.4122      269.77352     -1390.9602      3840.7412      0.99696119
   1920000  -1333.2708      225.67212     -1558.943       296.89537     -285.59364      3840.7412      0.99696119
   1921000  -1312.1899      231.04376     -1543.2337      303.96232     -1316.4652      3840.7412      0.99696119
   1922000  -1341.1206      217.58095     -1558.7015      286.25059     -287.2298       3840.7412      0.99696119
   1923000  -1358.705       227.54002     -1586.245       299.3528      -1985.8054      3840.7412      0.99696119
   1924000  -1368.8428      218.72747     -1587.5703      287.75895     -300.0107       3840.7412      0.99696119
   1925000  -1347.153       237.53578     -1584.6888      312.50326      303.3485       3840.7412      0.99696119
   1926000  -1316.3009      246.78832     -1563.0892      324.67595     -1058.7934      3840.7412      0.99696119
   1927000  -1327.6209      223.81332     -1551.4343      294.44992     -239.93703      3840.7412      0.99696119
   1928000  -1325.639       236.79305     -1562.4321      311.52612     -751.67858      3840.7412      0.99696119
   1929000  -1341.9081      257.38015     -1599.2883      338.61061     -1807.3288      3840.7412      0.99696119
   1930000  -1341.3018      223.36083     -1564.6626      293.85463     -845.17896      3840.7412      0.99696119
   1931000  -1364.0728      212.80192     -1576.8748      279.96327     -1248.5121      3840.7412      0.99696119
   1932000  -1340.2059      213.80918     -1554.0151      281.28842      53.611923      3840.7412      0.99696119
   1933000  -1329.5497      217.3224      -1546.8721      285.91044     -1484.8901      3840.7412      0.99696119
   1934000  -1344.6472      204.86512     -1549.5123      269.52157     -2543.2745      3840.7412      0.99696119
   1935000  -1297.5641      249.00738     -1546.5715      327.59536      1207.9784      3840.7412      0.99696119
   1936000  -1384.8678      212.93141     -1597.7992      280.13362      681.47103      3840.7412      0.99696119
   1937000  -1318.7791      232.46125     -1551.2404      305.82719     -1349.2419      3840.7412      0.99696119
   1938000  -1361.1848      206.33479     -1567.5196      271.45508      78.579409      3840.7412      0.99696119
   1939000  -1358.3169      219.08727     -1577.4042      288.23231      49.634521      3840.7412      0.99696119
   1940000  -1311.3757      229.30674     -1540.6825      301.67709     -190.7867       3840.7412      0.99696119
   1941000  -1349.1612      228.05253     -1577.2137      300.02704      236.91575      3840.7412      0.99696119
   1942000  -1386.9012      225.96605     -1612.8672      297.28207     -1335.5648      3840.7412      0.99696119
   1943000  -1364.0544      226.84575     -1590.9002      298.4394      -567.08194      3840.7412      0.99696119
   1944000  -1357.7288      224.74165     -1582.4704      295.67124     -1379.0554      3840.7412      0.99696119
   1945000  -1355.2541      225.13038     -1580.3845      296.18265     -3140.4868      3840.7412      0.99696119
   1946000  -1375.5249      219.71823     -1595.2432      289.06241     -1634.6911      3840.7412      0.99696119
   1947000  -1367.2866      218.87182     -1586.1584      287.94886     -1656.2331      3840.7412      0.99696119
   1948000  -1339.4862      228.67563     -1568.1618      300.8468      -1721.5066      3840.7412      0.99696119
   1949000  -1331.0489      256.04025     -1587.0891      336.84784     -87.48249       3840.7412      0.99696119
   1950000  -1358.458       208.56564     -1567.0236      274.39        -2220.7729      3840.7412      0.99696119
   1951000  -1369.9235      221.31907     -1591.2426      291.16847      167.82443      3840.7412      0.99696119
   1952000  -1327.8368      228.38145     -1556.2183      300.45978      775.19489      3840.7412      0.99696119
   1953000  -1323.8165      228.79979     -1552.6163      301.01015     -1557.6587      3840.7412      0.99696119
   1954000  -1321.0471      232.04124     -1553.0884      305.27461     -2364.9119      3840.7412      0.99696119
   1955000  -1328.5736      236.71312     -1565.2867      311.42097     -2021.7914      3840.7412      0.99696119
   1956000  -1316.9762      223.49316     -1540.4693      294.02871     -439.2806       3840.7412      0.99696119
   1957000  -1333.8939      232.55395     -1566.4479      305.94914     -161.98974      3840.7412      0.99696119
   1958000  -1370.8542      222.22608     -1593.0803      292.36174     -2825.7447      3840.7412      0.99696119
   1959000  -1355.3888      207.86878     -1563.2576      273.4732      -809.20658      3840.7412      0.99696119
   1960000  -1324.4701      212.74213     -1537.2122      279.88461     -1137.9867      3840.7412      0.99696119
   1961000  -1366.4679      220.32228     -1586.7902      289.85709      156.38978      3840.7412      0.99696119
   1962000  -1346.6049      223.5693      -1570.1742      294.12889     -43.026567      3840.7412      0.99696119
   1963000  -1356.0055      234.39457     -1590.4001      308.37067     -704.16554      3840.7412      0.99696119
   1964000  -1352.7946      241.34708     -1594.1417      317.51743     -419.96012      3840.7412      0.99696119
   1965000  -1340.0074      227.69366     -1567.701       299.55492     -2479.9939      3840.7412      0.99696119
   1966000  -1362.8697      208.96749     -1571.8372      274.91868     -1055.1101      3840.7412      0.99696119
   1967000  -1330.6012      229.46209     -1560.0633      301.88147      1098.8629      3840.7412      0.99696119
   1968000  -1331.1979      214.09486     -1545.2928      281.66427     -98.387011      3840.7412      0.99696119
   1969000  -1347.599       211.0132      -1558.6122      277.61002      469.00139      3840.7412      0.99696119
   1970000  -1357.6957      221.43855     -1579.1342      291.32566     -853.71104      3840.7412      0.99696119
   1971000  -1305.6538      242.73932     -1548.3932      319.34907     -1391.8759      3840.7412      0.99696119
   1972000  -1313.9977      232.09134     -1546.089       305.34053      43.302782      3840.7412      0.99696119
   1973000  -1320.0799      236.79669     -1556.8766      311.5309      -653.92101      3840.7412      0.99696119
   1974000  -1344.7121      226.48397     -1571.1961      297.96345     -893.43072      3840.7412      0.99696119
   1975000  -1319.3202      242.31802     -1561.6382      318.7948       879.32324      3840.7412      0.99696119
   1976000  -1343.1712      223.25121     -1566.4225      293.7104      -520.63814      3840.7412      0.99696119
   1977000  -1341.6326      246.11941     -1587.752       323.79593     -982.63414      3840.7412      0.99696119
   1978000  -1356.6015      221.67799     -1578.2795      291.64067      1518.8106      3840.7412      0.99696119
   1979000  -1331.6077      218.15535     -1549.763       287.00627      1303.7578      3840.7412      0.99696119
   1980000  -1316.5376      241.20806     -1557.7457      317.33453      660.357        3840.7412      0.99696119
   1981000  -1348.6361      224.49504     -1573.1311      295.3468      -1426.5533      3840.7412      0.99696119
   1982000  -1364.2884      220.71127     -1584.9997      290.36885     -3253.7455      3840.7412      0.99696119
   1983000  -1329.9141      238.40456     -1568.3186      313.64624     -616.42802      3840.7412      0.99696119
   1984000  -1337.4543      216.10251     -1553.5568      284.30555      1795.2298      3840.7412      0.99696119
   1985000  -1321.1236      236.2141      -1557.3377      310.76445      2145.335       3840.7412      0.99696119
   1986000  -1346.8803      228.7078      -1575.5881      300.88912     -567.74558      3840.7412      0.99696119
   1987000  -1384.0824      220.41512     -1604.4975      289.97923     -100.96457      3840.7412      0.99696119
   1988000  -1324.7558      240.54169     -1565.2975      316.45786     -558.54585      3840.7412      0.99696119
   1989000  -1346.0427      226.52602     -1572.5687      298.01877      168.87521      3840.7412      0.99696119
   1990000  -1329.0964      233.05598     -1562.1524      306.60962     -549.56011      3840.7412      0.99696119
   1991000  -1307.8056      239.39341     -1547.199       314.94717     -191.80518      3840.7412      0.99696119
   1992000  -1345.6337      230.00436     -1575.6381      302.59489     -1225.3643      3840.7412      0.99696119
   1993000  -1356.3085      227.531       -1583.8395      299.34092     -953.90271      3840.7412      0.99696119
   1994000  -1361.1961      222.4207      -1583.6168      292.61778     -32.454198      3840.7412      0.99696119
   1995000  -1348.2294      213.81401     -1562.0434      281.29478     -689.00566      3840.7412      0.99696119
   1996000  -1335.6669      209.95313     -1545.62        276.21538      836.04173      3840.7412      0.99696119
   1997000  -1338.8263      238.43361     -1577.26        313.68445     -910.91978      3840.7412      0.99696119
   1998000  -1330.9181      223.76405     -1554.6822      294.38511      735.35945      3840.7412      0.99696119
   1999000  -1349.7942      238.09713     -1587.8913      313.24177      679.70338      3840.7412      0.99696119
   2000000  -1357.3112      233.47896     -1590.7902      307.16608      1122.4375      3840.7412      0.99696119
   2001000  -1331.1586      226.52639     -1557.685       298.01925      1531.5935      3840.7412      0.99696119
   2002000  -1353.0722      220.10822     -1573.1804      289.57548     -1665.2978      3840.7412      0.99696119
   2003000  -1394.4667      190.02874     -1584.4954      250.00276     -1112.2538      3840.7412      0.99696119
   2004000  -1324.2338      226.81782     -1551.0516      298.40266     -2145.1663      3840.7412      0.99696119
   2005000  -1325.843       228.81787     -1554.6609      301.03394     -152.72283      3840.7412      0.99696119
   2006000  -1325.459       242.91716     -1568.3761      319.58303      178.97402      3840.7412      0.99696119
   2007000  -1331.654       223.11955     -1554.7735      293.5372      -1418.4664      3840.7412      0.99696119
   2008000  -1339.5499      220.76344     -1560.3134      290.43749     -1609.9815      3840.7412      0.99696119
   2009000  -1287.0149      230.82086     -1517.8357      303.66908     -415.71395      3840.7412      0.99696119
   2010000  -1340.7426      226.32628     -1567.0689      297.75598     -1692.6531      3840.7412      0.99696119
   2011000  -1298.5479      213.35919     -1511.9071      280.69641     -3223.8602      3840.7412      0.99696119
   2012000  -1288.0148      246.3486      -1534.3634      324.09745      321.18123      3840.7412      0.99696119
   2013000  -1325.3082      225.98967     -1551.2978      297.31314      882.45057      3840.7412      0.99696119
   2014000  -1327.4612      213.31518     -1540.7764      280.63852      1199.4314      3840.7412      0.99696119
   2015000  -1367.8403      216.62199     -1584.4623      284.98898     -254.02457      3840.7412      0.99696119
   2016000  -1357.8434      218.85614     -1576.6996      287.92823     -2214.7472      3840.7412      0.99696119
   2017000  -1321.8512      230.94213     -1552.7933      303.82862     -440.36043      3840.7412      0.99696119
   2018000  -1346.0662      227.41163     -1573.4779      299.18388     -1114.1888      3840.7412      0.99696119
   2019000  -1346.4948      235.39432     -1581.8891      309.68594      851.42777      3840.7412      0.99696119
   2020000  -1347.1112      228.88986     -1576.0011      301.12865     -1369.1327      3840.7412      0.99696119
   2021000  -1366.7834      212.58538     -1579.3688      279.67839     -234.66785      3840.7412      0.99696119
   2022000  -1335.1669      220.99698     -1556.1639      290.74473     -185.88146      3840.7412      0.99696119
   2023000  -1325.1569      217.54899     -1542.7058      286.20854     -1053.7722      3840.7412      0.99696119
   2024000  -1320.2893      245.87947     -1566.1688      323.48026      2124.785       3840.7412      0.99696119
   2025000  -1342.2269      222.78982     -1565.0167      293.1034       636.87463      3840.7412      0.99696119
   2026000  -1358.888       207.87169     -1566.7597      273.47704     -1829.4267      3840.7412      0.99696119
   2027000  -1321.661       239.35487     -1561.0158      314.89646      841.67006      3840.7412      0.99696119
   2028000  -1364.0288      207.9371      -1571.9659      273.56309      107.36854      3840.7412      0.99696119
   2029000  -1322.6276      237.41821     -1560.0458      312.34859      255.48734      3840.7412      0.99696119
   2030000  -1317.9296      238.9434      -1556.873       314.35514     -1055.4993      3840.7412      0.99696119
   2031000  -1319.1192      224.98235     -1544.1016      295.9879       989.02055      3840.7412      0.99696119
   2032000  -1336.4081      223.90564     -1560.3137      294.57137      279.01351      3840.7412      0.99696119
   2033000  -1340.7917      230.13756     -1570.9293      302.77013     -1576.7211      3840.7412      0.99696119
   2034000  -1335.4605      228.13431     -1563.5949      300.13464     -851.38311      3840.7412      0.99696119
   2035000  -1344.7751      224.15222     -1568.9274      294.89579     -836.1689       3840.7412      0.99696119
   2036000  -1348.6712      231.12565     -1579.7969      304.07006     -1720.8962      3840.7412      0.99696119
   2037000  -1329.7686      242.12764     -1571.8962      318.54433     -264.39815      3840.7412      0.99696119
   2038000  -1349.7536      210.16259     -1559.9162      276.49096     -503.15882      3840.7412      0.99696119
   2039000  -1303.9657      234.92261     -1538.8883      309.06536     -973.34854      3840.7412      0.99696119
   2040000  -1352.1117      224.32717     -1576.4389      295.12595     -1728.3258      3840.7412      0.99696119
   2041000  -1359.1441      239.14361     -1598.2877      314.61853     -638.51382      3840.7412      0.99696119
   2042000  -1353.929       225.63295     -1579.5619      296.84384      499.20005      3840.7412      0.99696119
   2043000  -1370.6797      231.6804      -1602.3601      304.79989     -964.32047      3840.7412      0.99696119
   2044000  -1348.3458      217.69002     -1566.0359      286.39408     -279.82063      3840.7412      0.99696119
   2045000  -1340.0897      233.70321     -1573.7929      307.46112      603.67605      3840.7412      0.99696119
   2046000  -1360.9177      221.99668     -1582.9144      292.05994      227.05559      3840.7412      0.99696119
   2047000  -1351.3259      223.67161     -1574.9975      294.26349     -2140.6411      3840.7412      0.99696119
   2048000  -1345.3582      242.36571     -1587.724       318.85754     -351.02849      3840.7412      0.99696119
   2049000  -1340.2946      231.78431     -1572.079       304.93661     -1804.0472      3840.7412      0.99696119
   2050000  -1310.4317      239.75581     -1550.1875      315.42394     -2473.5446      3840.7412      0.99696119
   2051000  -1337.8608      230.55206     -1568.4129      303.31544     -1025.7737      3840.7412      0.99696119
   2052000  -1311.388       238.81653     -1550.2046      314.18822     -195.15282      3840.7412      0.99696119
   2053000  -1298.5947      236.62467     -1535.2194      311.30459      1066.3734      3840.7412      0.99696119
   2054000  -1333.2011      233.45257     -1566.6536      307.13137      1923.6054      3840.7412      0.99696119
   2055000  -1309.0462      229.77754     -1538.8237      302.29648     -1147.9586      3840.7412      0.99696119
   2056000  -1314.812       250.70291     -1565.5149      329.826        1715.4526      3840.7412      0.99696119
   2057000  -1359.1674      226.37284     -1585.5403      297.81725     -15.106615      3840.7412      0.99696119
   2058000  -1330.6655      222.17116     -1552.8367      292.28949      148.80772      3840.7412      0.99696119
   2059000  -1324.1906      217.9793      -1542.1699      286.77466      12.40138       3840.7412      0.99696119
   2060000  -1343.6686      229.76111     -1573.4297      302.27486      722.27361      3840.7412      0.99696119
   2061000  -1353.933       221.64687     -1575.5798      291.59973      1129.5263      3840.7412      0.99696119
   2062000  -1345.5584      224.52445     -1570.0828      295.38549     -1392.9324      3840.7412      0.99696119
   2063000  -1370.6448      218.80053     -1589.4453      287.85507     -1261.61        3840.7412      0.99696119
   2064000  -1341.6843      220.00337     -1561.6876      289.43754     -979.37716      3840.7412      0.99696119
   2065000  -1344.4106      228.62856     -1573.0391      300.78488     -494.84241      3840.7412      0.99696119
   2066000  -1351.1846      231.98637     -1583.1709      305.20243      1034.2561      3840.7412      0.99696119
   2067000  -1339.68        226.66484     -1566.3448      298.20139      206.30555      3840.7412      0.99696119
   2068000  -1331.8227      218.34159     -1550.1643      287.25129     -1189.4137      3840.7412      0.99696119
   2069000  -1345.4589      222.79758     -1568.2565      293.11361     -199.25976      3840.7412      0.99696119
   2070000  -1362.9225      224.59552     -1587.518       295.47899      361.29331      3840.7412      0.99696119
   2071000  -1323.9382      237.97631     -1561.9145      313.08283     -16.983891      3840.7412      0.99696119
   2072000  -1345.0462      223.772       -1568.8182      294.39557     -2236.9476      3840.7412      0.99696119
   2073000  -1364.2988      229.06005     -1593.3589      301.35254     -1601.8979      3840.7412      0.99696119
   2074000  -1349.1085      232.32771     -1581.4362      305.6515      -36.204278      3840.7412      0.99696119
   2075000  -1335.7342      215.49553     -1551.2298      283.50699     -1306.954       3840.7412      0.99696119
   2076000  -1316.602       230.07678     -1546.6788      302.69017     -263.4208       3840.7412      0.99696119
   2077000  -1320.7677      228.42475     -1549.1924      300.51675     -604.65459      3840.7412      0.99696119
   2078000  -1345.4323      221.00027     -1566.4326      290.74906      84.865907      3840.7412      0.99696119
   2079000  -1328.8259      215.94023     -1544.7661      284.09205     -700.44221      3840.7412      0.99696119
   2080000  -1325.8339      245.25706     -1571.091       322.66141     -682.79742      3840.7412      0.99696119
   2081000  -1316.9488      232.52209     -1549.4709      305.90722      1008.0101      3840.7412      0.99696119
   2082000  -1348.2563      222.30466     -1570.5609      292.46512     -607.03634      3840.7412      0.99696119
   2083000  -1325.7687      246.2449      -1572.0136      323.96102      1330.9638      3840.7412      0.99696119
   2084000  -1328.7201      225.03597     -1553.7561      296.05845     -157.97609      3840.7412      0.99696119
   2085000  -1341.0858      231.28864     -1572.3745      304.28449     -863.95006      3840.7412      0.99696119
   2086000  -1353.7778      221.29073     -1575.0685      291.13119     -2384.9531      3840.7412      0.99696119
   2087000  -1397.5485      196.75049     -1594.299       258.84593     -18.178017      3840.7412      0.99696119
   2088000  -1358.0078      206.06336     -1564.0712      271.09798     -450.35276      3840.7412      0.99696119
   2089000  -1332.8535      222.40539     -1555.2589      292.59765      1475.465       3840.7412      0.99696119
   2090000  -1375.86        209.74124     -1585.6012      275.93662      441.05874      3840.7412      0.99696119
   2091000  -1358.516       219.04741     -1577.5634      288.17987     -48.123939      3840.7412      0.99696119
   2092000  -1350.1331      223.67016     -1573.8032      294.26158     -1626.1573      3840.7412      0.99696119
   2093000  -1348.9723      222.74701     -1571.7193      293.04708     -117.12593      3840.7412      0.99696119
   2094000  -1345.9428      204.18617     -1550.129       268.62834     -1315.2995      3840.7412      0.99696119
   2095000  -1351.5442      226.75285     -1578.297       298.31719     -412.95574      3840.7412      0.99696119
   2096000  -1337.2479      203.88417     -1541.1321      268.23104      1833.6136      3840.7412      0.99696119
   2097000  -1311.814       230.19347     -1542.0075      302.84368     -1224.1742      3840.7412      0.99696119
   2098000  -1315.9004      244.9716      -1560.872       322.28587      239.75242      3840.7412      0.99696119
   2099000  -1350.217       213.65085     -1563.8678      281.08013     -153.66352      3840.7412      0.99696119
   2100000  -1355.3137      207.06347     -1562.3772      272.41374     -1350.5861      3840.7412      0.99696119
   2101000  -1367.4581      217.53894     -1584.997       286.19532     -1539.5675      3840.7412      0.99696119
   2102000  -1334.2876      236.64358     -1570.9312      311.32948     -774.6569       3840.7412      0.99696119
   2103000  -1345.1347      226.19345     -1571.3281      297.58123     -1520.0935      3840.7412      0.99696119
   2104000  -1365.0464      218.6635      -1583.7099      287.6748      -3130.248       3840.7412      0.99696119
   2105000  -1373.0902      207.74843     -1580.8387      273.31487     -1600.9058      3840.7412      0.99696119
   2106000  -1366.3564      234.08066     -1600.437       307.95769     -1347.961       3840.7412      0.99696119
   2107000  -1301.1395      228.48392     -1529.6235      300.59459      1571.0279      3840.7412      0.99696119
   2108000  -1330.7986      218.6144      -1549.413       287.6102      -2455.8918      3840.7412      0.99696119
   2109000  -1353.7559      209.08074     -1562.8367      275.06767     -1644.8639      3840.7412      0.99696119
   2110000  -1343.7228      225.77918     -1569.502       297.03622     -744.20029      3840.7412      0.99696119
   2111000  -1357.6721      228.30633     -1585.9784      300.36095     -1056.6017      3840.7412      0.99696119
   2112000  -1324.162       244.29292     -1568.4549      321.39299     -134.24309      3840.7412      0.99696119
   2113000  -1349.0805      243.97369     -1593.0542      320.97301      897.82109      3840.7412      0.99696119
   2114000  -1344.8118      224.76094     -1569.5727      295.69661     -1213.209       3840.7412      0.99696119
   2115000  -1354.4641      223.83811     -1578.3022      294.48254     -739.72502      3840.7412      0.99696119
   2116000  -1313.821       233.73673     -1547.5577      307.50521      1233.9318      3840.7412      0.99696119
   2117000  -1339.9094      220.86114     -1560.7705      290.56602     -492.58884      3840.7412      0.99696119
   2118000  -1350.4422      216.9296      -1567.3718      285.39367     -2358.3239      3840.7412      0.99696119
   2119000  -1342.4491      215.42882     -1557.8779      283.41923      1174.1411      3840.7412      0.99696119
   2120000  -1347.7537      240.03922     -1587.793       315.7968      -1222.2617      3840.7412      0.99696119
   2121000  -1348.6119      229.05073     -1577.6626      301.34029      221.55269      3840.7412      0.99696119
   2122000  -1348.2137      211.25111     -1559.4648      277.92302      679.52183      3840.7412      0.99696119
   2123000  -1363.3983      219.84066     -1583.239       289.22347     -2548.4207      3840.7412      0.99696119
   2124000  -1377.2343      210.21882     -1587.4531      276.56493      207.52606      3840.7412      0.99696119
   2125000  -1360.825       230.16917     -1590.9942      302.81171     -19.730981      3840.7412      0.99696119
   2126000  -1335.3364      222.90609     -1558.2425      293.25637     -594.31888      3840.7412      0.99696119
   2127000  -1325.4437      232.17799     -1557.6217      305.45453      885.12031      3840.7412      0.99696119
   2128000  -1359.7907      205.13477     -1564.9255      269.87633     -823.75079      3840.7412      0.99696119
   2129000  -1351.8517      225.55426     -1577.406       296.74032     -696.94355      3840.7412      0.99696119
   2130000  -1334.8345      236.5612      -1571.3957      311.2211      -558.28491      3840.7412      0.99696119
   2131000  -1316.242       227.228       -1543.47        298.9423       233.4091       3840.7412      0.99696119
   2132000  -1345.8961      222.62276     -1568.5188      292.88362     -1995.2115      3840.7412      0.99696119
   2133000  -1348.5179      222.04212     -1570.56        292.11972     -1023.8034      3840.7412      0.99696119
   2134000  -1334.7184      227.86135     -1562.5797      299.77553     -4.7464857      3840.7412      0.99696119
   2135000  -1307.6245      255.31957     -1562.944       335.8997      -1351.3437      3840.7412      0.99696119
   2136000  -1344.2837      206.32824     -1550.612       271.44647     -1731.4364      3840.7412      0.99696119
   2137000  -1353.0789      224.0391      -1577.118       294.74696     -384.68423      3840.7412      0.99696119
   2138000  -1295.3603      227.26558     -1522.6258      298.99173     -1216.5141      3840.7412      0.99696119
   2139000  -1343.3396      208.78877     -1552.1283      274.68355      29.811279      3840.7412      0.99696119
   2140000  -1319.9566      213.88036     -1533.8369      281.38207     -811.45213      3840.7412      0.99696119
   2141000  -1303.3434      241.6298      -1544.9732      317.88937     -525.72351      3840.7412      0.99696119
   2142000  -1355.8485      235.81926     -1591.6678      310.245       -1224.0351      3840.7412      0.99696119
   2143000  -1366.7019      228.49932     -1595.2012      300.61484     -406.16315      3840.7412      0.99696119
   2144000  -1376.1483      223.48577     -1599.6341      294.019       -1392.6833      3840.7412      0.99696119
   2145000  -1371.0129      212.56649     -1583.5794      279.65354     -2365.3723      3840.7412      0.99696119
   2146000  -1383.6848      219.61272     -1603.2975      288.9236       1826.6531      3840.7412      0.99696119
   2147000  -1352.4726      237.38061     -1589.8532      312.29912     -690.31979      3840.7412      0.99696119
   2148000  -1323.8589      244.61498     -1568.4738      321.81669     -1055.6056      3840.7412      0.99696119
   2149000  -1371.7922      218.0279      -1589.8201      286.83859      2736.8761      3840.7412      0.99696119
   2150000  -1346.9181      231.66912     -1578.5872      304.78506     -57.157957      3840.7412      0.99696119
   2151000  -1394.9444      242.44311     -1637.3875      318.95936     -737.06784      3840.7412      0.99696119
   2152000  -1392.4092      216.13311     -1608.5423      284.3458      -911.02022      3840.7412      0.99696119
   2153000  -1388.2735      221.80789     -1610.0814      291.81157      1293.8312      3840.7412      0.99696119
   2154000  -1375.6758      221.06109     -1596.7369      290.82907      1246.903       3840.7412      0.99696119
   2155000  -1367.5793      238.10401     -1605.6833      313.25083     -59.135781      3840.7412      0.99696119
   2156000  -1314.5765      236.86987     -1551.4464      311.62718     -321.88177      3840.7412      0.99696119
   2157000  -1351.7065      212.60244     -1564.3089      279.70083     -880.79939      3840.7412      0.99696119
   2158000  -1350.3784      226.27849     -1576.6568      297.69311     -855.01506      3840.7412      0.99696119
   2159000  -1354.4492      218.26238     -1572.7116      287.14708      561.22318      3840.7412      0.99696119
   2160000  -1306.9396      236.76094     -1543.7006      311.48387      731.0976       3840.7412      0.99696119
   2161000  -1356.5974      226.60262     -1583.2         298.11954     -161.10865      3840.7412      0.99696119
   2162000  -1297.9212      236.1921      -1534.1134      310.73551     -674.65675      3840.7412      0.99696119
   2163000  -1343.2137      218.47978     -1561.6934      287.4331      -103.92666      3840.7412      0.99696119
   2164000  -1350.5835      215.02108     -1565.6045      282.88281      2060.1259      3840.7412      0.99696119
   2165000  -1360.8912      212.82965     -1573.7209      279.99976      92.801799      3840.7412      0.99696119
   2166000  -1382.4781      214.20649     -1596.6846      281.81113     -1744.9499      3840.7412      0.99696119
   2167000  -1342.9301      234.25664     -1577.1867      308.1892      -1173.9578      3840.7412      0.99696119
   2168000  -1360.6356      223.28714     -1583.9227      293.75768     -458.0021       3840.7412      0.99696119
   2169000  -1332.8241      242.30344     -1575.1275      318.77562     -2638.692       3840.7412      0.99696119
   2170000  -1333.0759      230.33378     -1563.4096      303.02828     -647.70179      3840.7412      0.99696119
   2171000  -1322.537       224.14678     -1546.6838      294.88863     -1060.6579      3840.7412      0.99696119
   2172000  -1369.4292      200.46934     -1569.8986      263.73847     -1366.2851      3840.7412      0.99696119
   2173000  -1325.3974      235.2752      -1560.6726      309.52923     -274.63971      3840.7412      0.99696119
   2174000  -1355.6999      219.38378     -1575.0837      288.6224      -378.14736      3840.7412      0.99696119
   2175000  -1352.7646      215.96455     -1568.7292      284.12405     -414.79083      3840.7412      0.99696119
   2176000  -1341.3936      244.78107     -1586.1747      322.03521      144.85041      3840.7412      0.99696119
   2177000  -1346.4073      229.7266      -1576.1339      302.22947      482.81713      3840.7412      0.99696119
   2178000  -1345.0097      224.31902     -1569.3287      295.11523      190.61632      3840.7412      0.99696119
   2179000  -1335.2122      225.00569     -1560.2179      296.01862      494.62396      3840.7412      0.99696119
   2180000  -1317.904       248.22722     -1566.1312      326.56897      835.86863      3840.7412      0.99696119
   2181000  -1334.9028      231.106       -1566.0088      304.04421      118.5688       3840.7412      0.99696119
   2182000  -1336.4765      237.40568     -1573.8822      312.3321      -1857.3141      3840.7412      0.99696119
   2183000  -1338.8388      228.74676     -1567.5856      300.94039      946.92675      3840.7412      0.99696119
   2184000  -1353.3779      216.52776     -1569.9056      284.86501     -1041.9199      3840.7412      0.99696119
   2185000  -1322.8712      228.39824     -1551.2695      300.48187     -438.39245      3840.7412      0.99696119
   2186000  -1294.2049      233.44037     -1527.6452      307.11533     -395.39183      3840.7412      0.99696119
   2187000  -1329.0644      223.98817     -1553.0525      294.67996     -443.50131      3840.7412      0.99696119
   2188000  -1343.8727      234.26851     -1578.1412      308.20482     -1362.1525      3840.7412      0.99696119
   2189000  -1355.9142      223.90481     -1579.819       294.57028     -2017.8235      3840.7412      0.99696119
   2190000  -1347.2449      232.79929     -1580.0442      306.27191     -2074.9235      3840.7412      0.99696119
   2191000  -1341.7707      213.68782     -1555.4585      281.12876      1051.5057      3840.7412      0.99696119
   2192000  -1341.6916      230.78589     -1572.4775      303.62307     -2071.0772      3840.7412      0.99696119
   2193000  -1328.9972      236.37316     -1565.3704      310.97372      1123.0647      3840.7412      0.99696119
   2194000  -1333.8966      212.98532     -1546.8819      280.20456      36.339212      3840.7412      0.99696119
   2195000  -1296.4918      227.01857     -1523.5103      298.66676      1236.6715      3840.7412      0.99696119
   2196000  -1319.5617      225.60171     -1545.1635      296.80274      850.8213       3840.7412      0.99696119
   2197000  -1352.3703      244.27556     -1596.6459      321.37015      30.435681      3840.7412      0.99696119
   2198000  -1357.8291      218.63692     -1576.466       287.63983     -2183.2381      3840.7412      0.99696119
   2199000  -1344.7316      240.57219     -1585.3037      316.49798     -105.40924      3840.7412      0.99696119
   2200000  -1298.571       250.87651     -1549.4475      330.05439      703.89745      3840.7412      0.99696119
   2201000  -1337.9073      219.66039     -1557.5677      288.9863      -573.72013      3840.7412      0.99696119
   2202000  -1379.4449      229.33889     -1608.7838      301.71939      83.948995      3840.7412      0.99696119
   2203000  -1332.1504      224.74279     -1556.8931      295.67274      969.80116      3840.7412      0.99696119
   2204000  -1379.2701      224.52406     -1603.7941      295.38498      250.71749      3840.7412      0.99696119
   2205000  -1358.9729      240.63707     -1599.6099      316.58333     -104.41245      3840.7412      0.99696119
   2206000  -1404.7574      198.21661     -1602.974       260.77476      96.776766      3840.7412      0.99696119
   2207000  -1341.1901      223.62578     -1564.8159      294.2032       59.553201      3840.7412      0.99696119
   2208000  -1335.4564      234.43764     -1569.894       308.42734     -81.914456      3840.7412      0.99696119
   2209000  -1296.9115      251.35195     -1548.2634      330.67988      492.37437      3840.7412      0.99696119
   2210000  -1320.8287      240.8244      -1561.6531      316.82978     -99.373197      3840.7412      0.99696119
   2211000  -1362.2385      231.6075      -1593.846       304.70399     -1228.2702      3840.7412      0.99696119
   2212000  -1360.8723      225.99427     -1586.8666      297.3192      -15.635567      3840.7412      0.99696119
   2213000  -1327.3272      232.84206     -1560.1693      306.32818      2375.5087      3840.7412      0.99696119
   2214000  -1320.4116      236.79842     -1557.21        311.53318     -2008.4733      3840.7412      0.99696119
   2215000  -1362.9234      233.6521      -1596.5755      307.39387      1303.1067      3840.7412      0.99696119
   2216000  -1367.97        221.81697     -1589.7869      291.82351     -789.11166      3840.7412      0.99696119
   2217000  -1355.0422      209.46554     -1564.5077      275.57392      183.8642       3840.7412      0.99696119
   2218000  -1383.8938      226.51617     -1610.41        298.0058      -1100.3164      3840.7412      0.99696119
   2219000  -1370.6958      202.72285     -1573.4187      266.70319     -515.00556      3840.7412      0.99696119
   2220000  -1359.3199      234.69039     -1594.0103      308.75985     -1045.9465      3840.7412      0.99696119
   2221000  -1367.7749      214.6013      -1582.3762      282.33054     -800.64274      3840.7412      0.99696119
   2222000  -1336.2082      228.08381     -1564.292       300.0682      -731.32218      3840.7412      0.99696119
   2223000  -1358.9         234.57771     -1593.4777      308.61161     -1611.8844      3840.7412      0.99696119
   2224000  -1395.4819      208.50522     -1603.9871      274.31051     -1111.7675      3840.7412      0.99696119
   2225000  -1347.283       214.77081     -1562.0539      282.55355     -466.58717      3840.7412      0.99696119
   2226000  -1346.1231      234.01001     -1580.1331      307.86474      472.31808      3840.7412      0.99696119
   2227000  -1361.0331      231.21316     -1592.2463      304.1852      -1509.159       3840.7412      0.99696119
   2228000  -1355.7708      214.86692     -1570.6378      282.67999     -716.64072      3840.7412      0.99696119
   2229000  -1324.487       211.94567     -1536.4327      278.83678      58.570321      3840.7412      0.99696119
   2230000  -1318.4484      221.73948     -1540.1879      291.72157     -617.69112      3840.7412      0.99696119
   2231000  -1304.5459      230.27113     -1534.8171      302.94585     -1349.7791      3840.7412      0.99696119
   2232000  -1341.3605      222.38765     -1563.7482      292.57431     -1569.0066      3840.7412      0.99696119
   2233000  -1351.573       232.40222     -1583.9753      305.74953     -1032.6641      3840.7412      0.99696119
   2234000  -1298.1138      234.26641     -1532.3802      308.20207      350.4079       3840.7412      0.99696119
   2235000  -1341.5346      214.81349     -1556.3481      282.6097      -2231.9042      3840.7412      0.99696119
   2236000  -1361.244       226.03482     -1587.2788      297.37255     -824.23372      3840.7412      0.99696119
   2237000  -1313.1362      225.09814     -1538.2343      296.14023     -499.84321      3840.7412      0.99696119
   2238000  -1363.0102      225.02814     -1588.0384      296.04815     -626.01882      3840.7412      0.99696119
   2239000  -1319.209       232.1945      -1551.4035      305.47624     -2139.2465      3840.7412      0.99696119
   2240000  -1307.59        245.84693     -1553.4369      323.43745     -497.99086      3840.7412      0.99696119
   2241000  -1356.8115      219.08273     -1575.8942      288.22633      603.86832      3840.7412      0.99696119
   2242000  -1339.0026      227.79144     -1566.794       299.68356     -1204.2298      3840.7412      0.99696119
   2243000  -1319.1289      236.16067     -1555.2896      310.69416     -869.36842      3840.7412      0.99696119
   2244000  -1366.6733      206.05457     -1572.7279      271.08643      128.50681      3840.7412      0.99696119
   2245000  -1303.0633      235.52105     -1538.5843      309.85267      129.95401      3840.7412      0.99696119
   2246000  -1323.6816      232.21241     -1555.894       305.4998      -332.22789      3840.7412      0.99696119
   2247000  -1326.445       239.13354     -1565.5786      314.60528     -847.9835       3840.7412      0.99696119
   2248000  -1348.2207      230.19942     -1578.4201      302.85151     -460.01934      3840.7412      0.99696119
   2249000  -1337.6834      217.64016     -1555.3235      286.32849     -71.696926      3840.7412      0.99696119
   2250000  -1305.4723      229.64643     -1535.1187      302.12399     -1159.3521      3840.7412      0.99696119
   2251000  -1338.6983      231.86013     -1570.5584      305.03635     -2149.1789      3840.7412      0.99696119
   2252000  -1327.0571      221.42412     -1548.4813      291.30669     -1307.8617      3840.7412      0.99696119
   2253000  -1329.0474      228.45937     -1557.5068      300.56229     -3662.1786      3840.7412      0.99696119
   2254000  -1327.1799      223.49163     -1550.6715      294.02671      76.703367      3840.7412      0.99696119
   2255000  -1335.2227      221.57149     -1556.7942      291.50056     -456.19809      3840.7412      0.99696119
   2256000  -1349.7446      227.42617     -1577.1708      299.20301     -864.28761      3840.7412      0.99696119
   2257000  -1384.4339      213.40335     -1597.8373      280.75452      2296.6926      3840.7412      0.99696119
   2258000  -1338.9334      240.99994     -1579.9333      317.06073      183.63415      3840.7412      0.99696119
   2259000  -1351.7089      231.0846      -1582.7935      304.01606      684.44327      3840.7412      0.99696119
   2260000  -1333.068       229.56588     -1562.6339      302.01802      20.376231      3840.7412      0.99696119
   2261000  -1327.5284      221.69659     -1549.225       291.66514     -936.21232      3840.7412      0.99696119
   2262000  -1327.29        232.93418     -1560.2242      306.44937      444.89988      3840.7412      0.99696119
   2263000  -1340.6042      217.84522     -1558.4494      286.59827     -1241.2741      3840.7412      0.99696119
   2264000  -1338.5766      212.47729     -1551.0539      279.53618      341.45328      3840.7412      0.99696119
   2265000  -1318.1257      228.17381     -1546.2995      300.1866       732.17934      3840.7412      0.99696119
   2266000  -1356.4504      223.31473     -1579.7651      293.79398      1487.1771      3840.7412      0.99696119
   2267000  -1342.8175      239.10022     -1581.9177      314.56145      855.40166      3840.7412      0.99696119
   2268000  -1374.1239      213.80909     -1587.933       281.2883       619.09551      3840.7412      0.99696119
   2269000  -1353.3581      242.1246      -1595.4827      318.54034     -280.1073       3840.7412      0.99696119
   2270000  -1339.3299      235.38204     -1574.712       309.66979      1161.3128      3840.7412      0.99696119
   2271000  -1356.4755      220.57826     -1577.0537      290.19387     -2367.6729      3840.7412      0.99696119
   2272000  -1352.5031      220.32165     -1572.8247      289.85626      220.86764      3840.7412      0.99696119
   2273000  -1320.2514      245.68163     -1565.933       323.21998      783.97421      3840.7412      0.99696119
   2274000  -1351.0245      218.9612      -1569.9857      288.06645     -150.99042      3840.7412      0.99696119
   2275000  -1366.6058      233.55916     -1600.165       307.2716      -1856.732       3840.7412      0.99696119
   2276000  -1316.2837      248.30232     -1564.5861      326.66778     -711.12751      3840.7412      0.99696119
   2277000  -1345.8128      222.87723     -1568.69        293.2184       2158.963       3840.7412      0.99696119
   2278000  -1350.0553      224.86727     -1574.9226      295.8365       1428.9978      3840.7412      0.99696119
   2279000  -1333.9585      213.57195     -1547.5304      280.97633     -1883.2223      3840.7412      0.99696119
   2280000  -1344.5906      227.46024     -1572.0508      299.24782     -2761.3407      3840.7412      0.99696119
   2281000  -1325.4186      218.61369     -1544.0323      287.60926      1228.2487      3840.7412      0.99696119
   2282000  -1300.1051      233.91318     -1534.0183      307.73734     -259.41555      3840.7412      0.99696119
   2283000  -1342.8847      244.01828     -1586.903       321.03168     -1898.8629      3840.7412      0.99696119
   2284000  -1351.611       214.6819      -1566.2929      282.43658     -1209.1206      3840.7412      0.99696119
   2285000  -1334.4215      224.72925     -1559.1507      295.65493      420.68787      3840.7412      0.99696119
   2286000  -1348.849       223.47935     -1572.3284      294.01056     -314.08437      3840.7412      0.99696119
   2287000  -1328.3355      233.48744     -1561.823       307.17724      1211.0738      3840.7412      0.99696119
   2288000  -1371.3869      200.72778     -1572.1147      264.07848     -64.079078      3840.7412      0.99696119
   2289000  -1341.8145      223.27485     -1565.0893      293.74152      179.28553      3840.7412      0.99696119
   2290000  -1347.9938      239.18311     -1587.1769      314.67049      512.12378      3840.7412      0.99696119
   2291000  -1366.7466      226.01674     -1592.7634      297.34876     -465.81023      3840.7412      0.99696119
   2292000  -1354.8894      211.23761     -1566.127       277.90525     -1418.2012      3840.7412      0.99696119
   2293000  -1326.288       238.68082     -1564.9689      314.00969     -1090.3579      3840.7412      0.99696119
   2294000  -1333.1402      224.75295     -1557.8931      295.6861      -1675.9579      3840.7412      0.99696119
   2295000  -1349.5244      231.0862      -1580.6106      304.01817     -1154.1377      3840.7412      0.99696119
   2296000  -1339.454       230.33966     -1569.7937      303.03601      471.74474      3840.7412      0.99696119
   2297000  -1381.2955      222.88098     -1604.1765      293.22333     -803.92044      3840.7412      0.99696119
   2298000  -1366.9162      232.71283     -1599.6291      306.15816     -1295.6997      3840.7412      0.99696119
   2299000  -1329.0946      225.07758     -1554.1722      296.11319     -613.5119       3840.7412      0.99696119
   2300000  -1303.9902      249.0692      -1553.0594      327.67669      105.78133      3840.7412      0.99696119
   2301000  -1338.7893      202.08275     -1540.8721      265.86108     -1133.5942      3840.7412      0.99696119
   2302000  -1333.5381      223.73669     -1557.2748      294.34911      78.306527      3840.7412      0.99696119
   2303000  -1299.617       241.25367     -1540.8707      317.39454     -1006.6104      3840.7412      0.99696119
   2304000  -1346.9576      236.50007     -1583.4577      311.14068     -252.70708      3840.7412      0.99696119
   2305000  -1372.9351      217.30982     -1590.245       285.89388     -177.49949      3840.7412      0.99696119
   2306000  -1324.0875      234.63219     -1558.7197      308.68329      1127.9378      3840.7412      0.99696119
   2307000  -1350.4322      218.33943     -1568.7717      287.24845     -359.75301      3840.7412      0.99696119
   2308000  -1372.4767      213.7752      -1586.2519      281.24372     -2111.3516      3840.7412      0.99696119
   2309000  -1335.8062      222.5952      -1558.4014      292.84736     -2017.8575      3840.7412      0.99696119
   2310000  -1365.3778      223.52788     -1588.9057      294.0744      -811.25571      3840.7412      0.99696119
   2311000  -1393.6641      221.35484     -1615.019       291.21553     -1735.7983      3840.7412      0.99696119
   2312000  -1358.8171      227.32319     -1586.1403      299.06753     -1196.1234      3840.7412      0.99696119
   2313000  -1366.1653      222.12382     -1588.2891      292.2272       604.85727      3840.7412      0.99696119
   2314000  -1348.2975      231.27024     -1579.5677      304.26029     -2084.1381      3840.7412      0.99696119
   2315000  -1324.1098      227.38146     -1551.4912      299.14419     -237.01289      3840.7412      0.99696119
   2316000  -1352.1582      209.03695     -1561.1952      275.01006      1540.4132      3840.7412      0.99696119
   2317000  -1373.8725      233.62295     -1607.4954      307.35552      273.83726      3840.7412      0.99696119
   2318000  -1368.4545      220.89796     -1589.3524      290.61446     -2302.9808      3840.7412      0.99696119
   2319000  -1316.7619      228.96239     -1545.7243      301.22407      1544.6731      3840.7412      0.99696119
   2320000  -1345.1639      226.39016     -1571.554       297.84002     -1992.2214      3840.7412      0.99696119
   2321000  -1310.8092      225.96678     -1536.776       297.28302     -2019.7784      3840.7412      0.99696119
   2322000  -1340.4353      220.23715     -1560.6725      289.74509      1128.5179      3840.7412      0.99696119
   2323000  -1345.3489      230.8819      -1576.2308      303.74938     -2018.3558      3840.7412      0.99696119
   2324000  -1314.6005      242.15197     -1556.7525      318.57634     -1326.8931      3840.7412      0.99696119
   2325000  -1338.0741      218.13955     -1556.2136      286.98548      1304.5576      3840.7412      0.99696119
   2326000  -1318.1284      238.17495     -1556.3033      313.34415      470.24136      3840.7412      0.99696119
   2327000  -1387.04        215.60974     -1602.6497      283.65725      158.87482      3840.7412      0.99696119
   2328000  -1322.8845      250.68387     -1573.5684      329.80095     -49.913334      3840.7412      0.99696119
   2329000  -1343.0058      239.43558     -1582.4413      315.00265      286.56239      3840.7412      0.99696119
   2330000  -1351.9516      231.22854     -1583.1802      304.20542     -1822.6565      3840.7412      0.99696119
   2331000  -1348.2352      232.44726     -1580.6824      305.80877     -303.74941      3840.7412      0.99696119
   2332000  -1322.9001      218.23139     -1541.1315      287.10631      95.999516      3840.7412      0.99696119
   2333000  -1352.7703      204.25846     -1557.0288      268.72346     -2362.0544      3840.7412      0.99696119
   2334000  -1319.0536      232.38961     -1551.4432      305.73294     -1399.3552      3840.7412      0.99696119
   2335000  -1320.1373      226.23749     -1546.3748      297.63917     -189.12669      3840.7412      0.99696119
   2336000  -1334.4697      227.4772      -1561.947       299.27015     -599.78038      3840.7412      0.99696119
   2337000  -1329.2614      217.22709     -1546.4885      285.78505     -845.26403      3840.7412      0.99696119
   2338000  -1338.768       218.35937     -1557.1274      287.27469     -1313.4292      3840.7412      0.99696119
   2339000  -1317.7108      237.83527     -1555.546       312.89727     -779.40406      3840.7412      0.99696119
   2340000  -1385.3738      188.70933     -1574.0831      248.26695      91.636416      3840.7412      0.99696119
   2341000  -1337.2095      246.84743     -1584.057       324.75371     -1282.3374      3840.7412      0.99696119
   2342000  -1334.3396      236.80336     -1571.143       311.53968      49.512534      3840.7412      0.99696119
   2343000  -1349.834       233.50747     -1583.3414      307.20359     -601.51289      3840.7412      0.99696119
   2344000  -1341.1397      225.10739     -1566.2471      296.15241     -2820.3524      3840.7412      0.99696119
   2345000  -1343.6104      213.62487     -1557.2353      281.04595     -961.49195      3840.7412      0.99696119
   2346000  -1324.7511      221.40618     -1546.1573      291.28307     -1059.8789      3840.7412      0.99696119
   2347000  -1339.3022      233.72287     -1573.0251      307.48698     -274.5851       3840.7412      0.99696119
   2348000  -1352.8338      205.33009     -1558.1639      270.1333      -1144.8791      3840.7412      0.99696119
   2349000  -1343.3392      203.35178     -1546.691       267.53062     -2788.4924      3840.7412      0.99696119
   2350000  -1335.5693      218.96795     -1554.5373      288.07533      708.58577      3840.7412      0.99696119
   2351000  -1360.2263      209.11784     -1569.3441      275.11647      279.21211      3840.7412      0.99696119
   2352000  -1302.9416      228.61614     -1531.5578      300.76854     -2188.9868      3840.7412      0.99696119
   2353000  -1358.9042      226.74228     -1585.6465      298.30327     -1852.3928      3840.7412      0.99696119
   2354000  -1318.4225      230.199       -1548.6215      302.85095      794.88749      3840.7412      0.99696119
   2355000  -1329.1471      227.25955     -1556.4066      298.98381     -643.81121      3840.7412      0.99696119
   2356000  -1349.208       210.26702     -1559.475       276.62835     -1623.4663      3840.7412      0.99696119
   2357000  -1322.3653      229.29062     -1551.6559      301.65589     -1539.2036      3840.7412      0.99696119
   2358000  -1303.7539      228.8972      -1532.6511      301.1383      -3221.6699      3840.7412      0.99696119
   2359000  -1341.2387      238.94279     -1580.1815      314.35434      459.61193      3840.7412      0.99696119
   2360000  -1325.4449      233.46278     -1558.9076      307.1448       130.40672      3840.7412      0.99696119
   2361000  -1366.3548      217.12078     -1583.4756      285.64518     -198.67377      3840.7412      0.99696119
   2362000  -1364.9349      216.78706     -1581.722       285.20614     -785.80683      3840.7412      0.99696119
   2363000  -1359.474       214.1028      -1573.5768      281.67471     -112.93966      3840.7412      0.99696119
   2364000  -1350.4369      221.84858     -1572.2855      291.8651      -400.34171      3840.7412      0.99696119
   2365000  -1357.9281      210.21907     -1568.1472      276.56526     -509.44302      3840.7412      0.99696119
   2366000  -1378.3829      220.35738     -1598.7403      289.90328     -1046.6258      3840.7412      0.99696119
   2367000  -1344.8073      215.98236     -1560.7897      284.14748     -1039.4025      3840.7412      0.99696119
   2368000  -1407.5203      200.61622     -1608.1365      263.93171      45.413815      3840.7412      0.99696119
   2369000  -1357.901       200.84492     -1558.7459      264.23259      487.24351      3840.7412      0.99696119
   2370000  -1364.6066      211.32695     -1575.9335      278.02279     -1395.7353      3840.7412      0.99696119
   2371000  -1380.8433      199.54214     -1580.3854      262.51864     -1100.1698      3840.7412      0.99696119
   2372000  -1323.5822      222.14377     -1545.726       292.25346      888.50746      3840.7412      0.99696119
   2373000  -1355.1446      217.92604     -1573.0706      286.70459     -2384.3221      3840.7412      0.99696119
   2374000  -1332.0095      217.80751     -1549.817       286.54865     -1606.9449      3840.7412      0.99696119
   2375000  -1336.8523      229.66589     -1566.5182      302.1496      -824.07105      3840.7412      0.99696119
   2376000  -1357.9724      219.64296     -1577.6153      288.96338      66.744804      3840.7412      0.99696119
   2377000  -1381.2645      198.84673     -1580.1112      261.60375     -2743.6946      3840.7412      0.99696119
   2378000  -1346.5603      207.31955     -1553.8799      272.75064     -1785.7442      3840.7412      0.99696119
   2379000  -1360.4983      227.05144     -1587.5498      298.71001      656.75512      3840.7412      0.99696119
   2380000  -1337.1321      214.44977     -1551.5819      282.13119      196.30688      3840.7412      0.99696119
   2381000  -1367.7329      219.02293     -1586.7558      288.14766     -273.66436      3840.7412      0.99696119
   2382000  -1343.1026      215.08463     -1558.1873      282.96642      2674.4413      3840.7412      0.99696119
   2383000  -1362.6972      202.55958     -1565.2567      266.4884      -763.69625      3840.7412      0.99696119
   2384000  -1344.3878      238.68048     -1583.0683      314.00924     -1514.4093      3840.7412      0.99696119
   2385000  -1317.1883      232.02806     -1549.2163      305.25728     -496.40096      3840.7412      0.99696119
   2386000  -1376.8598      226.66597     -1603.5257      298.20289     -1051.7505      3840.7412      0.99696119
   2387000  -1336.5029      230.74683     -1567.2497      303.57168     -536.20847      3840.7412      0.99696119
   2388000  -1359.0374      217.17457     -1576.212       285.71595     -1591.1639      3840.7412      0.99696119
   2389000  -1370.3093      198.39455     -1568.7039      261.00887      312.92648      3840.7412      0.99696119
   2390000  -1338.3933      219.86796     -1558.2613      289.2594       1220.0236      3840.7412      0.99696119
   2391000  -1326.5366      222.94292     -1549.4796      293.30482     -605.49021      3840.7412      0.99696119
   2392000  -1342.3559      222.40743     -1564.7633      292.60032     -2186.8363      3840.7412      0.99696119
   2393000  -1337.4621      215.96375     -1553.4259      284.12299      778.42403      3840.7412      0.99696119
   2394000  -1311.9779      244.413       -1556.3909      321.55097     -3.257729       3840.7412      0.99696119
   2395000  -1331.2402      232.47633     -1563.7165      305.84702     -917.50749      3840.7412      0.99696119
   2396000  -1324.7821      213.84503     -1538.6272      281.33559     -1498.3146      3840.7412      0.99696119
   2397000  -1342.311       224.72244     -1567.0335      295.64597     -866.50225      3840.7412      0.99696119
   2398000  -1336.66        236.79893     -1573.4589      311.53386      332.79834      3840.7412      0.99696119
   2399000  -1317.7801      242.40472     -1560.1848      318.90886     -831.9414       3840.7412      0.99696119
   2400000  -1349.8734      214.25858     -1564.132       281.87966     -3372.0899      3840.7412      0.99696119
   2401000  -1329.3507      222.58614     -1551.9369      292.83544      1669.7395      3840.7412      0.99696119
   2402000  -1372.5151      204.29588     -1576.8109      268.77268     -1.4462264      3840.7412      0.99696119
   2403000  -1316.0104      240.21094     -1556.2214      316.02271     -1189.629       3840.7412      0.99696119
   2404000  -1366.2191      206.94243     -1573.1615      272.2545      -884.93944      3840.7412      0.99696119
   2405000  -1329.4518      248.3287      -1577.7805      326.70248      788.6967       3840.7412      0.99696119
   2406000  -1348.5882      224.02975     -1572.618       294.73466     -789.05524      3840.7412      0.99696119
   2407000  -1350.4652      205.99445     -1556.4596      271.00733     -597.87785      3840.7412      0.99696119
   2408000  -1332.2229      225.12358     -1557.3465      296.1737      -696.59418      3840.7412      0.99696119
   2409000  -1338.3412      245.38424     -1583.7254      322.82874     -1662.5178      3840.7412      0.99696119
   2410000  -1355.8445      212.20519     -1568.0497      279.17821     -2591.3449      3840.7412      0.99696119
   2411000  -1297.8101      225.34545     -1523.1556      296.46561      1665.5581      3840.7412      0.99696119
   2412000  -1403.0157      207.73004     -1610.7458      273.29069     -325.59211      3840.7412      0.99696119
   2413000  -1352.3241      216.52449     -1568.8486      284.8607      -1389.0622      3840.7412      0.99696119
   2414000  -1369.7637      225.84746     -1595.6112      297.12605     -1461.3517      3840.7412      0.99696119
   2415000  -1342.5288      226.62163     -1569.1504      298.14455     -976.73936      3840.7412      0.99696119
   2416000  -1355.8668      229.75959     -1585.6263      302.27286     -369.56164      3840.7412      0.99696119
   2417000  -1335.2518      207.60754     -1542.8593      273.12952     -516.47982      3840.7412      0.99696119
   2418000  -1298.2469      234.70313     -1532.95        308.77661      503.73121      3840.7412      0.99696119
   2419000  -1369.2463      222.5662      -1591.8125      292.8092      -196.88693      3840.7412      0.99696119
   2420000  -1378.071       219.04249     -1597.1135      288.1734      -1938.9346      3840.7412      0.99696119
   2421000  -1333.5006      236.0004      -1569.501       310.48331     -3673.7233      3840.7412      0.99696119
   2422000  -1348.1378      217.31649     -1565.4542      285.90266      211.56359      3840.7412      0.99696119
   2423000  -1353.4325      213.63168     -1567.0642      281.0549      -693.14157      3840.7412      0.99696119
   2424000  -1317.2357      234.1747      -1551.4104      308.08141     -2811.9282      3840.7412      0.99696119
   2425000  -1329.3252      239.91546     -1569.2407      315.63398     -1129.6031      3840.7412      0.99696119
   2426000  -1324.3295      236.43221     -1560.7617      311.0514      -1178.1125      3840.7412      0.99696119
   2427000  -1327.2243      254.25142     -1581.4757      334.49444      47.566544      3840.7412      0.99696119
   2428000  -1321.2232      236.62171     -1557.8449      311.3007       209.02479      3840.7412      0.99696119
   2429000  -1344.5574      218.99317     -1563.5506      288.10851      753.16059      3840.7412      0.99696119
   2430000  -1371.7125      218.42947     -1590.1419      287.36691     -1064.7086      3840.7412      0.99696119
   2431000  -1356.7231      220.00819     -1576.7313      289.44388     -636.01285      3840.7412      0.99696119
   2432000  -1347.4239      224.00431     -1571.4283      294.7012      -87.635494      3840.7412      0.99696119
   2433000  -1310.4927      227.01125     -1537.504       298.65714      384.48047      3840.7412      0.99696119
   2434000  -1345.5663      233.4985      -1579.0648      307.19179     -641.79497      3840.7412      0.99696119
   2435000  -1358.6048      222.8481      -1581.4529      293.18008     -977.30761      3840.7412      0.99696119
   2436000  -1342.7415      225.22278     -1567.9643      296.30421      592.0941       3840.7412      0.99696119
   2437000  -1363.1822      207.20272     -1570.385       272.59694      402.77528      3840.7412      0.99696119
   2438000  -1322.8891      231.93124     -1554.8203      305.12991     -270.90556      3840.7412      0.99696119
   2439000  -1320.288       218.97047     -1539.2584      288.07865      2907.5189      3840.7412      0.99696119
   2440000  -1345.3562      222.50272     -1567.8589      292.7257      -117.38991      3840.7412      0.99696119
   2441000  -1312.2615      238.57679     -1550.8383      313.87282     -1014.8877      3840.7412      0.99696119
   2442000  -1332.7314      237.02672     -1569.7581      311.83354     -1055.6691      3840.7412      0.99696119
   2443000  -1335.3989      211.27503     -1546.6739      277.95449      246.71125      3840.7412      0.99696119
   2444000  -1351.4765      228.27152     -1579.748       300.31516     -1278.6908      3840.7412      0.99696119
   2445000  -1343.1871      225.20131     -1568.3884      296.27597     -591.53985      3840.7412      0.99696119
   2446000  -1326.9632      237.76154     -1564.7248      312.80027      89.52961       3840.7412      0.99696119
   2447000  -1345.1425      230.63158     -1575.7741      303.42006     -1023.8909      3840.7412      0.99696119
   2448000  -1311.5359      240.47723     -1552.0132      316.37305     -1075.5547      3840.7412      0.99696119
   2449000  -1337.5564      218.84838     -1556.4048      287.91803     -2706.0424      3840.7412      0.99696119
   2450000  -1361.3308      222.66729     -1583.9981      292.9422      -1269.0669      3840.7412      0.99696119
   2451000  -1385.1708      214.79307     -1599.9639      282.58283     -610.64406      3840.7412      0.99696119
   2452000  -1347.6622      232.36697     -1580.0292      305.70314     -1653.3572      3840.7412      0.99696119
   2453000  -1345.0901      221.42355     -1566.5136      291.30593     -2497.7754      3840.7412      0.99696119
   2454000  -1360.5821      217.74146     -1578.3235      286.46175     -230.69221      3840.7412      0.99696119
   2455000  -1322.2294      223.10731     -1545.3367      293.5211      -200.55554      3840.7412      0.99696119
   2456000  -1325.5642      228.19654     -1553.7608      300.2165      -1303.8868      3840.7412      0.99696119
   2457000  -1297.7287      225.21164     -1522.9403      296.28956     -1980.5191      3840.7412      0.99696119
   2458000  -1361.4277      214.55608     -1575.9837      282.27105     -565.66503      3840.7412      0.99696119
   2459000  -1344.2737      227.42363     -1571.6973      299.19967     -716.11284      3840.7412      0.99696119
   2460000  -1368.9305      219.68824     -1588.6188      289.02295     -2619.3579      3840.7412      0.99696119
   2461000  -1362.4011      216.1573      -1578.5584      284.37763     -170.18488      3840.7412      0.99696119
   2462000  -1339.5315      227.36379     -1566.8953      299.12094     -743.83183      3840.7412      0.99696119
   2463000  -1278.7646      233.53305     -1512.2977      307.23725     -845.79912      3840.7412      0.99696119
   2464000  -1351.9589      215.71019     -1567.6691      283.78941     -796.59574      3840.7412      0.99696119
   2465000  -1346.3316      233.88107     -1580.2127      307.6951       381.3848       3840.7412      0.99696119
   2466000  -1353.3874      208.47233     -1561.8597      274.26724     -698.79513      3840.7412      0.99696119
   2467000  -1327.5973      236.98773     -1564.585       311.78224     -497.05911      3840.7412      0.99696119
   2468000  -1326.2438      224.22748     -1550.4713      294.9948      -628.5307       3840.7412      0.99696119
   2469000  -1325.4604      228.08069     -1553.5411      300.0641       948.32875      3840.7412      0.99696119
   2470000  -1355.5417      233.89657     -1589.4383      307.7155       1014.0943      3840.7412      0.99696119
   2471000  -1363.4834      235.72628     -1599.2097      310.12267     -1083.9319      3840.7412      0.99696119
   2472000  -1344.764       231.73724     -1576.5012      304.87467     -488.25373      3840.7412      0.99696119
   2473000  -1346.0858      236.26933     -1582.3551      310.83712     -1102.2827      3840.7412      0.99696119
   2474000  -1305.6882      244.78773     -1550.4759      322.04397     -1503.967       3840.7412      0.99696119
   2475000  -1318.7986      234.93883     -1553.7375      309.08671     -2795.5096      3840.7412      0.99696119
   2476000  -1350.046       219.72456     -1569.7706      289.07074     -903.0999       3840.7412      0.99696119
   2477000  -1316.503       225.70233     -1542.2053      296.93511      1982.3552      3840.7412      0.99696119
   2478000  -1345.5516      220.20785     -1565.7594      289.70655     -129.86857      3840.7412      0.99696119
   2479000  -1370.5026      204.08277     -1574.5854      268.49232      734.18437      3840.7412      0.99696119
   2480000  -1337.711       226.98137     -1564.6923      298.61782     -1046.3919      3840.7412      0.99696119
   2481000  -1330.6732      237.80864     -1568.4818      312.86223     -1463.6179      3840.7412      0.99696119
   2482000  -1378.811       214.25134     -1593.0624      281.87014      830.57151      3840.7412      0.99696119
   2483000  -1339.6751      235.89613     -1575.5712      310.34614     -2264.6852      3840.7412      0.99696119
   2484000  -1332.1637      221.37188     -1553.5356      291.23795     -2363.3435      3840.7412      0.99696119
   2485000  -1336.2311      208.39709     -1544.6282      274.16825     -1905.2671      3840.7412      0.99696119
   2486000  -1365.8707      218.25276     -1584.1235      287.13443     -1769.4988      3840.7412      0.99696119
   2487000  -1314.7904      236.29233     -1551.0827      310.86737      1762.8214      3840.7412      0.99696119
   2488000  -1344.1546      229.5756      -1573.7302      302.03081     -3128.995       3840.7412      0.99696119
   2489000  -1357.3633      211.56171     -1568.925       278.33164     -857.06909      3840.7412      0.99696119
   2490000  -1311.5902      245.70896     -1557.2992      323.25593      788.17143      3840.7412      0.99696119
   2491000  -1366.1512      231.56282     -1597.714       304.64521     -800.2148       3840.7412      0.99696119
   2492000  -1325.5333      232.92702     -1558.4604      306.43995      378.3582       3840.7412      0.99696119
   2493000  -1361.9747      239.28923     -1601.2639      314.81011      390.3725       3840.7412      0.99696119
   2494000  -1323.3699      250.90559     -1574.2755      330.09266      127.31363      3840.7412      0.99696119
   2495000  -1321.8494      237.8467      -1559.6961      312.9123       307.25716      3840.7412      0.99696119
   2496000  -1356.9448      225.27701     -1582.2218      296.37556      369.14115      3840.7412      0.99696119
   2497000  -1376.9033      222.86449     -1599.7678      293.20164     -1207.2252      3840.7412      0.99696119
   2498000  -1305.1746      226.64871     -1531.8233      298.18018      2536.7412      3840.7412      0.99696119
   2499000  -1331.6586      227.72606     -1559.3847      299.59754      16.291736      3840.7412      0.99696119
   2500000  -1346.0667      223.61661     -1569.6834      294.19113      795.72758      3840.7412      0.99696119
   2501000  -1353.6407      209.60449     -1563.2452      275.75671     -1282.1627      3840.7412      0.99696119
   2502000  -1315.1078      236.8362      -1551.944       311.58288     -2192.4636      3840.7412      0.99696119
   2503000  -1371.7556      214.43216     -1586.1878      282.10802     -1448.6102      3840.7412      0.99696119
   2504000  -1339.9959      229.00758     -1569.0034      301.28351     -8.6380055      3840.7412      0.99696119
   2505000  -1333.3369      223.32825     -1556.6652      293.81177     -387.77579      3840.7412      0.99696119
   2506000  -1371.5438      219.12997     -1590.6737      288.28849     -935.56411      3840.7412      0.99696119
   2507000  -1361.3808      217.87875     -1579.2596      286.64237     -826.59038      3840.7412      0.99696119
   2508000  -1331.2664      241.10215     -1572.3686      317.19519     -896.11124      3840.7412      0.99696119
   2509000  -1345.065       214.39079     -1559.4558      282.05359     -1926.6421      3840.7412      0.99696119
   2510000  -1321.139       230.47069     -1551.6097      303.2084       433.12287      3840.7412      0.99696119
   2511000  -1309.2512      238.06046     -1547.3116      313.19353     -1548.6788      3840.7412      0.99696119
   2512000  -1324.4288      229.80125     -1554.2301      302.32767     -2101.4242      3840.7412      0.99696119
   2513000  -1347.7063      227.47242     -1575.1787      299.26386     -983.84416      3840.7412      0.99696119
   2514000  -1363.9234      218.06006     -1581.9834      286.88091      625.9881       3840.7412      0.99696119
   2515000  -1322.7646      230.77922     -1553.5438      303.61429     -536.98277      3840.7412      0.99696119
   2516000  -1351.8976      209.04115     -1560.9387      275.01559      1035.6868      3840.7412      0.99696119
   2517000  -1371.9156      220.05014     -1591.9658      289.49906     -162.67952      3840.7412      0.99696119
   2518000  -1360.4843      224.56272     -1585.047       295.43584      871.03065      3840.7412      0.99696119
   2519000  -1325.8483      234.48197     -1560.3303      308.48566      303.26648      3840.7412      0.99696119
   2520000  -1333.7219      212.18157     -1545.9035      279.14714      305.67955      3840.7412      0.99696119
   2521000  -1369.4359      194.21942     -1563.6553      255.51604     -861.78292      3840.7412      0.99696119
   2522000  -1335.685       219.66805     -1555.3531      288.99639     -457.38993      3840.7412      0.99696119
   2523000  -1328.198       231.26516     -1559.4631      304.25361     -2986.1572      3840.7412      0.99696119
   2524000  -1338.0179      204.60294     -1542.6208      269.17665     -1311.4762      3840.7412      0.99696119
   2525000  -1305.896       241.00665     -1546.9026      317.06955     -1366.8525      3840.7412      0.99696119
   2526000  -1340.2008      221.12646     -1561.3272      290.91507     -1838.8229      3840.7412      0.99696119
   2527000  -1329.1986      229.39604     -1558.5946      301.79458     -1718.1408      3840.7412      0.99696119
   2528000  -1316.0619      223.35632     -1539.4182      293.84869      590.01909      3840.7412      0.99696119
   2529000  -1324.7032      235.45938     -1560.1625      309.77155     -437.2109       3840.7412      0.99696119
   2530000  -1343.5083      241.82052     -1585.3288      318.14029     -2514.3677      3840.7412      0.99696119
   2531000  -1309.9838      223.8936      -1533.8774      294.55554     -2074.7676      3840.7412      0.99696119
   2532000  -1330.1957      232.03095     -1562.2267      305.26108     -1660.7595      3840.7412      0.99696119
   2533000  -1309.5168      235.83052     -1545.3473      310.25981      770.80984      3840.7412      0.99696119
   2534000  -1367.4393      226.81758     -1594.2569      298.40234     -2349.5408      3840.7412      0.99696119
   2535000  -1322.1672      230.26392     -1552.4311      302.93636     -2910.1994      3840.7412      0.99696119
   2536000  -1322.8489      222.09008     -1544.939       292.18282     -651.66044      3840.7412      0.99696119
   2537000  -1379.1943      219.53351     -1598.7278      288.81939     -2132.2909      3840.7412      0.99696119
   2538000  -1370.0131      213.31851     -1583.3316      280.6429      -821.55434      3840.7412      0.99696119
   2539000  -1323.2787      235.50986     -1558.7886      309.83795     -1270.427       3840.7412      0.99696119
   2540000  -1381.2905      225.08708     -1606.3776      296.12569     -1317.0437      3840.7412      0.99696119
   2541000  -1384.97        218.62331     -1603.5933      287.62192     -1615.186       3840.7412      0.99696119
   2542000  -1363.344       231.75711     -1595.1011      304.90081     -2048.6028      3840.7412      0.99696119
   2543000  -1357.8691      228.59377     -1586.4629      300.7391      -865.98879      3840.7412      0.99696119
   2544000  -1380.725       204.6286      -1585.3536      269.21041     -2753.8466      3840.7412      0.99696119
   2545000  -1353.4841      213.4546      -1566.9387      280.82194      297.82892      3840.7412      0.99696119
   2546000  -1377.8252      217.98803     -1595.8133      286.78615      1253.9013      3840.7412      0.99696119
   2547000  -1345.0473      228.47649     -1573.5238      300.58481     -383.91134      3840.7412      0.99696119
   2548000  -1354.1318      215.17261     -1569.3044      283.08216     -919.79916      3840.7412      0.99696119
   2549000  -1339.0987      242.07212     -1581.1709      318.47129     -979.32092      3840.7412      0.99696119
   2550000  -1338.0497      236.59343     -1574.6431      311.26351      107.4862       3840.7412      0.99696119
   2551000  -1313.3256      223.38769     -1536.7133      293.88997     -1765.4132      3840.7412      0.99696119
   2552000  -1335.6519      226.61778     -1562.2697      298.13949     -531.69122      3840.7412      0.99696119
   2553000  -1341.0822      227.86079     -1568.943       299.77479     -640.89641      3840.7412      0.99696119
   2554000  -1371.7934      221.42294     -1593.2163      291.30512     -545.12364      3840.7412      0.99696119
   2555000  -1337.1997      231.30022     -1568.5         304.29973     -79.416392      3840.7412      0.99696119
   2556000  -1327.5217      236.7913      -1564.313       311.52382     -159.31762      3840.7412      0.99696119
   2557000  -1307.0882      230.1743      -1537.2625      302.81846      2095.6003      3840.7412      0.99696119
   2558000  -1336.7437      229.8627      -1566.6064      302.40852     -2060.1504      3840.7412      0.99696119
   2559000  -1321.5234      231.26165     -1552.785       304.24899     -946.32569      3840.7412      0.99696119
   2560000  -1320.3401      230.71593     -1551.056       303.53104     -790.42581      3840.7412      0.99696119
   2561000  -1345.7655      234.05555     -1579.8211      307.92465      11.82777       3840.7412      0.99696119
   2562000  -1340.9239      218.2395      -1559.1634      287.11698      738.38327      3840.7412      0.99696119
   2563000  -1364.9096      231.44031     -1596.3499      304.48404     -2584.7162      3840.7412      0.99696119
   2564000  -1324.3881      226.88188     -1551.27        298.48694     -2358.7748      3840.7412      0.99696119
   2565000  -1357.3488      208.28607     -1565.6348      274.0222      -1250.3865      3840.7412      0.99696119
   2566000  -1365.2443      237.00005     -1602.2444      311.79845     -1013.8411      3840.7412      0.99696119
   2567000  -1352.091       230.10116     -1582.1921      302.72223     -547.81868      3840.7412      0.99696119
   2568000  -1367.9816      206.62173     -1574.6033      271.83259     -169.48279      3840.7412      0.99696119
   2569000  -1350.6975      213.18809     -1563.8856      280.47131     -1265.0557      3840.7412      0.99696119
   2570000  -1358.1722      215.23412     -1573.4063      283.16309     -1294.3326      3840.7412      0.99696119
   2571000  -1343.7733      232.06234     -1575.8356      305.30238      629.66571      3840.7412      0.99696119
   2572000  -1314.2889      242.10076     -1556.3897      318.50897     -743.55565      3840.7412      0.99696119
   2573000  -1357.0199      232.92942     -1589.9494      306.44311      1200.911       3840.7412      0.99696119
   2574000  -1332.6366      238.48583     -1571.1225      313.75315     -930.89965      3840.7412      0.99696119
   2575000  -1363.7143      215.37792     -1579.0922      283.35227     -1003.4157      3840.7412      0.99696119
   2576000  -1327.6717      218.19963     -1545.8713      287.06452     -1597.7483      3840.7412      0.99696119
   2577000  -1362.8204      203.39826     -1566.2187      267.59177     -1247.8991      3840.7412      0.99696119
   2578000  -1352.8412      230.91452     -1583.7557      303.7923      -815.65999      3840.7412      0.99696119
   2579000  -1351.1566      246.98636     -1598.143       324.93649     -71.645357      3840.7412      0.99696119
   2580000  -1344.4087      204.15493     -1548.5636      268.58725     -998.38348      3840.7412      0.99696119
   2581000  -1361.1737      220.37803     -1581.5517      289.93044      1657.6945      3840.7412      0.99696119
   2582000  -1330.8144      243.63633     -1574.4507      320.52918      641.86347      3840.7412      0.99696119
   2583000  -1391.9644      215.06362     -1607.028       282.93877     -512.35324      3840.7412      0.99696119
   2584000  -1338.2345      216.72634     -1554.9609      285.12626      2514.0169      3840.7412      0.99696119
   2585000  -1325.4879      230.94969     -1556.4376      303.83857     -238.27587      3840.7412      0.99696119
   2586000  -1329.1742      225.73464     -1554.9088      296.97763     -2018.8125      3840.7412      0.99696119
   2587000  -1316.9799      222.73684     -1539.7168      293.0337       97.278643      3840.7412      0.99696119
   2588000  -1356.1724      226.67843     -1582.8508      298.21927      17.792977      3840.7412      0.99696119
   2589000  -1354.3183      234.25662     -1588.5749      308.18918     -2023.4956      3840.7412      0.99696119
   2590000  -1343.5619      226.57664     -1570.1386      298.08536     -1273.2934      3840.7412      0.99696119
   2591000  -1319.2979      235.39441     -1554.6924      309.68607     -420.90407      3840.7412      0.99696119
   2592000  -1341.8256      224.48313     -1566.3087      295.33113     -934.24101      3840.7412      0.99696119
   2593000  -1358.1475      235.5943      -1593.7418      309.94904     -2647.3892      3840.7412      0.99696119
   2594000  -1325.2076      220.73174     -1545.9394      290.39579     -1891.8058      3840.7412      0.99696119
   2595000  -1362.6811      217.13812     -1579.8192      285.668       -1241.7134      3840.7412      0.99696119
   2596000  -1374.763       211.25436     -1586.0174      277.9273       12.307735      3840.7412      0.99696119
   2597000  -1324.0854      247.50984     -1571.5953      325.62519     -607.7947       3840.7412      0.99696119
   2598000  -1358.673       223.86296     -1582.536       294.51523     -934.17981      3840.7412      0.99696119
   2599000  -1374.3073      221.16928     -1595.4766      290.97141     -173.6199       3840.7412      0.99696119
   2600000  -1340.4676      233.88888     -1574.3565      307.70539     -2355.666       3840.7412      0.99696119
   2601000  -1391.2358      209.51276     -1600.7486      275.63604     -1293.072       3840.7412      0.99696119
   2602000  -1335.2858      225.62278     -1560.9086      296.83046     -308.99102      3840.7412      0.99696119
   2603000  -1352.7342      232.21729     -1584.9515      305.50623     -1073.3967      3840.7412      0.99696119
   2604000  -1374.2667      227.86446     -1602.1311      299.77963     -1273.8422      3840.7412      0.99696119
   2605000  -1327.1081      239.49891     -1566.607       315.08596     -404.16654      3840.7412      0.99696119
   2606000  -1310.2354      233.52715     -1543.7626      307.22949     -1637.6594      3840.7412      0.99696119
   2607000  -1346.5813      227.98546     -1574.5668      299.93881     -840.72977      3840.7412      0.99696119
   2608000  -1336.6813      222.08231     -1558.7637      292.1726      -1262.8386      3840.7412      0.99696119
   2609000  -1347.7477      224.51174     -1572.2595      295.36877     -273.70722      3840.7412      0.99696119
   2610000  -1348.884       216.06534     -1564.9493      284.25664     -1409.6153      3840.7412      0.99696119
   2611000  -1356.0341      221.49147     -1577.5255      291.39528     -796.37393      3840.7412      0.99696119
   2612000  -1301.0397      246.22111     -1547.2608      323.92973      1052.7493      3840.7412      0.99696119
   2613000  -1347.5576      210.6136      -1558.1712      277.0843      -254.67676      3840.7412      0.99696119
   2614000  -1332.1995      227.22447     -1559.4239      298.93765     -1297.4565      3840.7412      0.99696119
   2615000  -1320.9532      231.37168     -1552.3248      304.39374     -437.9811       3840.7412      0.99696119
   2616000  -1352.6939      236.67764     -1589.3715      311.37429     -588.59409      3840.7412      0.99696119
   2617000  -1356.5871      211.49794     -1568.085       278.24775     -875.72649      3840.7412      0.99696119
   2618000  -1329.1429      217.15704     -1546.3         285.69288      1165.574       3840.7412      0.99696119
   2619000  -1309.3558      236.7547      -1546.1105      311.47567     -1062.6221      3840.7412      0.99696119
   2620000  -1337.9061      225.82642     -1563.7326      297.09837     -2294.126       3840.7412      0.99696119
   2621000  -1333.9417      222.16096     -1556.1027      292.27607     -2075.0361      3840.7412      0.99696119
   2622000  -1309.7662      238.54382     -1548.31        313.82944     -149.2455       3840.7412      0.99696119
   2623000  -1323.7627      222.59174     -1546.3544      292.84281     -1073.471       3840.7412      0.99696119
   2624000  -1310.6459      218.72893     -1529.3748      287.76087      1015.8073      3840.7412      0.99696119
   2625000  -1372.56        205.48989     -1578.0499      270.34352      1545.6066      3840.7412      0.99696119
   2626000  -1326.9966      229.35621     -1556.3528      301.74218      1297.894       3840.7412      0.99696119
   2627000  -1313.0254      234.58816     -1547.6136      308.62536      398.02794      3840.7412      0.99696119
   2628000  -1327.8666      232.56473     -1560.4313      305.96333      140.79632      3840.7412      0.99696119
   2629000  -1337.306       226.85581     -1564.1618      298.45264      1327.4304      3840.7412      0.99696119
   2630000  -1345.5732      219.81594     -1565.3892      289.19095     -1856.9667      3840.7412      0.99696119
   2631000  -1330.3591      206.93265     -1537.2917      272.24164     -328.34866      3840.7412      0.99696119
   2632000  -1321.897       222.34248     -1544.2395      292.51488      517.02155      3840.7412      0.99696119
   2633000  -1294.0687      219.87069     -1513.9394      289.26298     -285.24772      3840.7412      0.99696119
   2634000  -1342.5503      231.12972     -1573.68        304.07541     -1572.0356      3840.7412      0.99696119
   2635000  -1374.2015      212.99536     -1587.1969      280.21776     -809.24655      3840.7412      0.99696119
   2636000  -1323.8616      232.2491      -1556.1107      305.54808      993.20838      3840.7412      0.99696119
   2637000  -1374.1816      233.54988     -1607.7315      307.25939     -1156.3642      3840.7412      0.99696119
   2638000  -1360.0744      221.06472     -1581.1391      290.83386      78.056598      3840.7412      0.99696119
   2639000  -1358.2709      207.76412     -1566.035       273.33552     -756.40057      3840.7412      0.99696119
   2640000  -1369.0327      211.6508      -1580.6835      278.44885     -1048.5857      3840.7412      0.99696119
   2641000  -1349.7101      221.70339     -1571.4135      291.67409      1832.9764      3840.7412      0.99696119
   2642000  -1371.9362      216.36851     -1588.3047      284.6555      -1456.6855      3840.7412      0.99696119
   2643000  -1372.1945      221.59563     -1593.7902      291.53233     -1060.8762      3840.7412      0.99696119
   2644000  -1327.7861      234.06338     -1561.8495      307.93496     -911.40376      3840.7412      0.99696119
   2645000  -1363.8478      251.0887      -1614.9365      330.33355     -1427.1335      3840.7412      0.99696119
   2646000  -1359.4554      227.2671      -1586.7225      298.99373      10.681663      3840.7412      0.99696119
   2647000  -1389.9414      202.84317     -1592.7846      266.86149     -398.92947      3840.7412      0.99696119
   2648000  -1357.8885      233.77507     -1591.6636      307.55565     -1745.9025      3840.7412      0.99696119
   2649000  -1323.8945      220.17269     -1544.0672      289.66029     -800.93739      3840.7412      0.99696119
   2650000  -1355.5901      217.28968     -1572.8798      285.86739      85.239135      3840.7412      0.99696119
   2651000  -1345.2227      227.99033     -1573.213       299.94522     -846.22386      3840.7412      0.99696119
   2652000  -1359.4026      229.04781     -1588.4504      301.33645      920.68685      3840.7412      0.99696119
   2653000  -1340.3244      217.59292     -1557.9173      286.26634     -729.67566      3840.7412      0.99696119
   2654000  -1328.8211      236.72772     -1565.5488      311.44018      990.63473      3840.7412      0.99696119
   2655000  -1322.4605      229.03149     -1551.492       301.31498     -2311.9658      3840.7412      0.99696119
   2656000  -1332.6687      255.29672     -1587.9654      335.86964     -706.47644      3840.7412      0.99696119
   2657000  -1312.0773      231.43191     -1543.5092      304.47298     -1715.1073      3840.7412      0.99696119
   2658000  -1322.6008      228.77676     -1551.3776      300.97985     -681.22056      3840.7412      0.99696119
   2659000  -1378.8832      211.28653     -1590.1698      277.96961     -486.25994      3840.7412      0.99696119
   2660000  -1347.4593      230.26049     -1577.7198      302.93186      796.77972      3840.7412      0.99696119
   2661000  -1319.905       228.63148     -1548.5365      300.78872      115.41448      3840.7412      0.99696119
   2662000  -1350.0699      227.39113     -1577.4611      299.15691     -1461.3096      3840.7412      0.99696119
   2663000  -1313.9114      242.23202     -1556.1434      318.68166     -974.82856      3840.7412      0.99696119
   2664000  -1334.1284      239.94016     -1574.0685      315.66648     -360.35243      3840.7412      0.99696119
   2665000  -1358.6026      212.09786     -1570.7005      279.03701     -1155.1841      3840.7412      0.99696119
   2666000  -1364.8239      205.57652     -1570.4004      270.4575      -708.89179      3840.7412      0.99696119
   2667000  -1340.8437      220.20872     -1561.0524      289.70769     -2792.9287      3840.7412      0.99696119
   2668000  -1390.1593      220.18353     -1610.3429      289.67455     -1406.2401      3840.7412      0.99696119
   2669000  -1346.7964      212.51752     -1559.3139      279.58911     -653.13632      3840.7412      0.99696119
   2670000  -1342.7848      227.38286     -1570.1677      299.14603     -491.28468      3840.7412      0.99696119
   2671000  -1386.0016      210.78606     -1596.7877      277.3112      -687.42923      3840.7412      0.99696119
   2672000  -1346.2269      239.32182     -1585.5487      314.85299     -1292.2735      3840.7412      0.99696119
   2673000  -1309.2418      251.89326     -1561.135       331.39204     -1386.3363      3840.7412      0.99696119
   2674000  -1342.8885      241.87194     -1584.7605      318.20794     -181.92585      3840.7412      0.99696119
   2675000  -1328.6669      219.17407     -1547.841       288.34651     -1331.5672      3840.7412      0.99696119
   2676000  -1351.3409      237.48997     -1588.8309      312.44299     -1488.2522      3840.7412      0.99696119
   2677000  -1351.5759      217.86426     -1569.4402      286.62331     -461.81304      3840.7412      0.99696119
   2678000  -1374.0094      200.8439      -1574.8533      264.23124      1387.7416      3840.7412      0.99696119
   2679000  -1334.2932      226.40394     -1560.6971      297.85815      658.17906      3840.7412      0.99696119
   2680000  -1363.0316      215.56785     -1578.5994      283.60214     -1097.0434      3840.7412      0.99696119
   2681000  -1327.0579      220.48828     -1547.5461      290.07548     -565.89241      3840.7412      0.99696119
   2682000  -1344.2784      227.59279     -1571.8712      299.42222     -1261.6609      3840.7412      0.99696119
   2683000  -1340.06        222.66826     -1562.7282      292.94348     -1652.5723      3840.7412      0.99696119
   2684000  -1376.4635      204.21243     -1580.676       268.6629      -2066.9753      3840.7412      0.99696119
   2685000  -1300.1073      250.7287      -1550.836       329.85993      836.40967      3840.7412      0.99696119
   2686000  -1319.8589      242.06792     -1561.9269      318.46577      113.07437      3840.7412      0.99696119
   2687000  -1356.3897      232.38399     -1588.7736      305.72554     -178.19733      3840.7412      0.99696119
   2688000  -1378.5685      206.30792     -1584.8764      271.41974     -47.069547      3840.7412      0.99696119
   2689000  -1345.9597      237.6069      -1583.5666      312.59683     -1210.9926      3840.7412      0.99696119
   2690000  -1360.1366      227.93432     -1588.0709      299.87153     -2784.4274      3840.7412      0.99696119
   2691000  -1345.5631      238.69759     -1584.2607      314.03175     -1631.2898      3840.7412      0.99696119
   2692000  -1384.0408      217.98877     -1602.0296      286.78712     -2492.6051      3840.7412      0.99696119
   2693000  -1368.6921      233.01721     -1601.7093      306.5586      -2152.6171      3840.7412      0.99696119
   2694000  -1394.6587      207.75873     -1602.4174      273.32842     -879.71918      3840.7412      0.99696119
   2695000  -1359.4652      225.77457     -1585.2398      297.03016     -1791.5702      3840.7412      0.99696119
   2696000  -1332.0308      234.16267     -1566.1935      308.06558     -1163.8078      3840.7412      0.99696119
   2697000  -1353.0251      221.73633     -1574.7614      291.71742     -1900.2048      3840.7412      0.99696119
   2698000  -1354.06        220.51564     -1574.5757      290.11148      1197.2771      3840.7412      0.99696119
   2699000  -1341.628       228.03381     -1569.6618      300.00242      778.37252      3840.7412      0.99696119
   2700000  -1369.5751      228.57534     -1598.1504      300.71486      401.48732      3840.7412      0.99696119
   2701000  -1373.1101      231.56341     -1604.6735      304.64598     -327.63317      3840.7412      0.99696119
   2702000  -1391.0833      213.00773     -1604.091       280.23404     -252.37551      3840.7412      0.99696119
   2703000  -1368.7128      228.36278     -1597.0756      300.43522     -958.05003      3840.7412      0.99696119
   2704000  -1365.9059      221.2729      -1587.1788      291.10773      393.74726      3840.7412      0.99696119
   2705000  -1324.3576      228.1504      -1552.508       300.15581      2217.5675      3840.7412      0.99696119
   2706000  -1346.5736      213.34597     -1559.9195      280.67902      892.05657      3840.7412      0.99696119
   2707000  -1343.949       225.26032     -1569.2093      296.3536      -1293.5371      3840.7412      0.99696119
   2708000  -1312.3273      232.93627     -1545.2636      306.45212     -1868.4027      3840.7412      0.99696119
   2709000  -1343.908       236.35996     -1580.268       310.95634     -379.25493      3840.7412      0.99696119
   2710000  -1349.6053      207.85117     -1557.4565      273.45005     -848.50904      3840.7412      0.99696119
   2711000  -1378.9126      210.64686     -1589.5595      277.12807     -2124.018       3840.7412      0.99696119
   2712000  -1360.3004      225.40866     -1585.709       296.54876     -1828.5756      3840.7412      0.99696119
   2713000  -1385.5659      209.16881     -1594.7347      275.18354     -1141.4968      3840.7412      0.99696119
   2714000  -1341.469       221.97759     -1563.4466      292.03483     -2368.6145      3840.7412      0.99696119
   2715000  -1317.9992      225.5667      -1543.5659      296.75668      183.23487      3840.7412      0.99696119
   2716000  -1360.806       213.00695     -1573.8129      280.23301     -827.76172      3840.7412      0.99696119
   2717000  -1344.756       227.56555     -1572.3216      299.38637      67.438405      3840.7412      0.99696119
   2718000  -1349.1701      224.7366      -1573.9067      295.66459     -2710.1318      3840.7412      0.99696119
   2719000  -1334.2402      220.67762     -1554.9178      290.32458     -496.67961      3840.7412      0.99696119
   2720000  -1351.8677      218.59366     -1570.4614      287.58292     -1363.6975      3840.7412      0.99696119
   2721000  -1318.8679      243.42954     -1562.2974      320.25713      994.49552      3840.7412      0.99696119
   2722000  -1333.9103      212.66784     -1546.5781      279.78688     -1491.9054      3840.7412      0.99696119
   2723000  -1317.2376      212.60583     -1529.8434      279.7053       1226.8288      3840.7412      0.99696119
   2724000  -1324.1196      245.90972     -1570.0293      323.52006     -1549.3801      3840.7412      0.99696119
   2725000  -1367.7252      208.5147      -1576.2399      274.32298     -772.92568      3840.7412      0.99696119
   2726000  -1339.0961      216.1977      -1555.2938      284.43078      48.99497       3840.7412      0.99696119
   2727000  -1375.6738      226.04685     -1601.7207      297.38837     -263.94449      3840.7412      0.99696119
   2728000  -1330.1268      223.07966     -1553.2065      293.48472     -1004.0292      3840.7412      0.99696119
   2729000  -1327.2339      228.04038     -1555.2743      300.01107      1162.6885      3840.7412      0.99696119
   2730000  -1361.4528      215.56544     -1577.0182      283.59897      1072.4073      3840.7412      0.99696119
   2731000  -1367.5302      224.27265     -1591.8029      295.05422     -1014.6462      3840.7412      0.99696119
   2732000  -1348.2947      231.68795     -1579.9826      304.80982     -944.34882      3840.7412      0.99696119
   2733000  -1366.3746      222.50888     -1588.8835      292.7338      -1961.7322      3840.7412      0.99696119
   2734000  -1340.1286      219.41685     -1559.5455      288.66591      110.35166      3840.7412      0.99696119
   2735000  -1344.8355      237.87773     -1582.7132      312.95313      374.19847      3840.7412      0.99696119
   2736000  -1354.3582      206.01365     -1560.3718      271.03258      91.155273      3840.7412      0.99696119
   2737000  -1350.8024      228.5164      -1579.3188      300.63732     -179.33318      3840.7412      0.99696119
   2738000  -1326.6271      252.30478     -1578.9319      331.93344      222.02096      3840.7412      0.99696119
   2739000  -1354.3464      229.95017     -1584.2966      302.52359     -3047.1551      3840.7412      0.99696119
   2740000  -1307.2693      248.38584     -1555.6551      326.77765      41.573474      3840.7412      0.99696119
   2741000  -1329.3051      238.13374     -1567.4389      313.28994     -1011.4312      3840.7412      0.99696119
   2742000  -1328.3506      230.55926     -1558.9098      303.32492     -1782.2328      3840.7412      0.99696119
   2743000  -1357.4229      210.82061     -1568.2435      277.35665     -435.90325      3840.7412      0.99696119
   2744000  -1337.8163      216.2795      -1554.0958      284.53839     -1202.5601      3840.7412      0.99696119
   2745000  -1347.1831      227.67499     -1574.8581      299.53036      3169.1226      3840.7412      0.99696119
   2746000  -1376.202       229.25193     -1605.4539      301.60499      1966.4798      3840.7412      0.99696119
   2747000  -1394.6138      218.55959     -1613.1734      287.53809     -526.04029      3840.7412      0.99696119
   2748000  -1376.3857      227.73455     -1604.1203      299.60872     -337.86261      3840.7412      0.99696119
   2749000  -1354.7602      238.40786     -1593.1681      313.65058      466.25488      3840.7412      0.99696119
   2750000  -1348.918       230.50791     -1579.4259      303.25736     -1003.2504      3840.7412      0.99696119
   2751000  -1342.6811      231.7368      -1574.4179      304.87409     -492.99793      3840.7412      0.99696119
   2752000  -1316.7661      229.15725     -1545.9233      301.48043     -71.807358      3840.7412      0.99696119
   2753000  -1334.5397      234.89537     -1569.4351      309.02953     -190.66407      3840.7412      0.99696119
   2754000  -1377.4533      212.08604     -1589.5393      279.02145     -220.56736      3840.7412      0.99696119
   2755000  -1377.77        228.49973     -1606.2697      300.61538     -1179.4612      3840.7412      0.99696119
   2756000  -1374.6267      222.22299     -1596.8496      292.35767     -1764.7539      3840.7412      0.99696119
   2757000  -1374.0675      237.10768     -1611.1751      311.94004      1181.0603      3840.7412      0.99696119
   2758000  -1374.8194      226.41292     -1601.2323      297.86997     -572.10851      3840.7412      0.99696119
   2759000  -1349.6197      231.97134     -1581.591       305.18265     -1188.2981      3840.7412      0.99696119
   2760000  -1365.2146      210.01459     -1575.2292      276.29625     -81.4431        3840.7412      0.99696119
   2761000  -1342.9211      241.30742     -1584.2286      317.46525     -953.53311      3840.7412      0.99696119
   2762000  -1340.938       221.23091     -1562.1689      291.05249      898.3101       3840.7412      0.99696119
   2763000  -1321.063       232.51244     -1553.5754      305.89453     -1757.5715      3840.7412      0.99696119
   2764000  -1379.412       214.24947     -1593.6615      281.86767      369.77246      3840.7412      0.99696119
   2765000  -1384.929       218.43103     -1603.36        287.36896     -583.10335      3840.7412      0.99696119
   2766000  -1376.4836      212.06016     -1588.5438      278.9874      -1191.8203      3840.7412      0.99696119
   2767000  -1311.1138      232.71128     -1543.825       306.15613     -708.74381      3840.7412      0.99696119
   2768000  -1360.7837      229.73882     -1590.5226      302.24554     -1238.249       3840.7412      0.99696119
   2769000  -1343.903       235.0308      -1578.9338      309.20769     -1083.9822      3840.7412      0.99696119
   2770000  -1394.9129      201.39924     -1596.3121      264.96185      428.88252      3840.7412      0.99696119
   2771000  -1324.8655      222.49939     -1547.3649      292.72131     -342.041        3840.7412      0.99696119
   2772000  -1343.5616      231.78668     -1575.3482      304.93971     -472.20747      3840.7412      0.99696119
   2773000  -1306.0813      234.42869     -1540.51        308.41555     -344.9376       3840.7412      0.99696119
   2774000  -1359.6401      223.45308     -1583.0932      293.97599      329.90475      3840.7412      0.99696119
   2775000  -1325.0305      217.56321     -1542.5937      286.22725      158.7434       3840.7412      0.99696119
   2776000  -1358.0275      229.14067     -1587.1681      301.45861     -1966.8106      3840.7412      0.99696119
   2777000  -1342.5886      214.18785     -1556.7764      281.78661     -702.91836      3840.7412      0.99696119
   2778000  -1327.0245      242.57045     -1569.5949      319.12689      12.595499      3840.7412      0.99696119
   2779000  -1357.4879      216.13606     -1573.624       284.34968     -1668.3011      3840.7412      0.99696119
   2780000  -1347.8543      229.55971     -1577.414       302.0099      -576.23844      3840.7412      0.99696119
   2781000  -1301.7652      230.55879     -1532.324       303.3243      -1311.7975      3840.7412      0.99696119
   2782000  -1325.0641      232.94782     -1558.0119      306.46732      186.76828      3840.7412      0.99696119
   2783000  -1311.0748      229.27078     -1540.3455      301.62978     -243.31929      3840.7412      0.99696119
   2784000  -1372.7039      219.84069     -1592.5446      289.22351      357.33103      3840.7412      0.99696119
   2785000  -1343.0965      225.09849     -1568.195       296.1407       1065.2656      3840.7412      0.99696119
   2786000  -1374.1459      218.16877     -1592.3147      287.02393     -539.51667      3840.7412      0.99696119
   2787000  -1342.903       215.13466     -1558.0377      283.03224     -541.17556      3840.7412      0.99696119
   2788000  -1336.5623      224.65238     -1561.2146      295.55379      16.835092      3840.7412      0.99696119
   2789000  -1365.0544      213.28736     -1578.3417      280.60192     -490.3192       3840.7412      0.99696119
   2790000  -1334.2221      227.4779      -1561.7         299.27107     -1510.7348      3840.7412      0.99696119
   2791000  -1333.6191      236.79144     -1570.4105      311.52401     -1134.2617      3840.7412      0.99696119
   2792000  -1373.1331      229.14848     -1602.2816      301.46888     -513.86944      3840.7412      0.99696119
   2793000  -1336.5462      239.19217     -1575.7383      314.68242     -3002.0877      3840.7412      0.99696119
   2794000  -1366.5284      223.02674     -1589.5552      293.41509     -106.58449      3840.7412      0.99696119
   2795000  -1325.4762      239.60559     -1565.0818      315.22631     -1567.0011      3840.7412      0.99696119
   2796000  -1341.6083      248.69972     -1590.308       327.19059     -1669.6097      3840.7412      0.99696119
   2797000  -1349.8944      210.25939     -1560.1538      276.6183      -2123.6368      3840.7412      0.99696119
   2798000  -1366.5251      234.74018     -1601.2653      308.82536     -354.17033      3840.7412      0.99696119
   2799000  -1346.0813      216.0273      -1562.1086      284.2066      -619.12791      3840.7412      0.99696119
   2800000  -1337.2681      232.26929     -1569.5374      305.57465      220.91415      3840.7412      0.99696119
   2801000  -1352.3136      233.07068     -1585.3843      306.62896     -1206.1535      3840.7412      0.99696119
   2802000  -1317.2325      240.2502      -1557.4827      316.07436     -1837.4287      3840.7412      0.99696119
   2803000  -1351.8139      225.91253     -1577.7264      297.21166     -1262.7231      3840.7412      0.99696119
   2804000  -1349.316       224.89819     -1574.2142      295.87719      699.55766      3840.7412      0.99696119
   2805000  -1373.7325      200.50778     -1574.2402      263.78903     -1562.0879      3840.7412      0.99696119
   2806000  -1334.1703      218.04512     -1552.2154      286.86126      896.65625      3840.7412      0.99696119
   2807000  -1356.0983      207.68023     -1563.7785      273.22515     -385.52765      3840.7412      0.99696119
   2808000  -1355.1857      199.52725     -1554.713       262.49905      181.74111      3840.7412      0.99696119
   2809000  -1374.494       223.96878     -1598.4628      294.65445     -1981.5795      3840.7412      0.99696119
   2810000  -1307.1914      245.4395      -1552.6309      322.90143     -88.446032      3840.7412      0.99696119
   2811000  -1325.5328      233.49785     -1559.0307      307.19094     -3501.8431      3840.7412      0.99696119
   2812000  -1387.8125      211.59314     -1599.4056      278.373       -977.18996      3840.7412      0.99696119
   2813000  -1308.8793      224.79668     -1533.676       295.74363      477.67642      3840.7412      0.99696119
   2814000  -1353.3933      223.75936     -1577.1526      294.37893     -538.92172      3840.7412      0.99696119
   2815000  -1368.528       216.03435     -1584.5623      284.21588     -631.648        3840.7412      0.99696119
   2816000  -1342.9665      239.59971     -1582.5662      315.21858     -1579.8098      3840.7412      0.99696119
   2817000  -1346.7234      231.25892     -1577.9823      304.24539      1133.8639      3840.7412      0.99696119
   2818000  -1303.6256      242.34923     -1545.9749      318.83586     -230.03791      3840.7412      0.99696119
   2819000  -1322.9315      255.08804     -1578.0195      335.59511     -302.26848      3840.7412      0.99696119
   2820000  -1387.9414      217.80109     -1605.7425      286.54021     -1481.6321      3840.7412      0.99696119
   2821000  -1339.8834      234.52258     -1574.406       308.53908     -1431.5051      3840.7412      0.99696119
   2822000  -1347.9797      217.51561     -1565.4953      286.16463     -493.34258      3840.7412      0.99696119
   2823000  -1339.5305      216.90788     -1556.4384      285.36509     -1149.5391      3840.7412      0.99696119
   2824000  -1284.4582      248.02949     -1532.4876      326.30883     -2051.2638      3840.7412      0.99696119
   2825000  -1318.4293      221.32558     -1539.7549      291.17704      434.534        3840.7412      0.99696119
   2826000  -1339.7486      206.53889     -1546.2875      271.7236      -1628.8039      3840.7412      0.99696119
   2827000  -1330.0732      218.43472     -1548.508       287.37381      2294.2716      3840.7412      0.99696119
   2828000  -1357.0644      202.19822     -1559.2626      266.013       -999.99337      3840.7412      0.99696119
   2829000  -1362.1932      227.31931     -1589.5125      299.06243     -2549.3527      3840.7412      0.99696119
   2830000  -1296.0676      242.33302     -1538.4006      318.81454      233.07222      3840.7412      0.99696119
   2831000  -1327.0828      207.08191     -1534.1647      272.438       -731.96415      3840.7412      0.99696119
   2832000  -1296.8782      229.08575     -1525.9639      301.38636     -395.57833      3840.7412      0.99696119
   2833000  -1329.8398      234.30876     -1564.1486      308.25778     -1287.4675      3840.7412      0.99696119
   2834000  -1340.4769      215.18602     -1555.6629      283.0998      -1574.1648      3840.7412      0.99696119
   2835000  -1328.24        217.14023     -1545.3802      285.67077     -1779.7509      3840.7412      0.99696119
   2836000  -1345.5006      241.11982     -1586.6204      317.21844     -1265.0145      3840.7412      0.99696119
   2837000  -1315.8644      243.53162     -1559.396       320.39143      271.85817      3840.7412      0.99696119
   2838000  -1350.7778      214.8994      -1565.6772      282.72273     -1095.0439      3840.7412      0.99696119
   2839000  -1350.5381      215.30891     -1565.847       283.26148     -81.25877       3840.7412      0.99696119
   2840000  -1347.7652      237.03817     -1584.8034      311.8486      -1826.858       3840.7412      0.99696119
   2841000  -1362.5327      228.46531     -1590.998       300.57011     -80.866432      3840.7412      0.99696119
   2842000  -1349.5228      222.55601     -1572.0788      292.7958      -39.151005      3840.7412      0.99696119
   2843000  -1371.1804      216.2562      -1587.4366      284.50775      654.16241      3840.7412      0.99696119
   2844000  -1337.2284      233.39228     -1570.6206      307.05205     -1269.8833      3840.7412      0.99696119
   2845000  -1378.889       212.03108     -1590.9201      278.94915      634.78891      3840.7412      0.99696119
   2846000  -1354.7691      218.14579     -1572.9149      286.99369      853.81614      3840.7412      0.99696119
   2847000  -1319.3571      226.3788      -1545.7359      297.82508      113.5442       3840.7412      0.99696119
   2848000  -1362.4892      211.22005     -1573.7093      277.88216     -385.19017      3840.7412      0.99696119
   2849000  -1346.8755      235.07788     -1581.9533      309.26964     -1216.8144      3840.7412      0.99696119
   2850000  -1356.7223      229.34585     -1586.0682      301.72855      1118.7895      3840.7412      0.99696119
   2851000  -1363.9939      205.3662      -1569.3601      270.1808       485.50077      3840.7412      0.99696119
   2852000  -1378.903       198.69683     -1577.5998      261.40654      1216.8677      3840.7412      0.99696119
   2853000  -1327.3446      223.92273     -1551.2673      294.59386      1392.7088      3840.7412      0.99696119
   2854000  -1335.7391      223.60289     -1559.342       294.17308      397.4049       3840.7412      0.99696119
   2855000  -1364.3626      217.9075      -1582.2701      286.6802       756.33157      3840.7412      0.99696119
   2856000  -1382.0243      228.03885     -1610.0632      300.00905      363.99835      3840.7412      0.99696119
   2857000  -1368.7885      227.26139     -1596.0499      298.98623     -405.39437      3840.7412      0.99696119
   2858000  -1375.1915      214.70118     -1589.8927      282.46195     -337.03111      3840.7412      0.99696119
   2859000  -1356.7101      229.31987     -1586.03        301.69436     -1672.9644      3840.7412      0.99696119
   2860000  -1372.6918      218.52504     -1591.2168      287.49264     -1261.5985      3840.7412      0.99696119
   2861000  -1364.6293      222.52861     -1587.1579      292.75976     -236.05013      3840.7412      0.99696119
   2862000  -1354.8723      222.64582     -1577.5182      292.91395     -1290.7343      3840.7412      0.99696119
   2863000  -1337.6212      234.47393     -1572.0951      308.47507     -1891.4877      3840.7412      0.99696119
   2864000  -1331.1112      227.99484     -1559.106       299.95115     -1272.1985      3840.7412      0.99696119
   2865000  -1334.4196      219.4925      -1553.9121      288.76543     -2023.1796      3840.7412      0.99696119
   2866000  -1355.6283      224.85994     -1580.4882      295.82686     -551.72893      3840.7412      0.99696119
   2867000  -1333.0204      239.78447     -1572.8049      315.46165     -1430.7243      3840.7412      0.99696119
   2868000  -1324.7929      219.34286     -1544.1357      288.56856      1136.7496      3840.7412      0.99696119
   2869000  -1360.654       221.17617     -1581.8301      290.98048     -2322.2729      3840.7412      0.99696119
   2870000  -1359.6775      233.34365     -1593.0212      306.98807     -1169.8417      3840.7412      0.99696119
   2871000  -1374.836       227.7856      -1602.6216      299.67588     -1598.0716      3840.7412      0.99696119
   2872000  -1379.6603      236.97321     -1616.6335      311.76314      1222.237       3840.7412      0.99696119
   2873000  -1338.3914      233.24859     -1571.64        306.86301     -1066.037       3840.7412      0.99696119
   2874000  -1345.4164      242.38411     -1587.8005      318.88175     -722.04616      3840.7412      0.99696119
   2875000  -1318.3569      230.53164     -1548.8886      303.28858      2808.2513      3840.7412      0.99696119
   2876000  -1372.2849      215.60004     -1587.885       283.6445       949.05884      3840.7412      0.99696119
   2877000  -1304.3251      265.37281     -1569.6979      349.1258      -119.77447      3840.7412      0.99696119
   2878000  -1347.722       228.31548     -1576.0375      300.37298     -747.7312       3840.7412      0.99696119
   2879000  -1338.1257      222.27918     -1560.4049      292.43161     -1817.5045      3840.7412      0.99696119
   2880000  -1355.0268      217.48194     -1572.5088      286.12033     -1753.336       3840.7412      0.99696119
   2881000  -1335.3987      220.49405     -1555.8928      290.08308     -156.24504      3840.7412      0.99696119
   2882000  -1369.8124      212.38857     -1582.201       279.41947     -266.6895       3840.7412      0.99696119
   2883000  -1351.3382      217.15659     -1568.4948      285.6923       616.50892      3840.7412      0.99696119
   2884000  -1354.8836      237.81586     -1592.6995      312.87174     -624.38282      3840.7412      0.99696119
   2885000  -1353.2371      224.5848      -1577.8219      295.46488     -145.95159      3840.7412      0.99696119
   2886000  -1338.4124      215.72737     -1554.1398      283.812        1187.451       3840.7412      0.99696119
   2887000  -1353.7571      210.97325     -1564.7304      277.55746     -1078.1868      3840.7412      0.99696119
   2888000  -1347.5865      215.54042     -1563.1269      283.56606     -1045.8617      3840.7412      0.99696119
   2889000  -1363.6597      211.91049     -1575.5701      278.7905       689.80658      3840.7412      0.99696119
   2890000  -1357.4841      235.748       -1593.2321      310.15125     -1204.1409      3840.7412      0.99696119
   2891000  -1337.3581      225.90566     -1563.2638      297.20262      898.45441      3840.7412      0.99696119
   2892000  -1354.9112      223.71375     -1578.625       294.31893     -173.40588      3840.7412      0.99696119
   2893000  -1327.5386      229.54111     -1557.0797      301.98543      635.35197      3840.7412      0.99696119
   2894000  -1345.6085      215.02251     -1560.631       282.88469     -801.87976      3840.7412      0.99696119
   2895000  -1357.5042      217.72875     -1575.233       286.44503     -894.58341      3840.7412      0.99696119
   2896000  -1342.8505      235.11379     -1577.9643      309.31688     -1235.9333      3840.7412      0.99696119
   2897000  -1318.8192      231.30709     -1550.1263      304.30877     -2776.5553      3840.7412      0.99696119
   2898000  -1336.8601      223.66051     -1560.5206      294.24888     -1408.3133      3840.7412      0.99696119
   2899000  -1312.2991      226.76736     -1539.0665      298.33627     -1635.8628      3840.7412      0.99696119
   2900000  -1332.6379      231.30126     -1563.9391      304.30109     -1395.9898      3840.7412      0.99696119
   2901000  -1391.9211      209.67628     -1601.5973      275.85117      521.35001      3840.7412      0.99696119
   2902000  -1338.3448      234.79304     -1573.1379      308.8949      -987.54231      3840.7412      0.99696119
   2903000  -1309.1621      235.25036     -1544.4124      309.49655     -1922.3781      3840.7412      0.99696119
   2904000  -1339.7666      227.00036     -1566.7669      298.6428      -1395.2097      3840.7412      0.99696119
   2905000  -1349.8803      235.76345     -1585.6438      310.17158     -193.21118      3840.7412      0.99696119
   2906000  -1301.9155      242.50829     -1544.4238      319.04512      67.879548      3840.7412      0.99696119
   2907000  -1328.515       227.66544     -1556.1804      299.51779      178.37986      3840.7412      0.99696119
   2908000  -1352.4048      210.73465     -1563.1395      277.24357      1217.5121      3840.7412      0.99696119
   2909000  -1327.7072      231.44828     -1559.1555      304.49452     -1880.4306      3840.7412      0.99696119
   2910000  -1333.7272      231.64085     -1565.3681      304.74786     -3067.7949      3840.7412      0.99696119
   2911000  -1326.6611      223.02612     -1549.6873      293.41428      21.991063      3840.7412      0.99696119
   2912000  -1331.038       216.81277     -1547.8508      285.23997      1278.2773      3840.7412      0.99696119
   2913000  -1309.652       233.40847     -1543.0605      307.07335     -223.04421      3840.7412      0.99696119
   2914000  -1294.6919      252.37282     -1547.0647      332.02294     -191.71515      3840.7412      0.99696119
   2915000  -1320.8709      238.89408     -1559.7649      314.29024     -1381.8556      3840.7412      0.99696119
   2916000  -1377.6209      219.36243     -1596.9834      288.59431     -814.92064      3840.7412      0.99696119
   2917000  -1336.503       235.27808     -1571.7811      309.53302     -1026.1332      3840.7412      0.99696119
   2918000  -1335.0404      222.7259      -1557.7663      293.01931     -568.71132      3840.7412      0.99696119
   2919000  -1338.4952      219.28632     -1557.7815      288.49418     -693.90926      3840.7412      0.99696119
   2920000  -1358.93        216.24583     -1575.1759      284.49409     -637.43705      3840.7412      0.99696119
   2921000  -1328.4854      227.62337     -1556.1087      299.46245     -547.11002      3840.7412      0.99696119
   2922000  -1318.2239      222.39618     -1540.6201      292.58553      631.10825      3840.7412      0.99696119
   2923000  -1334.1232      220.47855     -1554.6018      290.06268     -790.37472      3840.7412      0.99696119
   2924000  -1340.9642      219.65969     -1560.6239      288.98538     -3352.7595      3840.7412      0.99696119
   2925000  -1370.3644      197.95207     -1568.3165      260.42674     -193.88488      3840.7412      0.99696119
   2926000  -1342.893       220.71727     -1563.6103      290.37675      23.611494      3840.7412      0.99696119
   2927000  -1349.5709      219.73775     -1569.3087      289.08808     -1747.3494      3840.7412      0.99696119
   2928000  -1387.2602      215.409       -1602.6692      283.39316      355.21149      3840.7412      0.99696119
   2929000  -1400.8215      207.13735     -1607.9589      272.51093     -463.52534      3840.7412      0.99696119
   2930000  -1361.4183      226.42636     -1587.8447      297.88766     -2636.4709      3840.7412      0.99696119
   2931000  -1364.1032      225.33418     -1589.4374      296.45078     -866.41558      3840.7412      0.99696119
   2932000  -1349.0265      227.38072     -1576.4072      299.14321     -1409.0097      3840.7412      0.99696119
   2933000  -1332.3434      203.9052      -1536.2486      268.2587      -1087.3493      3840.7412      0.99696119
   2934000  -1357.0644      228.60991     -1585.6743      300.76034      57.408311      3840.7412      0.99696119
   2935000  -1362.3831      234.18048     -1596.5635      308.08901     -1202.4059      3840.7412      0.99696119
   2936000  -1369.3952      229.56508     -1598.9603      302.01697      108.20762      3840.7412      0.99696119
   2937000  -1360.1814      216.23705     -1576.4184      284.48255     -1896.1792      3840.7412      0.99696119
   2938000  -1315.546       247.02918     -1562.5752      324.99282     -730.38337      3840.7412      0.99696119
   2939000  -1334.8893      246.11281     -1581.0021      323.78725     -667.61659      3840.7412      0.99696119
   2940000  -1335.8236      240.58657     -1576.4102      316.51689     -1041.5701      3840.7412      0.99696119
   2941000  -1324.6331      213.07305     -1537.7061      280.31997     -1081.9628      3840.7412      0.99696119
   2942000  -1320.1408      237.15981     -1557.3007      312.00864     -520.12044      3840.7412      0.99696119
   2943000  -1337.9233      236.61288     -1574.5362      311.28909      1480.9111      3840.7412      0.99696119
   2944000  -1365.4878      211.92442     -1577.4122      278.80883     -952.21056      3840.7412      0.99696119
   2945000  -1313.5726      220.36427     -1533.9369      289.91234     -1244.5861      3840.7412      0.99696119
   2946000  -1314.0495      235.70328     -1549.7528      310.09241     -260.74673      3840.7412      0.99696119
   2947000  -1356.2346      209.67535     -1565.9099      275.84994      487.39532      3840.7412      0.99696119
   2948000  -1347.5233      234.56479     -1582.0881      308.59461     -1437.3275      3840.7412      0.99696119
   2949000  -1375.39        213.84464     -1589.2346      281.33508      390.12992      3840.7412      0.99696119
   2950000  -1382.6281      204.78693     -1587.415       269.41871      1025.9556      3840.7412      0.99696119
   2951000  -1378.8418      211.23887     -1590.0807      277.90692     -655.44002      3840.7412      0.99696119
   2952000  -1342.0495      222.71374     -1564.7633      293.00332      495.74845      3840.7412      0.99696119
   2953000  -1342.7814      222.37183     -1565.1532      292.55349     -969.84016      3840.7412      0.99696119
   2954000  -1379.8733      222.30287     -1602.1761      292.46277     -1504.7953      3840.7412      0.99696119
   2955000  -1360.9712      211.32894     -1572.3001      278.02541     -1164.825       3840.7412      0.99696119
   2956000  -1309.6655      240.93026     -1550.5957      316.96906     -174.47421      3840.7412      0.99696119
   2957000  -1336.6279      225.35201     -1561.9799      296.47423     -799.23919      3840.7412      0.99696119
   2958000  -1300.4821      240.85737     -1541.3395      316.87317     -4089.4059      3840.7412      0.99696119
   2959000  -1330.1308      229.21597     -1559.3468      301.55768     -1854.0827      3840.7412      0.99696119
   2960000  -1325.514       209.80141     -1535.3154      276.01578     -2005.6493      3840.7412      0.99696119
   2961000  -1375.1013      210.37675     -1585.4781      276.77271     -1122.2529      3840.7412      0.99696119
   2962000  -1359.7673      209.7206      -1569.4879      275.90948     -2360.5328      3840.7412      0.99696119
   2963000  -1318.0605      243.92329     -1561.9838      320.9067      -939.63241      3840.7412      0.99696119
   2964000  -1349.7766      212.81233     -1562.589       279.97696     -1034.6189      3840.7412      0.99696119
   2965000  -1365.8802      221.35329     -1587.2335      291.2135       1580.4653      3840.7412      0.99696119
   2966000  -1379.2355      206.4249      -1585.6604      271.57363     -1144.2161      3840.7412      0.99696119
   2967000  -1365.5655      231.7898      -1597.3553      304.94383      440.50178      3840.7412      0.99696119
   2968000  -1394.4994      221.55783     -1616.0572      291.48259     -2133.4072      3840.7412      0.99696119
   2969000  -1326.2336      231.81713     -1558.0507      304.97978      614.54035      3840.7412      0.99696119
   2970000  -1344.5149      213.93798     -1558.4529      281.45788      1004.612       3840.7412      0.99696119
   2971000  -1362.3658      244.05619     -1606.422       321.08154     -1379.178       3840.7412      0.99696119
   2972000  -1367.2014      232.50182     -1599.7032      305.88056      1191.9422      3840.7412      0.99696119
   2973000  -1378.3611      220.71556     -1599.0767      290.3745      -600.87635      3840.7412      0.99696119
   2974000  -1352.7534      223.30439     -1576.0578      293.78037     -1801.2521      3840.7412      0.99696119
   2975000  -1326.997       227.96154     -1554.9585      299.90735     -1362.9604      3840.7412      0.99696119
   2976000  -1311.0171      233.43318     -1544.4502      307.10586     -429.60973      3840.7412      0.99696119
   2977000  -1323.6595      207.66062     -1531.3201      273.19935      14.034959      3840.7412      0.99696119
   2978000  -1330.5491      222.88583     -1553.4349      293.22972     -2270.5764      3840.7412      0.99696119
   2979000  -1333.6376      248.29745     -1581.935       326.66137     -860.86267      3840.7412      0.99696119
   2980000  -1388.5636      214.53454     -1603.0981      282.24272     -2609.076       3840.7412      0.99696119
   2981000  -1361.8079      207.79223     -1569.6001      273.37249     -1689.0078      3840.7412      0.99696119
   2982000  -1364.5346      219.38425     -1583.9189      288.62302     -93.548371      3840.7412      0.99696119
   2983000  -1336.0187      244.9171      -1580.9358      322.21416     -763.13442      3840.7412      0.99696119
   2984000  -1378.5824      214.20558     -1592.788       281.80993     -1978.6636      3840.7412      0.99696119
   2985000  -1335.2722      222.03648     -1557.3086      292.1123      -1606.2449      3840.7412      0.99696119
   2986000  -1325.3315      209.34546     -1534.677       275.41594     -1724.8181      3840.7412      0.99696119
   2987000  -1318.1465      223.74516     -1541.8917      294.36025     -1601.0067      3840.7412      0.99696119
   2988000  -1329.8805      225.37981     -1555.2603      296.51081      1982.5855      3840.7412      0.99696119
   2989000  -1373.2998      199.15457     -1572.4544      262.00874     -2399.39        3840.7412      0.99696119
   2990000  -1338.5194      232.4057      -1570.9251      305.7541      -1307.692       3840.7412      0.99696119
   2991000  -1346.3041      232.11705     -1578.4211      305.37435     -2717.8462      3840.7412      0.99696119
   2992000  -1349.0681      212.24266     -1561.3107      279.2275      -273.31426      3840.7412      0.99696119
   2993000  -1305.4478      228.98027     -1534.428       301.24759      1210.2381      3840.7412      0.99696119
   2994000  -1323.0399      223.75859     -1546.7985      294.37793     -810.52907      3840.7412      0.99696119
   2995000  -1297.3373      235.69403     -1533.0313      310.08025      814.61116      3840.7412      0.99696119
   2996000  -1355.0357      223.64424     -1578.6799      294.22748     -2854.9903      3840.7412      0.99696119
   2997000  -1326.657       216.8658      -1543.5228      285.30974     -2157.2133      3840.7412      0.99696119
   2998000  -1350.6383      219.36846     -1570.0067      288.60225     -807.66959      3840.7412      0.99696119
   2999000  -1324.5139      234.19107     -1558.705       308.10295     -666.28658      3840.7412      0.99696119
   3000000  -1341.9683      232.99697     -1574.9653      306.53197     -767.62986      3840.7412      0.99696119
Loop time of 2538.86 on 2 procs for 2000000 steps with 384 atoms

Performance: 68.062 ns/day, 0.353 hours/ns, 787.755 timesteps/s
99.6% CPU use with 2 MPI tasks x 1 OpenMP threads

MPI task timing breakdown:
Section |  min time  |  avg time  |  max time  |%varavg| %total
---------------------------------------------------------------
Pair    | 1691.5     | 1703.2     | 1714.9     |  28.3 | 67.09
Bond    | 0.17474    | 0.17956    | 0.18438    |   1.1 |  0.01
Kspace  | 445.56     | 458.91     | 472.26     |  62.3 | 18.08
Neigh   | 104.59     | 104.59     | 104.59     |   0.0 |  4.12
Comm    | 154.75     | 156.39     | 158.04     |  13.1 |  6.16
Output  | 0.53593    | 0.54114    | 0.54636    |   0.7 |  0.02
Modify  | 108.85     | 109        | 109.16     |   1.5 |  4.29
Other   |            | 6.008      |            |       |  0.24

Nlocal:            192 ave         198 max         186 min
Histogram: 1 0 0 0 0 0 0 0 0 1
Nghost:         4811.5 ave        4824 max        4799 min
Histogram: 1 0 0 0 0 0 0 0 0 1
Neighs:        69271.5 ave       72132 max       66411 min
Histogram: 1 0 0 0 0 0 0 0 0 1

Total # of neighbors = 138543
Ave neighs/atom = 360.78906
Ave special neighs/atom = 2
Neighbor list builds = 64927
Dangerous builds = 0

# write data file
write_data data.after_prod.lmp
System init for write_data ...
PPPM initialization ...
  using 12-bit tables for long-range coulomb (src/kspace.cpp:342)
  G vector (1/distance) = 0.31203871
  grid = 15 15 15
  stencil order = 5
  estimated absolute RMS force accuracy = 0.0022228175
  estimated relative force accuracy = 6.6939488e-06
  using double precision FFTW3
  3d grid and FFT values/proc = 6776 1800
Generated 1 of 1 mixed pair_coeff terms from geometric mixing rule

# clean up
undump dPROD
unfix fTHERMO
unfix fMOM
unfix fSHAKE
Total wall time: 1:01:53
