LAMMPS (23 Jun 2022 - Update 4)
  using 1 OpenMP thread(s) per MPI task
# created by fftool

# System settings
units real
boundary p p p  # Periodic boundary conditions

# definition of atoms, bonds, angles
atom_style full
bond_style harmonic
angle_style harmonic

# definition of pair potentials
special_bonds lj/coul 0.0 0.0 0.5
pair_style lj/cut/coul/long 10.0 10.0
pair_modify mix geometric tail yes
kspace_style pppm 1.0e-5

# read data file
read_data data.lmp
Reading data file ...
  orthogonal box = (0 0 0) to (15.660478 15.660478 15.660478)
  1 by 1 by 2 MPI processor grid
  reading atoms ...
  384 atoms
  scanning bonds ...
  1 = max bonds/atom
  scanning angles ...
  1 = max angles/atom
  reading bonds ...
  256 bonds
  reading angles ...
  128 angles
Finding 1-2 1-3 1-4 neighbors ...
  special bond factors lj:    0        0        0.5
  special bond factors coul:  0        0        0.5
     2 = max # of 1-2 neighbors
     1 = max # of 1-3 neighbors
     1 = max # of 1-4 neighbors
     2 = max # of special neighbors
  special bonds CPU = 0.000 seconds
  read_data CPU = 0.006 seconds

# definition of LJ parameters
pair_coeff    1    1     0.000000     0.000000  # Hw Hw
pair_coeff    2    2     0.163315     3.168823  # Ow-Ow

############################################

# remove energy hotspots
minimize 1.0e-4 1.0e-6 100 1000
WARNING: Using 'neigh_modify every 1 delay 0 check yes' setting during minimization (src/min.cpp:187)
PPPM initialization ...
  using 12-bit tables for long-range coulomb (src/kspace.cpp:342)
  G vector (1/distance) = 0.31203871
  grid = 15 15 15
  stencil order = 5
  estimated absolute RMS force accuracy = 0.0022228175
  estimated relative force accuracy = 6.6939488e-06
  using double precision FFTW3
  3d grid and FFT values/proc = 6776 1800
Generated 1 of 1 mixed pair_coeff terms from geometric mixing rule
Neighbor list info ...
  update every 1 steps, delay 0 steps, check yes
  max neighbors/atom: 2000, page size: 100000
  master list distance cutoff = 12
  ghost atom cutoff = 12
  binsize = 6, bins = 3 3 3
  1 neighbor lists, perpetual/occasional/extra = 1 0 0
  (1) pair lj/cut/coul/long, perpetual
      attributes: half, newton on
      pair build: half/bin/newton
      stencil: half/bin/3d
      bin: standard
Per MPI rank memory allocation (min/avg/max) = 8.679 | 8.679 | 8.679 Mbytes
   Step          Temp          E_pair         E_mol          TotEng         Press
         0   0              610398.86      9.9223432e-07  610398.86      43642203
       100   0             -1918.9618      153.04093     -1765.9208     -5948.4183
Loop time of 0.236051 on 2 procs for 100 steps with 384 atoms

99.6% CPU use with 2 MPI tasks x 1 OpenMP threads

Minimization stats:
  Stopping criterion = max iterations
  Energy initial, next-to-last, final =
      610398.864440351  -1761.90967938247  -1765.92082087714
  Force two-norm initial, final = 8178264.1 41.633115
  Force max component initial, final = 5625076.2 10.528586
  Final line search alpha, max atom move = 0.00099941836 0.010522462
  Iterations, force evaluations = 100 170

MPI task timing breakdown:
Section |  min time  |  avg time  |  max time  |%varavg| %total
---------------------------------------------------------------
Pair    | 0.17597    | 0.17808    | 0.18018    |   0.5 | 75.44
Bond    | 0.00065186 | 0.00069332 | 0.00073479 |   0.0 |  0.29
Kspace  | 0.035016   | 0.037152   | 0.039288   |   1.1 | 15.74
Neigh   | 0.0059873  | 0.0059888  | 0.0059902  |   0.0 |  2.54
Comm    | 0.012491   | 0.012562   | 0.012633   |   0.1 |  5.32
Output  | 1.3212e-05 | 1.5295e-05 | 1.7378e-05 |   0.0 |  0.01
Modify  | 0          | 0          | 0          |   0.0 |  0.00
Other   |            | 0.001564   |            |       |  0.66

Nlocal:            192 ave         197 max         187 min
Histogram: 1 0 0 0 0 0 0 0 0 1
Nghost:         4816.5 ave        4825 max        4808 min
Histogram: 1 0 0 0 0 0 0 0 0 1
Neighs:          69343 ave       70627 max       68059 min
Histogram: 1 0 0 0 0 0 0 0 0 1

Total # of neighbors = 138686
Ave neighs/atom = 361.16146
Ave special neighs/atom = 2
Neighbor list builds = 4
Dangerous builds = 0
reset_timestep 0

# constrain water bonds and angles
fix fSHAKE all shake 0.0001 20 0 b 1 a 1
       0 = # of size 2 clusters
       0 = # of size 3 clusters
       0 = # of size 4 clusters
     128 = # of frozen angles
  find clusters CPU = 0.000 seconds

# remove Center of Mass movement every 100 steps
fix fMOM all momentum 100 linear 1 1 1

# define the neighbor list
neighbor 2.0 bin

# IMPORTANT: timestep and temperature and pressure
timestep 1.0
variable vTK equal 298.15
variable vPBAR equal 1.0

# randomize velocities
velocity all create ${vTK} 45338
velocity all create 298.15 45338

# thermostat (solving the ODE)
fix fTHERMO all nvt temp ${vTK} ${vTK} 100
fix fTHERMO all nvt temp 298.15 ${vTK} 100
fix fTHERMO all nvt temp 298.15 298.15 100

# print settings
thermo 1000
thermo_style custom step etotal ke pe temp press vol density
# trajectory output
dump dEQUI all custom 1000 equi.lammpstrj id element xu yu zu
dump_modify dEQUI element H O sort id

# equilibration
# 1 ns
run 1000000
PPPM initialization ...
  using 12-bit tables for long-range coulomb (src/kspace.cpp:342)
  G vector (1/distance) = 0.31203871
  grid = 15 15 15
  stencil order = 5
  estimated absolute RMS force accuracy = 0.0022228175
  estimated relative force accuracy = 6.6939488e-06
  using double precision FFTW3
  3d grid and FFT values/proc = 6776 1800
Generated 1 of 1 mixed pair_coeff terms from geometric mixing rule
Per MPI rank memory allocation (min/avg/max) = 9.716 | 9.716 | 9.717 Mbytes
   Step         TotEng         KinEng         PotEng          Temp          Press          Volume        Density
         0  -1692.336       226.62577     -1918.9618      298.15        -1440.1934      3840.7412      0.99696119
      1000  -1288.0333      226.30217     -1514.3355      297.72427      969.33412      3840.7412      0.99696119
      2000  -1284.7275      218.2535      -1502.981       287.1354      -1976.4011      3840.7412      0.99696119
      3000  -1281.0454      220.0057      -1501.0511      289.44061      695.52141      3840.7412      0.99696119
      4000  -1286.5712      247.35874     -1533.93        325.42639      254.8213       3840.7412      0.99696119
      5000  -1294.6531      219.75682     -1514.4099      289.11317     -541.91398      3840.7412      0.99696119
      6000  -1307.6431      228.06644     -1535.7095      300.04535     -262.59512      3840.7412      0.99696119
      7000  -1272.4954      237.83888     -1510.3343      312.90202     -2288.6993      3840.7412      0.99696119
      8000  -1269.3793      238.95114     -1508.3305      314.36532     -79.92819       3840.7412      0.99696119
      9000  -1285.9207      226.87371     -1512.7944      298.47619     -928.74231      3840.7412      0.99696119
     10000  -1316.0885      227.15431     -1543.2428      298.84534     -1522.137       3840.7412      0.99696119
     11000  -1270.6273      241.75631     -1512.3836      318.05581      176.7218       3840.7412      0.99696119
     12000  -1297.8193      239.74048     -1537.5598      315.40378     -3240.0487      3840.7412      0.99696119
     13000  -1337.1755      192.61389     -1529.7894      253.4038      -1286.2075      3840.7412      0.99696119
     14000  -1303.3305      226.05993     -1529.3904      297.40558     -1494.6524      3840.7412      0.99696119
     15000  -1271.5665      237.8949      -1509.4614      312.97572      1749.3141      3840.7412      0.99696119
     16000  -1310.2547      220.31442     -1530.5691      289.84675     -1990.027       3840.7412      0.99696119
     17000  -1298.3713      230.75498     -1529.1263      303.58241     -2668.8702      3840.7412      0.99696119
     18000  -1251.0485      244.74543     -1495.7939      321.98831      355.12969      3840.7412      0.99696119
     19000  -1314.6529      212.11504     -1526.768       279.05961     -2836.6031      3840.7412      0.99696119
     20000  -1340.7805      227.19993     -1567.9804      298.90536      91.650883      3840.7412      0.99696119
     21000  -1335.3595      210.57458     -1545.934       277.03297      383.97275      3840.7412      0.99696119
     22000  -1298.5755      228.50545     -1527.0809      300.62292     -880.93398      3840.7412      0.99696119
     23000  -1280.9873      235.49041     -1516.4777      309.81237      685.22168      3840.7412      0.99696119
     24000  -1297.3141      216.26205     -1513.5762      284.51544      548.07786      3840.7412      0.99696119
     25000  -1316.9326      218.13771     -1535.0703      286.98306      1056.5211      3840.7412      0.99696119
     26000  -1281.4872      235.29703     -1516.7843      309.55795     -949.74663      3840.7412      0.99696119
     27000  -1297.9429      227.19074     -1525.1337      298.89327     -119.45995      3840.7412      0.99696119
     28000  -1287.8492      216.66923     -1504.5184      285.05112      541.50405      3840.7412      0.99696119
     29000  -1309.0693      219.55498     -1528.6242      288.84764      1182.1797      3840.7412      0.99696119
     30000  -1294.1204      228.54891     -1522.6693      300.68008      1683.5456      3840.7412      0.99696119
     31000  -1310.0891      231.93653     -1542.0257      305.13687      471.14675      3840.7412      0.99696119
     32000  -1300.5682      219.95973     -1520.5279      289.38012      1907.7438      3840.7412      0.99696119
     33000  -1286.2652      237.77362     -1524.0388      312.81616      663.47658      3840.7412      0.99696119
     34000  -1284.3592      214.30657     -1498.6657      281.9428      -232.30859      3840.7412      0.99696119
     35000  -1289.4764      219.47217     -1508.9486      288.73869      1786.881       3840.7412      0.99696119
     36000  -1315.461       206.54529     -1522.0063      271.73202     -1059.4049      3840.7412      0.99696119
     37000  -1289.6967      229.01091     -1518.7076      301.2879      -1801.7491      3840.7412      0.99696119
     38000  -1314.1781      217.2689      -1531.447       285.84006      1222.4039      3840.7412      0.99696119
     39000  -1261.3181      236.24893     -1497.567       310.81027     -528.26559      3840.7412      0.99696119
     40000  -1306.7402      235.31034     -1542.0505      309.57546      560.67483      3840.7412      0.99696119
     41000  -1321.4336      219.89446     -1541.3281      289.29425     -1710.443       3840.7412      0.99696119
     42000  -1274.4274      221.88228     -1496.3097      291.90944      1001.4639      3840.7412      0.99696119
     43000  -1312.1433      208.47907     -1520.6224      274.27611     -187.22082      3840.7412      0.99696119
     44000  -1288.1253      215.9362      -1504.0615      284.08675     -1237.3332      3840.7412      0.99696119
     45000  -1308.392       218.0806      -1526.4726      286.90793      1039.8996      3840.7412      0.99696119
     46000  -1320.3763      216.60211     -1536.9784      284.96282     -1190.5206      3840.7412      0.99696119
     47000  -1284.0616      217.34224     -1501.4038      285.93653     -1222.9211      3840.7412      0.99696119
     48000  -1296.2625      232.85461     -1529.1171      306.34469      220.25022      3840.7412      0.99696119
     49000  -1341.8121      211.6736      -1553.4857      278.47885      875.09581      3840.7412      0.99696119
     50000  -1334.2277      227.49548     -1561.7231      299.2942      -508.53018      3840.7412      0.99696119
     51000  -1321.4238      238.92528     -1560.3491      314.3313       850.68597      3840.7412      0.99696119
     52000  -1326.8205      225.5158      -1552.3363      296.68972     -323.51294      3840.7412      0.99696119
     53000  -1308.5566      247.26855     -1555.8251      325.30775      1625.2595      3840.7412      0.99696119
     54000  -1325.6034      211.77873     -1537.3821      278.61716     -468.47725      3840.7412      0.99696119
     55000  -1268.9659      237.71764     -1506.6835      312.74252     -1304.2943      3840.7412      0.99696119
     56000  -1274.3795      236.34933     -1510.7288      310.94236     -1534.8416      3840.7412      0.99696119
     57000  -1321.9009      207.39261     -1529.2935      272.84676     -980.29305      3840.7412      0.99696119
     58000  -1321.2644      213.2113      -1534.4757      280.50185     -1989.5762      3840.7412      0.99696119
     59000  -1265.0094      239.04862     -1504.058       314.49356      1252.1661      3840.7412      0.99696119
     60000  -1302.1474      219.75856     -1521.906       289.11547      1465.1599      3840.7412      0.99696119
     61000  -1272.9574      229.79        -1502.7474      302.31287      198.42528      3840.7412      0.99696119
     62000  -1301.5402      210.03149     -1511.5717      276.31848      109.06162      3840.7412      0.99696119
     63000  -1252.8689      238.52131     -1491.3903      313.79983     -794.47587      3840.7412      0.99696119
     64000  -1299.36        220.66913     -1520.0291      290.31341      664.02713      3840.7412      0.99696119
     65000  -1272.3564      226.26474     -1498.6212      297.67503      361.809        3840.7412      0.99696119
     66000  -1318.8463      217.08341     -1535.9297      285.59602     -107.28392      3840.7412      0.99696119
     67000  -1299.6569      229.28058     -1528.9374      301.64268     -153.46886      3840.7412      0.99696119
     68000  -1264.2542      216.5951      -1480.8493      284.9536      -533.3471       3840.7412      0.99696119
     69000  -1329.2581      200.67779     -1529.9359      264.01271     -776.394        3840.7412      0.99696119
     70000  -1290.1967      247.95898     -1538.1557      326.21608      748.798        3840.7412      0.99696119
     71000  -1296.8084      237.83813     -1534.6465      312.90104      451.29701      3840.7412      0.99696119
     72000  -1286.2653      225.42733     -1511.6927      296.57333      144.98044      3840.7412      0.99696119
     73000  -1301.9117      220.6804      -1522.5921      290.32824      1079.715       3840.7412      0.99696119
     74000  -1307.2337      213.08216     -1520.3159      280.33196      197.97011      3840.7412      0.99696119
     75000  -1323.0312      219.17007     -1542.2013      288.34124      261.38736      3840.7412      0.99696119
     76000  -1275.3708      242.02982     -1517.4006      318.41564     -246.33591      3840.7412      0.99696119
     77000  -1323.2104      216.34162     -1539.552       284.62012      916.43156      3840.7412      0.99696119
     78000  -1309.0199      231.32009     -1540.34        304.32587      1656.7485      3840.7412      0.99696119
     79000  -1265.6973      233.09207     -1498.7894      306.6571       888.4095       3840.7412      0.99696119
     80000  -1320.5049      204.29353     -1524.7984      268.76959      298.93296      3840.7412      0.99696119
     81000  -1276.6487      245.76985     -1522.4186      323.33605     -946.81175      3840.7412      0.99696119
     82000  -1319.0105      215.27853     -1534.289       283.22152     -1873.3198      3840.7412      0.99696119
     83000  -1270.8193      242.58753     -1513.4068      319.14937     -1676.9646      3840.7412      0.99696119
     84000  -1336.725       216.38291     -1553.1079      284.67444     -772.44125      3840.7412      0.99696119
     85000  -1307.5748      233.59715     -1541.1719      307.32159     -26.722404      3840.7412      0.99696119
     86000  -1336.5968      205.20753     -1541.8044      269.97206      810.37052      3840.7412      0.99696119
     87000  -1270.5389      220.19818     -1490.7371      289.69383     -862.4061       3840.7412      0.99696119
     88000  -1330.1728      205.35861     -1535.5314      270.17082     -1473.3611      3840.7412      0.99696119
     89000  -1289.9682      216.74355     -1506.7117      285.1489       1543.2472      3840.7412      0.99696119
     90000  -1278.5884      233.60904     -1512.1974      307.33722     -1.6734632      3840.7412      0.99696119
     91000  -1285.0789      252.27514     -1537.354       331.89444     -382.55121      3840.7412      0.99696119
     92000  -1292.8624      213.66073     -1506.5232      281.09313      610.97402      3840.7412      0.99696119
     93000  -1304.6237      232.5622      -1537.1859      305.96        -930.96292      3840.7412      0.99696119
     94000  -1278.3791      205.40945     -1483.7886      270.2377      -710.06015      3840.7412      0.99696119
     95000  -1279.5687      235.68197     -1515.2507      310.06438     -492.83779      3840.7412      0.99696119
     96000  -1278.82        206.64707     -1485.4671      271.86591      12.724673      3840.7412      0.99696119
     97000  -1299.224       222.89691     -1522.1209      293.24428      97.207438      3840.7412      0.99696119
     98000  -1296.4043      221.96179     -1518.3661      292.01405     -2577.2415      3840.7412      0.99696119
     99000  -1296.2235      235.79485     -1532.0183      310.21289      716.6985       3840.7412      0.99696119
    100000  -1311.3145      219.71679     -1531.0313      289.0605      -492.50428      3840.7412      0.99696119
    101000  -1300.1206      220.56073     -1520.6814      290.1708       694.38335      3840.7412      0.99696119
    102000  -1277.7088      223.73317     -1501.442       294.34448     -542.01358      3840.7412      0.99696119
    103000  -1291.7683      230.34676     -1522.1151      303.04536     -3.43139        3840.7412      0.99696119
    104000  -1318.4734      215.87051     -1534.3439      284.00033     -129.48442      3840.7412      0.99696119
    105000  -1291.2428      214.92831     -1506.1711      282.76076     -526.54193      3840.7412      0.99696119
    106000  -1276.8278      232.98849     -1509.8163      306.52082     -751.12449      3840.7412      0.99696119
    107000  -1323.9606      214.80341     -1538.764       282.59644      1567.211       3840.7412      0.99696119
    108000  -1269.8925      250.2504      -1520.1429      329.23068      526.95302      3840.7412      0.99696119
    109000  -1318.1939      225.55625     -1543.7501      296.74294     -1756.6911      3840.7412      0.99696119
    110000  -1304.5741      222.81869     -1527.3927      293.14138      125.19626      3840.7412      0.99696119
    111000  -1280.4733      244.71775     -1525.1911      321.95189      582.23231      3840.7412      0.99696119
    112000  -1304.316       207.33278     -1511.6488      272.76804     -998.75727      3840.7412      0.99696119
    113000  -1322.4999      233.35639     -1555.8563      307.00483      1199.725       3840.7412      0.99696119
    114000  -1305.1316      230.65636     -1535.7879      303.45266      1189.7092      3840.7412      0.99696119
    115000  -1282.8817      244.03696     -1526.9187      321.05625     -306.45789      3840.7412      0.99696119
    116000  -1320.0485      217.05916     -1537.1077      285.56412      575.65132      3840.7412      0.99696119
    117000  -1298.9091      226.81827     -1525.7274      298.40326     -419.74177      3840.7412      0.99696119
    118000  -1315.8101      220.68021     -1536.4903      290.32799      465.51046      3840.7412      0.99696119
    119000  -1313.9846      219.36271     -1533.3473      288.59468     -695.78235      3840.7412      0.99696119
    120000  -1273.8523      226.74589     -1500.5982      298.30803     -1605.3187      3840.7412      0.99696119
    121000  -1312.4918      232.7531      -1545.2449      306.21114     -205.59366      3840.7412      0.99696119
    122000  -1296.8363      235.21904     -1532.0553      309.45535      250.87788      3840.7412      0.99696119
    123000  -1269.4398      247.29249     -1516.7323      325.33924      1852.973       3840.7412      0.99696119
    124000  -1266.2139      234.57642     -1500.7904      308.60991     -247.3177       3840.7412      0.99696119
    125000  -1290.0956      234.35144     -1524.447       308.31392     -1072.8496      3840.7412      0.99696119
    126000  -1295.1503      229.35676     -1524.507       301.7429      -977.48252      3840.7412      0.99696119
    127000  -1314.4437      218.46186     -1532.9055      287.40951      1401.2673      3840.7412      0.99696119
    128000  -1271.6078      242.78402     -1514.3918      319.40787     -801.66039      3840.7412      0.99696119
    129000  -1282.5237      234.61286     -1517.1365      308.65785     -1240.4919      3840.7412      0.99696119
    130000  -1287.4873      227.10187     -1514.5892      298.77636     -248.03625      3840.7412      0.99696119
    131000  -1283.7029      238.20998     -1521.9129      313.39025     -1419.7038      3840.7412      0.99696119
    132000  -1327.6306      207.63715     -1535.2677      273.16847     -1680.8015      3840.7412      0.99696119
    133000  -1277.5341      226.73878     -1504.2729      298.29867      1362.4874      3840.7412      0.99696119
    134000  -1263.145       234.92632     -1498.0713      309.07024     -2199.2871      3840.7412      0.99696119
    135000  -1274.8004      223.35904     -1498.1595      293.85227     -1275.5098      3840.7412      0.99696119
    136000  -1268.0171      232.34056     -1500.3577      305.66841     -296.13319      3840.7412      0.99696119
    137000  -1268.0319      240.26102     -1508.2929      316.0886      -2372.4822      3840.7412      0.99696119
    138000  -1302.6923      231.69229     -1534.3846      304.81554     -292.78048      3840.7412      0.99696119
    139000  -1280.2992      242.16385     -1522.463       318.59198     -478.24784      3840.7412      0.99696119
    140000  -1277.7411      217.0235      -1494.7646      285.5172      -1205.7972      3840.7412      0.99696119
    141000  -1292.2417      230.60246     -1522.8442      303.38175     -392.42622      3840.7412      0.99696119
    142000  -1304.2102      224.54995     -1528.7601      295.41904     -1092.209       3840.7412      0.99696119
    143000  -1306.9589      227.20853     -1534.1674      298.91668      256.26724      3840.7412      0.99696119
    144000  -1316.4786      214.22609     -1530.7047      281.83692     -1657.3412      3840.7412      0.99696119
    145000  -1291.9464      240.31871     -1532.2651      316.1645      -1167.4501      3840.7412      0.99696119
    146000  -1336.122       219.24297     -1555.3649      288.43715     -2188.2315      3840.7412      0.99696119
    147000  -1283.1277      238.50726     -1521.635       313.78135      130.42515      3840.7412      0.99696119
    148000  -1244.4348      258.51715     -1502.952       340.10645     -993.31881      3840.7412      0.99696119
    149000  -1245.7964      235.63075     -1481.4272      309.99699     -782.14457      3840.7412      0.99696119
    150000  -1305.3252      220.80131     -1526.1266      290.48731     -349.53162      3840.7412      0.99696119
    151000  -1285.5021      241.66502     -1527.1671      317.93572      1874.6173      3840.7412      0.99696119
    152000  -1298.7594      223.05582     -1521.8152      293.45336      327.80249      3840.7412      0.99696119
    153000  -1303.7466      229.15215     -1532.8988      301.47372      983.6324       3840.7412      0.99696119
    154000  -1320.009       217.03618     -1537.0452      285.53388      1083.5626      3840.7412      0.99696119
    155000  -1302.492       209.9002      -1512.3922      276.14575      717.81419      3840.7412      0.99696119
    156000  -1294.4152      235.54274     -1529.958       309.88121      1635.8662      3840.7412      0.99696119
    157000  -1269.6317      244.08918     -1513.7209      321.12495      1551.7505      3840.7412      0.99696119
    158000  -1321.2924      216.45761     -1537.75        284.77271     -1229.4954      3840.7412      0.99696119
    159000  -1294.8604      217.3923      -1512.2527      286.00239      403.97086      3840.7412      0.99696119
    160000  -1283.6062      239.93893     -1523.5451      315.66486     -593.47097      3840.7412      0.99696119
    161000  -1283.7188      220.59574     -1504.3145      290.21686     -405.54907      3840.7412      0.99696119
    162000  -1241.5206      249.53675     -1491.0573      328.2918       941.75247      3840.7412      0.99696119
    163000  -1297.0405      212.90262     -1509.9431      280.09576     -46.096475      3840.7412      0.99696119
    164000  -1277.9207      232.11315     -1510.0339      305.36922      201.29594      3840.7412      0.99696119
    165000  -1285.2243      238.39004     -1523.6144      313.62713     -199.32624      3840.7412      0.99696119
    166000  -1280.9648      227.38513     -1508.3499      299.14901      453.70554      3840.7412      0.99696119
    167000  -1321.8025      226.04626     -1547.8488      297.38759     -7.1707848      3840.7412      0.99696119
    168000  -1270.9811      220.25394     -1491.235       289.76719      1548.508       3840.7412      0.99696119
    169000  -1290.5924      225.99224     -1516.5847      297.31652      207.42015      3840.7412      0.99696119
    170000  -1285.6324      229.38956     -1515.022       301.78606     -208.7674       3840.7412      0.99696119
    171000  -1257.0007      226.27531     -1483.276       297.68893      957.34463      3840.7412      0.99696119
    172000  -1309.0417      205.78207     -1514.8238      270.72792     -513.47678      3840.7412      0.99696119
    173000  -1286.4133      237.40029     -1523.8136      312.32501     -1114.8071      3840.7412      0.99696119
    174000  -1254.5817      244.44276     -1499.0245      321.59011      733.3393       3840.7412      0.99696119
    175000  -1305.5116      231.11111     -1536.6227      304.05094      197.20064      3840.7412      0.99696119
    176000  -1271.1927      240.15634     -1511.3491      315.95089      15.323354      3840.7412      0.99696119
    177000  -1273.9234      221.19165     -1495.115       291.00084      104.93285      3840.7412      0.99696119
    178000  -1279.2578      243.92174     -1523.1795      320.90466      10.849207      3840.7412      0.99696119
    179000  -1302.6022      222.72781     -1525.33        293.02182      1557.6276      3840.7412      0.99696119
    180000  -1292.7997      208.02909     -1500.8288      273.68411      877.94337      3840.7412      0.99696119
    181000  -1335.2523      215.24302     -1550.4953      283.1748       1529.5694      3840.7412      0.99696119
    182000  -1276.9834      222.18742     -1499.1708      292.31088     -1994.9585      3840.7412      0.99696119
    183000  -1303.7818      249.20516     -1552.987       327.85556     -1014.0259      3840.7412      0.99696119
    184000  -1277.9783      236.23159     -1514.2099      310.78746     -825.42268      3840.7412      0.99696119
    185000  -1294.7164      227.30832     -1522.0247      299.04796     -313.58564      3840.7412      0.99696119
    186000  -1324.137       223.82208     -1547.959       294.46145     -357.82871      3840.7412      0.99696119
    187000  -1260.2767      236.56271     -1496.8395      311.22309      688.9895       3840.7412      0.99696119
    188000  -1320.7898      218.13152     -1538.9214      286.97492      356.97822      3840.7412      0.99696119
    189000  -1299.9257      225.40042     -1525.3261      296.53792      678.57324      3840.7412      0.99696119
    190000  -1330.8247      224.55203     -1555.3767      295.42178     -544.49532      3840.7412      0.99696119
    191000  -1277.4092      221.39352     -1498.8027      291.26643     -357.9501       3840.7412      0.99696119
    192000  -1298.9649      228.76965     -1527.7346      300.97049     -824.81069      3840.7412      0.99696119
    193000  -1325.2676      234.96319     -1560.2308      309.11875     -1251.4627      3840.7412      0.99696119
    194000  -1303.1399      220.81616     -1523.956       290.50685      2163.4739      3840.7412      0.99696119
    195000  -1308.6899      230.81514     -1539.5051      303.66155     -1659.7064      3840.7412      0.99696119
    196000  -1314.0042      217.19344     -1531.1976      285.74078     -13.282232      3840.7412      0.99696119
    197000  -1257.0869      242.0041      -1499.091       318.38181     -523.53008      3840.7412      0.99696119
    198000  -1319.6838      219.91353     -1539.5973      289.31935      950.55003      3840.7412      0.99696119
    199000  -1304.7626      223.14458     -1527.9072      293.57013      437.47918      3840.7412      0.99696119
    200000  -1248.0938      239.70245     -1487.7962      315.35375     -235.77063      3840.7412      0.99696119
    201000  -1304.2237      229.55624     -1533.78        302.00533     -1364.0479      3840.7412      0.99696119
    202000  -1288.2166      236.95229     -1525.1689      311.73562      515.67505      3840.7412      0.99696119
    203000  -1269.2556      216.8168      -1486.0724      285.24526     -37.070833      3840.7412      0.99696119
    204000  -1286.3967      238.70861     -1525.1053      314.04624     -2396.1092      3840.7412      0.99696119
    205000  -1299.2459      227.17168     -1526.4175      298.8682       210.28674      3840.7412      0.99696119
    206000  -1299.0778      212.22494     -1511.3028      279.20419     -1162.7865      3840.7412      0.99696119
    207000  -1294.0148      211.92803     -1505.9428      278.81357     -1108.9856      3840.7412      0.99696119
    208000  -1290.7462      234.74372     -1525.4899      308.83001     -1770.82        3840.7412      0.99696119
    209000  -1300.8122      230.13311     -1530.9453      302.76427      542.2783       3840.7412      0.99696119
    210000  -1283.4015      217.99653     -1501.398       286.79733      431.50474      3840.7412      0.99696119
    211000  -1271.4946      227.45332     -1498.948       299.23873     -194.3244       3840.7412      0.99696119
    212000  -1318.2297      207.38566     -1525.6154      272.83761     -2887.4952      3840.7412      0.99696119
    213000  -1279.0453      234.59384     -1513.6392      308.63283     -1041.3568      3840.7412      0.99696119
    214000  -1302.761       220.34178     -1523.1028      289.88275     -1587.6565      3840.7412      0.99696119
    215000  -1297.9659      227.65053     -1525.6164      299.49818     -460.97         3840.7412      0.99696119
    216000  -1286.9658      255.8187      -1542.7845      336.55636     -1019.8111      3840.7412      0.99696119
    217000  -1328.2016      227.68307     -1555.8846      299.54099     -912.00763      3840.7412      0.99696119
    218000  -1287.2623      227.71545     -1514.9777      299.58358     -623.67944      3840.7412      0.99696119
    219000  -1327.2375      235.10924     -1562.3467      309.31089     -2164.8317      3840.7412      0.99696119
    220000  -1315.8827      223.87557     -1539.7583      294.53183     -974.76729      3840.7412      0.99696119
    221000  -1308.7243      217.75351     -1526.4778      286.47761     -297.41297      3840.7412      0.99696119
    222000  -1291.3184      235.35752     -1526.676       309.63753     -383.91211      3840.7412      0.99696119
    223000  -1269.7189      248.83428     -1518.5532      327.36762      505.48265      3840.7412      0.99696119
    224000  -1307.5767      225.89147     -1533.4682      297.18395     -220.05401      3840.7412      0.99696119
    225000  -1348.2928      217.07435     -1565.3672      285.5841      -417.01251      3840.7412      0.99696119
    226000  -1317.2321      213.65323     -1530.8853      281.08326     -149.62853      3840.7412      0.99696119
    227000  -1314.6112      220.01832     -1534.6295      289.4572      -1111.4869      3840.7412      0.99696119
    228000  -1298.8483      228.23285     -1527.0812      300.26428      945.24415      3840.7412      0.99696119
    229000  -1290.2395      220.85531     -1511.0948      290.55835     -1725.4262      3840.7412      0.99696119
    230000  -1318.6305      210.23118     -1528.8617      276.58119      19.546873      3840.7412      0.99696119
    231000  -1298.6789      218.9264      -1517.6052      288.02067      161.59784      3840.7412      0.99696119
    232000  -1313.423       223.69087     -1537.1138      294.28883     -1541.7369      3840.7412      0.99696119
    233000  -1268.8446      247.07657     -1515.9212      325.05518     -2290.9148      3840.7412      0.99696119
    234000  -1296.8517      220.12068     -1516.9723      289.59187     -479.12124      3840.7412      0.99696119
    235000  -1311.9505      205.96859     -1517.9191      270.97331      553.19015      3840.7412      0.99696119
    236000  -1278.034       230.90434     -1508.9383      303.77891     -77.620002      3840.7412      0.99696119
    237000  -1301.3248      230.02078     -1531.3456      302.61649      1143.9939      3840.7412      0.99696119
    238000  -1296.9335      231.71023     -1528.6438      304.83914      323.44216      3840.7412      0.99696119
    239000  -1284.2073      221.89987     -1506.1072      291.93257      1620.6269      3840.7412      0.99696119
    240000  -1320.0636      208.9038      -1528.9674      274.83489      29.213304      3840.7412      0.99696119
    241000  -1286.0787      241.32844     -1527.4072      317.4929      -154.84232      3840.7412      0.99696119
    242000  -1264.2557      235.10678     -1499.3625      309.30766      453.60474      3840.7412      0.99696119
    243000  -1277.1141      231.80486     -1508.919       304.96363     -457.34656      3840.7412      0.99696119
    244000  -1285.7448      224.05258     -1509.7974      294.76469      865.44678      3840.7412      0.99696119
    245000  -1284.65        233.22602     -1517.876       306.83332     -723.97234      3840.7412      0.99696119
    246000  -1258.1231      235.34451     -1493.4676      309.62041      1242.6195      3840.7412      0.99696119
    247000  -1298.9166      216.23407     -1515.1507      284.47862     -511.50616      3840.7412      0.99696119
    248000  -1328.502       216.89508     -1545.3971      285.34825      1313.2292      3840.7412      0.99696119
    249000  -1253.9987      236.9507      -1490.9494      311.73352     -501.86365      3840.7412      0.99696119
    250000  -1294.0592      223.6397      -1517.6989      294.22151     -1352.0755      3840.7412      0.99696119
    251000  -1291.5297      212.57689     -1504.1066      279.66722     -754.75494      3840.7412      0.99696119
    252000  -1281.7769      236.77797     -1518.5549      311.50628      119.48894      3840.7412      0.99696119
    253000  -1275.5668      231.63853     -1507.2053      304.74481     -813.20911      3840.7412      0.99696119
    254000  -1272.226       234.28202     -1506.508       308.22259      35.472641      3840.7412      0.99696119
    255000  -1278.4521      242.31766     -1520.7698      318.79433      501.33122      3840.7412      0.99696119
    256000  -1297.5076      232.82901     -1530.3366      306.31101      2138.6613      3840.7412      0.99696119
    257000  -1310.6528      236.42238     -1547.0752      311.03846     -417.38589      3840.7412      0.99696119
    258000  -1271.7777      215.83159     -1487.6093      283.94913     -7.7619697      3840.7412      0.99696119
    259000  -1246.8544      239.06906     -1485.9234      314.52045     -511.72003      3840.7412      0.99696119
    260000  -1285.1749      220.49775     -1505.6726      290.08794      1286.0065      3840.7412      0.99696119
    261000  -1270.5711      232.20851     -1502.7796      305.49468      947.39403      3840.7412      0.99696119
    262000  -1331.6744      228.63344     -1560.3078      300.7913       231.61949      3840.7412      0.99696119
    263000  -1310.7765      214.62238     -1525.3989      282.35827      1043.8567      3840.7412      0.99696119
    264000  -1345.0399      216.25411     -1561.294       284.505        150.69384      3840.7412      0.99696119
    265000  -1322.3964      224.51202     -1546.9084      295.36914      1075.1378      3840.7412      0.99696119
    266000  -1318.8734      209.14302     -1528.0164      275.1496      -369.9241       3840.7412      0.99696119
    267000  -1281.7977      241.14484     -1522.9425      317.25136      222.69586      3840.7412      0.99696119
    268000  -1255.4233      225.24239     -1480.6657      296.33002      803.7879       3840.7412      0.99696119
    269000  -1262.9797      226.01437     -1488.9941      297.34563      1773.1688      3840.7412      0.99696119
    270000  -1294.612       213.9616      -1508.5736      281.48896     -63.362967      3840.7412      0.99696119
    271000  -1300.5241      208.13945     -1508.6635      273.8293      -831.16989      3840.7412      0.99696119
    272000  -1293.1606      195.59424     -1488.7548      257.32477     -1086.0406      3840.7412      0.99696119
    273000  -1299.4634      242.56714     -1542.0306      319.12255     -601.84164      3840.7412      0.99696119
    274000  -1303.5579      218.60765     -1522.1655      287.60131     -1186.0323      3840.7412      0.99696119
    275000  -1307.3608      223.14826     -1530.5091      293.57496      633.24857      3840.7412      0.99696119
    276000  -1315.4542      205.42969     -1520.8838      270.26433      3900.1419      3840.7412      0.99696119
    277000  -1306.5946      228.46938     -1535.064       300.57546     -180.01367      3840.7412      0.99696119
    278000  -1315.4526      206.89145     -1522.3441      272.18742     -1845.7695      3840.7412      0.99696119
    279000  -1294.7195      213.50715     -1508.2267      280.89107      629.40732      3840.7412      0.99696119
    280000  -1279.4685      234.45392     -1513.9224      308.44875     -2145.5054      3840.7412      0.99696119
    281000  -1295.6796      224.93653     -1520.6161      295.92762      367.59862      3840.7412      0.99696119
    282000  -1295.2837      242.10482     -1537.3886      318.51432      1851.7984      3840.7412      0.99696119
    283000  -1303.4663      229.11899     -1532.5852      301.43009      2022.8898      3840.7412      0.99696119
    284000  -1283.0817      246.90299     -1529.9846      324.82681     -16.481004      3840.7412      0.99696119
    285000  -1299.3059      230.12399     -1529.4299      302.75227      331.98319      3840.7412      0.99696119
    286000  -1311.7789      221.24732     -1533.0262      291.07408     -1251.5298      3840.7412      0.99696119
    287000  -1309.8353      220.80964     -1530.645       290.49826      848.23478      3840.7412      0.99696119
    288000  -1308.3186      216.30757     -1524.6262      284.57532      1667.2098      3840.7412      0.99696119
    289000  -1335.1326      209.65056     -1544.7831      275.81732      727.22259      3840.7412      0.99696119
    290000  -1289.1815      221.74456     -1510.926       291.72825     -811.74026      3840.7412      0.99696119
    291000  -1299.1814      235.61591     -1534.7973      309.97747     -527.42493      3840.7412      0.99696119
    292000  -1292.8752      229.48174     -1522.357       301.90733     -1131.6689      3840.7412      0.99696119
    293000  -1279.2255      228.95995     -1508.1855      301.22086      1785.6902      3840.7412      0.99696119
    294000  -1284.7273      237.78397     -1522.5113      312.82978     -962.53853      3840.7412      0.99696119
    295000  -1304.4691      230.68418     -1535.1533      303.48926     -291.57489      3840.7412      0.99696119
    296000  -1331.8091      200.37137     -1532.1805      263.60958     -943.02043      3840.7412      0.99696119
    297000  -1274.6895      230.61879     -1505.3082      303.40323      2457.7841      3840.7412      0.99696119
    298000  -1282.0512      219.88562     -1501.9369      289.28262      775.75241      3840.7412      0.99696119
    299000  -1279.8496      238.30724     -1518.1569      313.51819      730.11539      3840.7412      0.99696119
    300000  -1282.4734      222.79748     -1505.2709      293.11348     -1227.8988      3840.7412      0.99696119
    301000  -1276.4885      232.3482      -1508.8367      305.67845      700.71101      3840.7412      0.99696119
    302000  -1289.7455      227.41707     -1517.1626      299.19104     -29.725174      3840.7412      0.99696119
    303000  -1330.5428      218.19147     -1548.7342      287.05379     -100.32439      3840.7412      0.99696119
    304000  -1236.286       256.06541     -1492.3514      336.88094      552.6994       3840.7412      0.99696119
    305000  -1323.8346      209.60677     -1533.4414      275.75972      1412.742       3840.7412      0.99696119
    306000  -1263.1255      236.28519     -1499.4107      310.85798      736.56032      3840.7412      0.99696119
    307000  -1289.665       231.41298     -1521.078       304.44808      500.85814      3840.7412      0.99696119
    308000  -1286.552       215.81031     -1502.3623      283.92112      415.30655      3840.7412      0.99696119
    309000  -1292.5936      227.80253     -1520.3961      299.69815     -1703.3688      3840.7412      0.99696119
    310000  -1267.2379      231.31656     -1498.5544      304.32122     -367.59843      3840.7412      0.99696119
    311000  -1303.6435      207.35474     -1510.9983      272.79694      869.96603      3840.7412      0.99696119
    312000  -1296.7909      226.11949     -1522.9103      297.48393     -195.5262       3840.7412      0.99696119
    313000  -1245.8415      234.16273     -1480.0043      308.06567      465.65347      3840.7412      0.99696119
    314000  -1292.4661      221.80265     -1514.2688      291.80468      1167.6193      3840.7412      0.99696119
    315000  -1252.9269      236.16133     -1489.0882      310.69503      43.312673      3840.7412      0.99696119
    316000  -1289.459       217.95592     -1507.4149      286.7439      -2662.86        3840.7412      0.99696119
    317000  -1284.9152      215.61467     -1500.5299      283.66374     -387.80866      3840.7412      0.99696119
    318000  -1322.495       214.38177     -1536.8767      282.04172     -355.0597       3840.7412      0.99696119
    319000  -1263.3963      220.95518     -1484.3515      290.68974      942.12123      3840.7412      0.99696119
    320000  -1267.516       244.10326     -1511.6192      321.14348     -660.93183      3840.7412      0.99696119
    321000  -1281.0391      207.35196     -1488.3911      272.79328      2429.3853      3840.7412      0.99696119
    322000  -1264.3174      243.22709     -1507.5445      319.99078     -89.525419      3840.7412      0.99696119
    323000  -1276.759       212.09639     -1488.8553      279.03507     -343.75576      3840.7412      0.99696119
    324000  -1284.81        233.91757     -1518.7276      307.74313     -812.53465      3840.7412      0.99696119
    325000  -1281.4773      229.8627      -1511.34        302.40851     -1398.8977      3840.7412      0.99696119
    326000  -1280.1403      222.90636     -1503.0466      293.25672      1753.0568      3840.7412      0.99696119
    327000  -1273.838       219.59759     -1493.4356      288.90369     -1432.9196      3840.7412      0.99696119
    328000  -1322.2161      232.6178      -1554.8339      306.03315      2460.9382      3840.7412      0.99696119
    329000  -1236.9686      247.44737     -1484.416       325.543       -118.85874      3840.7412      0.99696119
    330000  -1272.516       219.26764     -1491.7837      288.4696      -932.00669      3840.7412      0.99696119
    331000  -1243.5049      247.16128     -1490.6662      325.16662     -569.49935      3840.7412      0.99696119
    332000  -1281.444       238.6382      -1520.0822      313.95361      830.12972      3840.7412      0.99696119
    333000  -1215.7989      245.89065     -1461.6895      323.49497     -1173.3124      3840.7412      0.99696119
    334000  -1285.3671      220.87363     -1506.2408      290.58245     -1624.9849      3840.7412      0.99696119
    335000  -1248.46        228.85296     -1477.3129      301.0801       1108.8871      3840.7412      0.99696119
    336000  -1285.3053      221.37911     -1506.6844      291.24746     -146.92702      3840.7412      0.99696119
    337000  -1350.5378      203.81565     -1554.3535      268.14089      706.18257      3840.7412      0.99696119
    338000  -1312.3523      204.9248      -1517.2771      269.6001       1333.2185      3840.7412      0.99696119
    339000  -1281.4606      236.67128     -1518.1319      311.36592     -683.69942      3840.7412      0.99696119
    340000  -1286.866       232.40178     -1519.2678      305.74895     -632.75573      3840.7412      0.99696119
    341000  -1313.1624      220.79652     -1533.9589      290.481        838.18452      3840.7412      0.99696119
    342000  -1266.798       230.53134     -1497.3293      303.28819      2164.7882      3840.7412      0.99696119
    343000  -1326.8808      217.93798     -1544.8188      286.7203      -1042.777       3840.7412      0.99696119
    344000  -1289.897       230.28405     -1520.1811      302.96285      55.291848      3840.7412      0.99696119
    345000  -1320.0024      238.6102      -1558.6126      313.91677      185.32872      3840.7412      0.99696119
    346000  -1309.5924      206.12349     -1515.7159      271.17709     -578.83373      3840.7412      0.99696119
    347000  -1291.9691      233.86232     -1525.8314      307.67043     -164.8317       3840.7412      0.99696119
    348000  -1279.1337      231.4066      -1510.5403      304.43968     -719.33912      3840.7412      0.99696119
    349000  -1292.4511      230.2435      -1522.6946      302.90951      1854.9413      3840.7412      0.99696119
    350000  -1299.9405      244.24838     -1544.1889      321.3344      -561.61279      3840.7412      0.99696119
    351000  -1268.3337      238.61714     -1506.9509      313.92591      1443.6693      3840.7412      0.99696119
    352000  -1297.9705      223.58675     -1521.5573      294.15185     -568.12348      3840.7412      0.99696119
    353000  -1304.7241      240.44327     -1545.1674      316.32837     -1367.9375      3840.7412      0.99696119
    354000  -1338.8266      215.85232     -1554.6789      283.97639     -1345.055       3840.7412      0.99696119
    355000  -1308.4577      231.82596     -1540.2837      304.99139      860.35263      3840.7412      0.99696119
    356000  -1289.1447      235.39537     -1524.54        309.68732      662.96519      3840.7412      0.99696119
    357000  -1295.9333      229.26522     -1525.1986      301.62247     -1818.0061      3840.7412      0.99696119
    358000  -1291.6397      216.18296     -1507.8226      284.41138     -2320.8322      3840.7412      0.99696119
    359000  -1317.3908      212.6285      -1530.0193      279.73512     -783.81415      3840.7412      0.99696119
    360000  -1292.9515      217.14883     -1510.1004      285.68208     -2039.7178      3840.7412      0.99696119
    361000  -1299.8869      228.39502     -1528.2819      300.47763      541.74293      3840.7412      0.99696119
    362000  -1298.5191      231.29523     -1529.8143      304.29316      712.96781      3840.7412      0.99696119
    363000  -1331.3316      214.0981      -1545.4297      281.66853      3070.3961      3840.7412      0.99696119
    364000  -1288.018       223.91131     -1511.9293      294.57884      890.37974      3840.7412      0.99696119
    365000  -1309.9511      220.82121     -1530.7723      290.51349      2348.1707      3840.7412      0.99696119
    366000  -1300.6924      218.57827     -1519.2707      287.56267      807.80874      3840.7412      0.99696119
    367000  -1284.4926      248.69658     -1533.1892      327.18647      116.41447      3840.7412      0.99696119
    368000  -1331.5608      212.33724     -1543.898       279.35193     -280.50959      3840.7412      0.99696119
    369000  -1291.2413      221.73275     -1512.9741      291.71271     -1833.4322      3840.7412      0.99696119
    370000  -1328.1211      227.44955     -1555.5706      299.23376      1450.0384      3840.7412      0.99696119
    371000  -1322.0382      228.35399     -1550.3922      300.42365      27.332246      3840.7412      0.99696119
    372000  -1315.4574      231.78956     -1547.247       304.94351     -84.17543       3840.7412      0.99696119
    373000  -1284.2971      223.80563     -1508.1028      294.43981      831.58044      3840.7412      0.99696119
    374000  -1263.8762      223.89968     -1487.7759      294.56354      561.92637      3840.7412      0.99696119
    375000  -1271.1878      228.99811     -1500.1859      301.27106     -634.82292      3840.7412      0.99696119
    376000  -1308.7244      230.43328     -1539.1577      303.15918     -160.29559      3840.7412      0.99696119
    377000  -1277.024       229.81439     -1506.8384      302.34497     -663.57358      3840.7412      0.99696119
    378000  -1283.9968      221.6008      -1505.5976      291.53912      1259.6717      3840.7412      0.99696119
    379000  -1265.0286      236.02157     -1501.0501      310.51116     -769.65796      3840.7412      0.99696119
    380000  -1286.1406      228.18301     -1514.3236      300.19871      1923.4912      3840.7412      0.99696119
    381000  -1310.9439      214.55835     -1525.5022      282.27403      2093.3946      3840.7412      0.99696119
    382000  -1310.5328      210.00421     -1520.537       276.28258     -1414.2163      3840.7412      0.99696119
    383000  -1254.8638      228.64832     -1483.5121      300.81088      132.01007      3840.7412      0.99696119
    384000  -1317.1162      210.05272     -1527.1689      276.34641     -578.82592      3840.7412      0.99696119
    385000  -1299.165       218.01368     -1517.1787      286.81989      354.75329      3840.7412      0.99696119
    386000  -1293.7302      229.0665      -1522.7967      301.36104     -1659.7254      3840.7412      0.99696119
    387000  -1296.5237      216.77986     -1513.3035      285.19667      1080.1622      3840.7412      0.99696119
    388000  -1291.7258      214.20536     -1505.9311      281.80964      1566.2165      3840.7412      0.99696119
    389000  -1313.7504      227.70191     -1541.4523      299.56578     -1338.7775      3840.7412      0.99696119
    390000  -1288.5251      231.55119     -1520.0763      304.6299       33.384364      3840.7412      0.99696119
    391000  -1328.0822      223.26425     -1551.3465      293.72757      424.30773      3840.7412      0.99696119
    392000  -1316.4582      218.29925     -1534.7574      287.19559      1343.2555      3840.7412      0.99696119
    393000  -1315.1827      207.14191     -1522.3246      272.51693      1309.6334      3840.7412      0.99696119
    394000  -1277.5095      237.3629      -1514.8724      312.27582     -1372.5782      3840.7412      0.99696119
    395000  -1304.8709      236.21237     -1541.0833      310.76217      1063.5926      3840.7412      0.99696119
    396000  -1243.4344      240.02008     -1483.4545      315.77162     -533.32028      3840.7412      0.99696119
    397000  -1293.8843      218.61718     -1512.5015      287.61386      9.4253734      3840.7412      0.99696119
    398000  -1325.8374      205.12144     -1530.9589      269.85879      1249.9491      3840.7412      0.99696119
    399000  -1311.295       214.91563     -1526.2106      282.74409      7.6198683      3840.7412      0.99696119
    400000  -1268.9768      235.69797     -1504.6748      310.08543     -295.75725      3840.7412      0.99696119
    401000  -1261.486       249.34479     -1510.8308      328.03926      2353.2461      3840.7412      0.99696119
    402000  -1321.4428      212.46559     -1533.9084      279.5208      -917.44703      3840.7412      0.99696119
    403000  -1293.5957      215.78781     -1509.3835      283.89152      925.56558      3840.7412      0.99696119
    404000  -1271.775       236.51059     -1508.2856      311.15452      699.53577      3840.7412      0.99696119
    405000  -1310.8031      220.60845     -1531.4116      290.23358      193.33742      3840.7412      0.99696119
    406000  -1263.5995      239.89583     -1503.4954      315.60816      880.04584      3840.7412      0.99696119
    407000  -1285.9735      215.13355     -1501.107       283.03077     -161.89306      3840.7412      0.99696119
    408000  -1314.1057      205.74081     -1519.8465      270.67364     -2568.9369      3840.7412      0.99696119
    409000  -1288.3943      231.78645     -1520.1808      304.93941     -505.43568      3840.7412      0.99696119
    410000  -1309.0202      214.03912     -1523.0594      281.59094      108.2498       3840.7412      0.99696119
    411000  -1264.8057      244.25105     -1509.0568      321.33791     -814.33505      3840.7412      0.99696119
    412000  -1294.7919      199.22508     -1494.017       262.10152     -332.27705      3840.7412      0.99696119
    413000  -1309.8955      222.47147     -1532.367       292.68457      481.40305      3840.7412      0.99696119
    414000  -1284.5464      231.18196     -1515.7283      304.14415      519.33321      3840.7412      0.99696119
    415000  -1299.0978      206.80511     -1505.9029      272.07384     -1084.6414      3840.7412      0.99696119
    416000  -1288.8524      224.45889     -1513.3112      295.29924     -267.45576      3840.7412      0.99696119
    417000  -1313.661       225.28474     -1538.9457      296.38573     -1048.209       3840.7412      0.99696119
    418000  -1292.5205      213.39242     -1505.9129      280.74013     -1041.4976      3840.7412      0.99696119
    419000  -1307.0863      229.31784     -1536.4041      301.69169      269.97836      3840.7412      0.99696119
    420000  -1280.8139      231.68289     -1512.4968      304.80317      96.568171      3840.7412      0.99696119
    421000  -1267.9661      213.58075     -1481.5469      280.9879       837.35075      3840.7412      0.99696119
    422000  -1317.7871      226.08338     -1543.8704      297.43643      1843.5616      3840.7412      0.99696119
    423000  -1297.9391      230.46939     -1528.4085      303.20668     -823.05467      3840.7412      0.99696119
    424000  -1279.3558      228.61707     -1507.9729      300.76976      15.28781       3840.7412      0.99696119
    425000  -1318.0253      218.4059      -1536.4312      287.33589     -2289.4425      3840.7412      0.99696119
    426000  -1282.0345      229.47803     -1511.5125      301.90244      1484.0593      3840.7412      0.99696119
    427000  -1299.4216      230.52052     -1529.9421      303.27395      732.14605      3840.7412      0.99696119
    428000  -1309.6981      226.53227     -1536.2303      298.02699     -239.7439       3840.7412      0.99696119
    429000  -1324.8092      220.53399     -1545.3431      290.13562     -1780.0426      3840.7412      0.99696119
    430000  -1310.3987      215.61754     -1526.0162      283.66752     -1543.3179      3840.7412      0.99696119
    431000  -1304.9334      207.75874     -1512.6921      273.32843     -1460.8608      3840.7412      0.99696119
    432000  -1341.7148      203.84081     -1545.5556      268.17399      32.89613       3840.7412      0.99696119
    433000  -1314.8119      223.44841     -1538.2604      293.96984     -328.36315      3840.7412      0.99696119
    434000  -1292.035       231.61042     -1523.6455      304.70783      250.85167      3840.7412      0.99696119
    435000  -1310.9853      221.75162     -1532.7369      291.73754      1210.3071      3840.7412      0.99696119
    436000  -1293.6041      222.90531     -1516.5094      293.25534     -1201.2571      3840.7412      0.99696119
    437000  -1332.0846      227.01005     -1559.0946      298.65555      1258.6903      3840.7412      0.99696119
    438000  -1296.5789      237.28157     -1533.8605      312.16882      167.73172      3840.7412      0.99696119
    439000  -1255.9951      240.51417     -1496.5093      316.42164      2480.3548      3840.7412      0.99696119
    440000  -1302.9365      228.81645     -1531.753       301.03207     -1725.5357      3840.7412      0.99696119
    441000  -1320.5124      232.86635     -1553.3788      306.36014      158.29903      3840.7412      0.99696119
    442000  -1312.5073      225.90625     -1538.4136      297.20339     -1945.7349      3840.7412      0.99696119
    443000  -1287.2132      216.75672     -1503.9699      285.16623      369.17095      3840.7412      0.99696119
    444000  -1253.2251      258.7889      -1512.014       340.46398     -1952.8742      3840.7412      0.99696119
    445000  -1294.7544      226.63595     -1521.3903      298.1634      -1173.9724      3840.7412      0.99696119
    446000  -1297.6329      218.6125      -1516.2454      287.6077      -964.65767      3840.7412      0.99696119
    447000  -1274.4628      237.42647     -1511.8893      312.35945     -515.78459      3840.7412      0.99696119
    448000  -1286.2045      229.22594     -1515.4304      301.5708      -602.89676      3840.7412      0.99696119
    449000  -1311.7946      211.73538     -1523.53        278.56013      912.92127      3840.7412      0.99696119
    450000  -1293.9708      218.68063     -1512.6514      287.69733      67.926264      3840.7412      0.99696119
    451000  -1270.2939      249.77283     -1520.0667      328.60239      1688.0565      3840.7412      0.99696119
    452000  -1290.4154      237.36647     -1527.7819      312.28052     -3069.1506      3840.7412      0.99696119
    453000  -1278.1244      227.04814     -1505.1725      298.70567     -1269.5568      3840.7412      0.99696119
    454000  -1289.6801      223.78618     -1513.4663      294.41422      1016.0159      3840.7412      0.99696119
    455000  -1309.8382      210.9781      -1520.8163      277.56384      174.3553       3840.7412      0.99696119
    456000  -1281.1898      219.25254     -1500.4424      288.44974     -2476.6084      3840.7412      0.99696119
    457000  -1285.036       218.685       -1503.721       287.70309      482.21111      3840.7412      0.99696119
    458000  -1296.564       232.92768     -1529.4916      306.44082     -1612.3064      3840.7412      0.99696119
    459000  -1298.8383      207.15283     -1505.9911      272.5313       1115.4483      3840.7412      0.99696119
    460000  -1276.7213      220.88212     -1497.6035      290.59363      79.166506      3840.7412      0.99696119
    461000  -1274.9539      244.45874     -1519.4126      321.61115     -79.574864      3840.7412      0.99696119
    462000  -1283.4032      242.0943      -1525.4975      318.50047     -346.14929      3840.7412      0.99696119
    463000  -1281.6284      221.30666     -1502.9351      291.15215      483.39491      3840.7412      0.99696119
    464000  -1309.7276      212.78247     -1522.5101      279.93768     -2739.346       3840.7412      0.99696119
    465000  -1317.3027      229.35907     -1546.6617      301.74594     -584.65432      3840.7412      0.99696119
    466000  -1354.0894      204.59955     -1558.6889      269.17219     -266.69099      3840.7412      0.99696119
    467000  -1325.8097      221.61502     -1547.4247      291.55783     -412.40734      3840.7412      0.99696119
    468000  -1277.9215      221.77111     -1499.6926      291.76318     -897.19018      3840.7412      0.99696119
    469000  -1241.7306      254.97856     -1496.7092      335.45107      768.79385      3840.7412      0.99696119
    470000  -1261.2968      229.92921     -1491.226       302.49602      438.44368      3840.7412      0.99696119
    471000  -1274.0294      241.46717     -1515.4965      317.67542     -2380.1846      3840.7412      0.99696119
    472000  -1242.2039      248.09973     -1490.3037      326.40125      1635.7385      3840.7412      0.99696119
    473000  -1315.7526      218.25641     -1534.009       287.13923     -209.10467      3840.7412      0.99696119
    474000  -1260.6846      251.5417      -1512.2263      330.92952     -392.25518      3840.7412      0.99696119
    475000  -1264.7626      229.19055     -1493.9531      301.52424     -203.2505       3840.7412      0.99696119
    476000  -1297.965       210.10628     -1508.0713      276.41687     -189.11557      3840.7412      0.99696119
    477000  -1266.4841      238.49937     -1504.9835      313.77096      2197.74        3840.7412      0.99696119
    478000  -1299.429       243.76443     -1543.1934      320.6977      -1871.7458      3840.7412      0.99696119
    479000  -1275.4977      249.38472     -1524.8824      328.09179     -1025.1886      3840.7412      0.99696119
    480000  -1308.2383      222.59735     -1530.8357      292.85019     -663.50771      3840.7412      0.99696119
    481000  -1267.3666      208.87462     -1476.2413      274.7965       541.5398       3840.7412      0.99696119
    482000  -1284.7765      235.78659     -1520.5631      310.20202      475.93856      3840.7412      0.99696119
    483000  -1282.3935      247.46686     -1529.8604      325.56864     -93.099324      3840.7412      0.99696119
    484000  -1280.0136      222.70717     -1502.7207      292.99467     -134.90149      3840.7412      0.99696119
    485000  -1265.9541      234.8456      -1500.7997      308.96405     -254.27353      3840.7412      0.99696119
    486000  -1300.2788      226.85665     -1527.1355      298.45374     -747.33034      3840.7412      0.99696119
    487000  -1285.5462      236.6208      -1522.167       311.29951     -900.60991      3840.7412      0.99696119
    488000  -1301.0945      225.54637     -1526.6408      296.72993     -1898.2826      3840.7412      0.99696119
    489000  -1270.9643      239.80784     -1510.7721      315.4924       44.856449      3840.7412      0.99696119
    490000  -1342.2438      195.99785     -1538.2416      257.85576     -289.50549      3840.7412      0.99696119
    491000  -1309.9307      228.64651     -1538.5772      300.80849     -437.35729      3840.7412      0.99696119
    492000  -1269.0984      233.37335     -1502.4718      307.02715     -2064.6038      3840.7412      0.99696119
    493000  -1318.9173      214.91873     -1533.8361      282.74815      2431.6867      3840.7412      0.99696119
    494000  -1266.3483      253.03376     -1519.3821      332.89248      481.34276      3840.7412      0.99696119
    495000  -1292.4486      219.63017     -1512.0788      288.94655      602.66604      3840.7412      0.99696119
    496000  -1283.5919      222.41563     -1506.0076      292.61112      299.30814      3840.7412      0.99696119
    497000  -1310.9217      215.82467     -1526.7464      283.94001     -837.94455      3840.7412      0.99696119
    498000  -1256.3521      247.64827     -1504.0004      325.80731      1040.9364      3840.7412      0.99696119
    499000  -1281.149       245.31133     -1526.4603      322.73282      735.53485      3840.7412      0.99696119
    500000  -1323.9783      209.52892     -1533.5073      275.6573      -391.11305      3840.7412      0.99696119
    501000  -1297.9105      220.70331     -1518.6138      290.35838     -2712.2083      3840.7412      0.99696119
    502000  -1298.6436      225.67835     -1524.322       296.90357     -72.673636      3840.7412      0.99696119
    503000  -1301.2981      222.87324     -1524.1713      293.21315     -550.41446      3840.7412      0.99696119
    504000  -1337.8577      211.06628     -1548.9239      277.67986     -398.5581       3840.7412      0.99696119
    505000  -1329.8947      219.43719     -1549.3319      288.69266     -992.19838      3840.7412      0.99696119
    506000  -1286.6728      235.6413      -1522.3141      310.01088     -3270.2633      3840.7412      0.99696119
    507000  -1282.2693      222.07702     -1504.3463      292.16564      349.72608      3840.7412      0.99696119
    508000  -1281.8908      220.40573     -1502.2966      289.96688      43.668823      3840.7412      0.99696119
    509000  -1283.7991      219.26195     -1503.0611      288.46212      527.42341      3840.7412      0.99696119
    510000  -1250.58        255.75838     -1506.3384      336.47701     -589.5116       3840.7412      0.99696119
    511000  -1304.4107      224.41322     -1528.8239      295.23915     -618.14681      3840.7412      0.99696119
    512000  -1282.0673      238.67069     -1520.738       313.99635     -2428.2565      3840.7412      0.99696119
    513000  -1275.4119      233.96643     -1509.3783      307.8074       1890.4256      3840.7412      0.99696119
    514000  -1285.6399      241.91498     -1527.5549      318.26456      797.35884      3840.7412      0.99696119
    515000  -1319.9312      221.76391     -1541.6951      291.7537       466.56008      3840.7412      0.99696119
    516000  -1293.9301      240.05992     -1533.99        315.82403     -1376.9551      3840.7412      0.99696119
    517000  -1312.0097      209.00786     -1521.0176      274.97179      258.63724      3840.7412      0.99696119
    518000  -1283.0947      238.35643     -1521.4512      313.58291      856.86485      3840.7412      0.99696119
    519000  -1294.4256      238.62402     -1533.0496      313.93495     -105.83256      3840.7412      0.99696119
    520000  -1295.8622      227.37241     -1523.2346      299.13228      1605.6648      3840.7412      0.99696119
    521000  -1307.3394      226.9311      -1534.2705      298.55169     -1934.3952      3840.7412      0.99696119
    522000  -1294.5221      235.97623     -1530.4983      310.45151     -309.24735      3840.7412      0.99696119
    523000  -1271.8875      241.45768     -1513.3452      317.66293     -1600.9613      3840.7412      0.99696119
    524000  -1298.6998      241.83304     -1540.5329      318.15676     -511.05759      3840.7412      0.99696119
    525000  -1291.6716      227.14685     -1518.8184      298.83554      79.799281      3840.7412      0.99696119
    526000  -1202.2624      264.21062     -1466.473       347.59681      18.827658      3840.7412      0.99696119
    527000  -1289.7042      224.90945     -1514.6137      295.892        275.60402      3840.7412      0.99696119
    528000  -1273.9554      231.29731     -1505.2527      304.2959      -386.50768      3840.7412      0.99696119
    529000  -1294.3868      219.68898     -1514.0758      289.02392     -32.331186      3840.7412      0.99696119
    530000  -1302.6001      232.35985     -1534.9599      305.69378     -759.85025      3840.7412      0.99696119
    531000  -1307.6247      218.56473     -1526.1894      287.54485      2218.186       3840.7412      0.99696119
    532000  -1262.6247      242.07342     -1504.6981      318.473        1654.3931      3840.7412      0.99696119
    533000  -1298.8521      236.50686     -1535.3589      311.14961      981.52831      3840.7412      0.99696119
    534000  -1271.2526      265.92065     -1537.1733      349.84654      35.954415      3840.7412      0.99696119
    535000  -1335.2065      216.58995     -1551.7965      284.94683     -901.36332      3840.7412      0.99696119
    536000  -1272.1389      244.18863     -1516.3275      321.25578     -882.93672      3840.7412      0.99696119
    537000  -1310.37        213.49941     -1523.8694      280.8809      -1037.3944      3840.7412      0.99696119
    538000  -1277.8989      256.27335     -1534.1723      337.1545      -962.32905      3840.7412      0.99696119
    539000  -1291.7337      245.96756     -1537.7013      323.59615     -2317.815       3840.7412      0.99696119
    540000  -1296.1356      216.09155     -1512.2271      284.29113     -2124.9167      3840.7412      0.99696119
    541000  -1300.2796      216.0778      -1516.3574      284.27304     -1493.8282      3840.7412      0.99696119
    542000  -1293.8572      232.18701     -1526.0442      305.46639     -1075.3213      3840.7412      0.99696119
    543000  -1261.7165      232.19027     -1493.9068      305.47068      1020.5714      3840.7412      0.99696119
    544000  -1300.4998      221.72679     -1522.2266      291.70487     -428.52874      3840.7412      0.99696119
    545000  -1294.8485      221.47146     -1516.32        291.36896      71.568551      3840.7412      0.99696119
    546000  -1235.35        240.84414     -1476.1941      316.85575     -979.94433      3840.7412      0.99696119
    547000  -1313.1143      220.64389     -1533.7582      290.2802      -566.92189      3840.7412      0.99696119
    548000  -1299.9437      228.35968     -1528.3034      300.43114      371.23431      3840.7412      0.99696119
    549000  -1325.0844      211.56305     -1536.6474      278.33341     -46.741747      3840.7412      0.99696119
    550000  -1333.1316      209.83149     -1542.9631      276.05536      1215.336       3840.7412      0.99696119
    551000  -1325.2802      216.53474     -1541.8149      284.87418     -1351.3836      3840.7412      0.99696119
    552000  -1294.8656      225.34279     -1520.2084      296.4621      -1022.5496      3840.7412      0.99696119
    553000  -1338.8147      211.12388     -1549.9386      277.75563      666.91601      3840.7412      0.99696119
    554000  -1285.3181      227.6901      -1513.0082      299.55023      1306.4662      3840.7412      0.99696119
    555000  -1329.6291      218.34501     -1547.9741      287.25579     -1737.8552      3840.7412      0.99696119
    556000  -1287.9526      234.21688     -1522.1695      308.1369      -3373.746       3840.7412      0.99696119
    557000  -1275.564       223.02645     -1498.5905      293.41471     -355.82054      3840.7412      0.99696119
    558000  -1262.4821      232.52448     -1495.0065      305.91038     -168.89578      3840.7412      0.99696119
    559000  -1315.5544      224.59937     -1540.1538      295.48405      1521.4426      3840.7412      0.99696119
    560000  -1302.6648      223.09728     -1525.7621      293.5079       357.68455      3840.7412      0.99696119
    561000  -1312.7763      202.47205     -1515.2484      266.37324     -125.88826      3840.7412      0.99696119
    562000  -1311.4645      226.17543     -1537.6399      297.55753     -1657.8795      3840.7412      0.99696119
    563000  -1319.4629      208.09636     -1527.5592      273.77261     -36.008443      3840.7412      0.99696119
    564000  -1306.0716      209.37473     -1515.4464      275.45444     -170.61412      3840.7412      0.99696119
    565000  -1325.0936      211.98367     -1537.0773      278.88678     -868.15778      3840.7412      0.99696119
    566000  -1272.5726      238.0198      -1510.5924      313.14004      78.564786      3840.7412      0.99696119
    567000  -1307.8176      223.63424     -1531.4518      294.21433     -292.427        3840.7412      0.99696119
    568000  -1273.3599      238.38879     -1511.7487      313.62549     -1368.3108      3840.7412      0.99696119
    569000  -1285.8172      220.80997     -1506.6272      290.4987      -1042.5954      3840.7412      0.99696119
    570000  -1308.4974      220.56189     -1529.0592      290.17232     -64.100101      3840.7412      0.99696119
    571000  -1304.8677      207.27692     -1512.1447      272.69456     -1738.0332      3840.7412      0.99696119
    572000  -1290.4172      234.72005     -1525.1372      308.79888     -565.57563      3840.7412      0.99696119
    573000  -1281.187       231.38025     -1512.5673      304.40502     -385.00057      3840.7412      0.99696119
    574000  -1288.4994      233.61194     -1522.1114      307.34103      914.0394       3840.7412      0.99696119
    575000  -1290.9507      220.5851      -1511.5358      290.20286     -625.43996      3840.7412      0.99696119
    576000  -1329.2998      217.86001     -1547.1598      286.61772      1262.8046      3840.7412      0.99696119
    577000  -1281.0636      236.40831     -1517.4719      311.01995     -764.6898       3840.7412      0.99696119
    578000  -1301.4582      238.97274     -1540.431       314.39373      636.87317      3840.7412      0.99696119
    579000  -1280.7637      238.4284      -1519.1921      313.6776       937.77351      3840.7412      0.99696119
    580000  -1290.9368      234.73777     -1525.6745      308.82218      137.98763      3840.7412      0.99696119
    581000  -1339.3705      226.76229     -1566.1328      298.32961     -1503.0416      3840.7412      0.99696119
    582000  -1322.2146      221.35363     -1543.5682      291.21395      2169.5362      3840.7412      0.99696119
    583000  -1280.9301      255.01159     -1535.9417      335.49452     -1205.3101      3840.7412      0.99696119
    584000  -1313.9099      217.18682     -1531.0967      285.73207     -293.1274       3840.7412      0.99696119
    585000  -1275.0514      233.46807     -1508.5195      307.15176      1622.7542      3840.7412      0.99696119
    586000  -1263.8894      238.04044     -1501.9298      313.16719      3281.5497      3840.7412      0.99696119
    587000  -1306.266       234.32575     -1540.5918      308.28013     -217.23314      3840.7412      0.99696119
    588000  -1312.1896      236.31542     -1548.505       310.89776      634.94205      3840.7412      0.99696119
    589000  -1290.6147      222.12751     -1512.7422      292.23206     -237.06018      3840.7412      0.99696119
    590000  -1284.296       239.60726     -1523.9032      315.22851      250.68944      3840.7412      0.99696119
    591000  -1287.7371      223.30921     -1511.0463      293.78672      942.4741       3840.7412      0.99696119
    592000  -1314.6213      247.50488     -1562.1262      325.61867      420.03387      3840.7412      0.99696119
    593000  -1340.7714      223.43203     -1564.2034      293.9483       1518.0212      3840.7412      0.99696119
    594000  -1318.1535      213.88958     -1532.0431      281.3942      -317.8134       3840.7412      0.99696119
    595000  -1347.3801      222.52966     -1569.9097      292.76113      490.31284      3840.7412      0.99696119
    596000  -1343.1016      223.47559     -1566.5772      294.0056       508.87329      3840.7412      0.99696119
    597000  -1305.3548      210.92146     -1516.2762      277.48933     -1919.9264      3840.7412      0.99696119
    598000  -1327.3981      210.58317     -1537.9813      277.04427      49.285568      3840.7412      0.99696119
    599000  -1290.3614      228.16465     -1518.5261      300.17455      661.48807      3840.7412      0.99696119
    600000  -1304.8125      232.49297     -1537.3054      305.86891     -2253.0218      3840.7412      0.99696119
    601000  -1285.0517      233.67805     -1518.7297      307.42802     -1033.1831      3840.7412      0.99696119
    602000  -1278.5095      231.11176     -1509.6212      304.05179     -734.64353      3840.7412      0.99696119
    603000  -1324.0472      205.33279     -1529.38        270.13685      1425.6827      3840.7412      0.99696119
    604000  -1304.3824      236.08402     -1540.4664      310.59332     -146.2606       3840.7412      0.99696119
    605000  -1285.2489      227.74826     -1512.9972      299.62676      74.69977       3840.7412      0.99696119
    606000  -1271.3348      229.12944     -1500.4642      301.44384     -954.61539      3840.7412      0.99696119
    607000  -1329.4119      207.16938     -1536.5813      272.55308     -586.5251       3840.7412      0.99696119
    608000  -1298.4057      216.79402     -1515.1997      285.2153      -1889.7396      3840.7412      0.99696119
    609000  -1259.3376      234.49296     -1493.8306      308.50012     -388.55819      3840.7412      0.99696119
    610000  -1305.213       211.24484     -1516.4578      277.91477     -1183.6624      3840.7412      0.99696119
    611000  -1265.6052      242.06726     -1507.6725      318.4649       2590.3751      3840.7412      0.99696119
    612000  -1240.9276      245.43128     -1486.3589      322.89062      1583.4712      3840.7412      0.99696119
    613000  -1281.059       233.49903     -1514.558       307.19249      1892.336       3840.7412      0.99696119
    614000  -1313.4359      212.88411     -1526.32        280.07141      1171.8775      3840.7412      0.99696119
    615000  -1285.3375      227.83284     -1513.1703      299.73802      732.11263      3840.7412      0.99696119
    616000  -1311.9063      200.90018     -1512.8065      264.30528     -634.32745      3840.7412      0.99696119
    617000  -1297.5867      235.62367     -1533.2103      309.98767      505.76813      3840.7412      0.99696119
    618000  -1308.9461      205.38182     -1514.3279      270.20136     -238.61702      3840.7412      0.99696119
    619000  -1271.9646      229.56763     -1501.5322      302.02032     -1078.4312      3840.7412      0.99696119
    620000  -1308.3519      223.19791     -1531.5498      293.64029     -1382.7189      3840.7412      0.99696119
    621000  -1271.8112      227.86703     -1499.6782      299.783       -1000.5054      3840.7412      0.99696119
    622000  -1313.3794      218.58079     -1531.9602      287.56598      53.378618      3840.7412      0.99696119
    623000  -1305.9582      221.79748     -1527.7557      291.79787     -1383.7429      3840.7412      0.99696119
    624000  -1267.7466      237.55659     -1505.3032      312.53064      9.0292353      3840.7412      0.99696119
    625000  -1279.6116      225.60912     -1505.2207      296.81249     -1007.2496      3840.7412      0.99696119
    626000  -1308.0406      216.3812      -1524.4218      284.67219     -456.60379      3840.7412      0.99696119
    627000  -1287.1807      228.96131     -1516.142       301.22264      412.77006      3840.7412      0.99696119
    628000  -1299.164       228.99272     -1528.1567      301.26398      320.42212      3840.7412      0.99696119
    629000  -1304.1477      211.19937     -1515.347       277.85495     -1280.0124      3840.7412      0.99696119
    630000  -1314.0614      215.05544     -1529.1169      282.92802     -59.721124      3840.7412      0.99696119
    631000  -1294.0786      231.7388      -1525.8174      304.87673      2000.4142      3840.7412      0.99696119
    632000  -1307.5553      220.09266     -1527.6479      289.55501     -1125.1689      3840.7412      0.99696119
    633000  -1318.9877      224.88026     -1543.8679      295.8536      -11.586953      3840.7412      0.99696119
    634000  -1312.1399      220.72605     -1532.866       290.38829     -587.27721      3840.7412      0.99696119
    635000  -1297.934       233.32142     -1531.2554      306.95883     -307.58914      3840.7412      0.99696119
    636000  -1282.3201      225.40865     -1507.7287      296.54875     -2666.5906      3840.7412      0.99696119
    637000  -1273.5297      237.00187     -1510.5316      311.80085     -2484.9268      3840.7412      0.99696119
    638000  -1325.9967      203.12087     -1529.1175      267.22683     -1125.4482      3840.7412      0.99696119
    639000  -1319.1824      230.42526     -1549.6076      303.14863     -1403.8887      3840.7412      0.99696119
    640000  -1274.9973      224.40524     -1499.4025      295.22866      1941.7557      3840.7412      0.99696119
    641000  -1320.5427      214.32695     -1534.8697      281.9696      -1734.611       3840.7412      0.99696119
    642000  -1255.0516      229.26024     -1484.3118      301.61592     -101.22913      3840.7412      0.99696119
    643000  -1315.2783      222.87954     -1538.1579      293.22144     -1229.855       3840.7412      0.99696119
    644000  -1293.8652      227.59508     -1521.4603      299.42523     -341.2602       3840.7412      0.99696119
    645000  -1312.0061      209.49545     -1521.5015      275.61327     -895.46553      3840.7412      0.99696119
    646000  -1252.8235      246.17652     -1499           323.87106      783.87207      3840.7412      0.99696119
    647000  -1237.2747      207.21736     -1444.4921      272.6162       543.95449      3840.7412      0.99696119
    648000  -1288.1654      232.38431     -1520.5497      305.72596     -797.46738      3840.7412      0.99696119
    649000  -1286.5573      222.88383     -1509.4411      293.22708      1484.5047      3840.7412      0.99696119
    650000  -1325.4672      215.8624      -1541.3296      283.98966     -524.13288      3840.7412      0.99696119
    651000  -1284.2693      224.81492     -1509.0842      295.76763     -839.30449      3840.7412      0.99696119
    652000  -1309.4228      219.59644     -1529.0192      288.90218      32.5548        3840.7412      0.99696119
    653000  -1282.8276      231.23235     -1514.06        304.21044     -935.5615       3840.7412      0.99696119
    654000  -1241.4011      236.72773     -1478.1288      311.44019     -2425.8716      3840.7412      0.99696119
    655000  -1268.1766      240.46383     -1508.6405      316.35541      865.00767      3840.7412      0.99696119
    656000  -1288.2982      228.46036     -1516.7586      300.56359      1076.9721      3840.7412      0.99696119
    657000  -1251.4604      233.48047     -1484.9408      307.16808     -788.67804      3840.7412      0.99696119
    658000  -1279.074       250.55103     -1529.625       329.62618     -175.58301      3840.7412      0.99696119
    659000  -1328.2279      220.45213     -1548.68        290.02793      729.15013      3840.7412      0.99696119
    660000  -1302.4823      213.46515     -1515.9474      280.83582     -326.11552      3840.7412      0.99696119
    661000  -1287.2572      226.43168     -1513.6889      297.89465     -992.1922       3840.7412      0.99696119
    662000  -1342.4277      192.87373     -1535.3014      253.74565      446.37296      3840.7412      0.99696119
    663000  -1289.8859      223.39347     -1513.2794      293.89756     -334.82872      3840.7412      0.99696119
    664000  -1247.3282      238.694       -1486.0222      314.02703     -1220.6172      3840.7412      0.99696119
    665000  -1268.0803      235.55336     -1503.6337      309.89518      1384.1122      3840.7412      0.99696119
    666000  -1304.3621      229.1055      -1533.4676      301.41234      1144.8906      3840.7412      0.99696119
    667000  -1304.9097      223.92436     -1528.8341      294.59601      76.056117      3840.7412      0.99696119
    668000  -1313.6016      244.3161      -1557.9177      321.42349     -132.61659      3840.7412      0.99696119
    669000  -1339.4326      228.02318     -1567.4557      299.98843     -70.025241      3840.7412      0.99696119
    670000  -1318.6215      213.0495      -1531.671       280.28899     -75.367257      3840.7412      0.99696119
    671000  -1286.3934      222.83815     -1509.2315      293.16699      1020.7253      3840.7412      0.99696119
    672000  -1280.2566      220.61778     -1500.8744      290.24585     -522.9836       3840.7412      0.99696119
    673000  -1310.0836      219.11836     -1529.202       288.27321      703.84323      3840.7412      0.99696119
    674000  -1281.3152      223.68431     -1504.9996      294.2802       2798.1413      3840.7412      0.99696119
    675000  -1335.3699      216.45828     -1551.8281      284.7736       2465.617       3840.7412      0.99696119
    676000  -1298.7455      232.83899     -1531.5845      306.32414     -327.65336      3840.7412      0.99696119
    677000  -1313.3081      216.00122     -1529.3093      284.17229     -1861.7746      3840.7412      0.99696119
    678000  -1299.96        228.91207     -1528.8721      301.15786     -1062.5415      3840.7412      0.99696119
    679000  -1293.3477      230.49975     -1523.8474      303.24662     -1521.3649      3840.7412      0.99696119
    680000  -1279.2608      238.33336     -1517.5942      313.55257     -157.76215      3840.7412      0.99696119
    681000  -1285.233       244.33839     -1529.5714      321.4528       1819.0323      3840.7412      0.99696119
    682000  -1275.6406      240.34834     -1515.9889      316.20348      1221.3396      3840.7412      0.99696119
    683000  -1303.4216      236.9293      -1540.3509      311.70537      17.874512      3840.7412      0.99696119
    684000  -1318.6614      246.58301     -1565.2445      324.40585      605.98411      3840.7412      0.99696119
    685000  -1296.4625      230.46503     -1526.9275      303.20094     -82.909733      3840.7412      0.99696119
    686000  -1320.3582      214.66961     -1535.0278      282.42042     -358.37343      3840.7412      0.99696119
    687000  -1286.9415      216.93279     -1503.8743      285.39786      3148.206       3840.7412      0.99696119
    688000  -1303.4612      220.53732     -1523.9985      290.14         1483.1271      3840.7412      0.99696119
    689000  -1316.2533      214.65539     -1530.9087      282.40171     -1499.7681      3840.7412      0.99696119
    690000  -1284.9527      226.5505      -1511.5032      298.05097     -537.37662      3840.7412      0.99696119
    691000  -1297.9885      219.54193     -1517.5304      288.83046     -901.97969      3840.7412      0.99696119
    692000  -1310.5968      215.96499     -1526.5618      284.12462      917.55928      3840.7412      0.99696119
    693000  -1299.3138      223.08249     -1522.3963      293.48844      176.3126       3840.7412      0.99696119
    694000  -1288.6848      229.97729     -1518.6621      302.55928     -580.86727      3840.7412      0.99696119
    695000  -1312.7213      228.56077     -1541.282       300.6957       1887.7367      3840.7412      0.99696119
    696000  -1296.4488      227.52353     -1523.9723      299.3311      -783.78889      3840.7412      0.99696119
    697000  -1326.8321      232.08263     -1558.9148      305.32907     -472.69441      3840.7412      0.99696119
    698000  -1304.5616      205.20537     -1509.767       269.96921     -1127.2036      3840.7412      0.99696119
    699000  -1302.5155      209.07831     -1511.5938      275.06447      303.85729      3840.7412      0.99696119
    700000  -1281.4864      212.8939      -1494.3803      280.08428     -1899.8352      3840.7412      0.99696119
    701000  -1313.7374      212.69372     -1526.4311      279.82092     -828.3908       3840.7412      0.99696119
    702000  -1274.9724      228.73089     -1503.7033      300.91951      771.64232      3840.7412      0.99696119
    703000  -1325.6967      193.63448     -1519.3312      254.74649     -1710.6574      3840.7412      0.99696119
    704000  -1314.3463      217.93382     -1532.2801      286.71482     -1199.4425      3840.7412      0.99696119
    705000  -1298.9757      247.98782     -1546.9635      326.25402     -1044.9604      3840.7412      0.99696119
    706000  -1313.7376      214.10518     -1527.8428      281.67785      1220.7237      3840.7412      0.99696119
    707000  -1334.4653      213.37018     -1547.8355      280.71088      250.64662      3840.7412      0.99696119
    708000  -1312.3049      208.24639     -1520.5513      273.96999     -1774.0469      3840.7412      0.99696119
    709000  -1288.9355      227.51578     -1516.4513      299.3209      -632.80039      3840.7412      0.99696119
    710000  -1246.3548      247.50295     -1493.8578      325.61612      1666.2172      3840.7412      0.99696119
    711000  -1316.8499      227.66541     -1544.5153      299.51776      501.40089      3840.7412      0.99696119
    712000  -1299.9857      225.8966      -1525.8823      297.1907      -675.14433      3840.7412      0.99696119
    713000  -1251.198       238.71653     -1489.9146      314.05667     -1218.8157      3840.7412      0.99696119
    714000  -1289.1527      219.13441     -1508.2872      288.29433      290.81916      3840.7412      0.99696119
    715000  -1271.6554      230.81039     -1502.4658      303.6553      -1437.412       3840.7412      0.99696119
    716000  -1282.8883      241.0604      -1523.9487      317.14027      426.63291      3840.7412      0.99696119
    717000  -1290.3504      217.61753     -1507.968       286.29872     -659.89123      3840.7412      0.99696119
    718000  -1331.3355      214.90616     -1546.2417      282.73162     -516.29929      3840.7412      0.99696119
    719000  -1328.2236      222.10286     -1550.3265      292.19963     -410.3157       3840.7412      0.99696119
    720000  -1301.8443      229.74078     -1531.5851      302.24812      745.02227      3840.7412      0.99696119
    721000  -1273.1819      222.80807     -1495.99        293.12741     -794.28998      3840.7412      0.99696119
    722000  -1283.3139      216.28084     -1499.5947      284.54015     -494.15186      3840.7412      0.99696119
    723000  -1276.2981      232.22842     -1508.5266      305.52087      497.71045      3840.7412      0.99696119
    724000  -1294.0008      250.93096     -1544.9318      330.12603     -327.70218      3840.7412      0.99696119
    725000  -1222.3906      241.41061     -1463.8012      317.601        413.63687      3840.7412      0.99696119
    726000  -1288.7946      226.42897     -1515.2236      297.89108     -212.29305      3840.7412      0.99696119
    727000  -1319.8938      202.47157     -1522.3653      266.37261     -360.95397      3840.7412      0.99696119
    728000  -1343.975       221.00669     -1564.9817      290.7575      -382.92974      3840.7412      0.99696119
    729000  -1273.1577      220.21723     -1493.3749      289.71889      12.531809      3840.7412      0.99696119
    730000  -1312.533       202.89315     -1515.4262      266.92725     -2243.2619      3840.7412      0.99696119
    731000  -1248.8174      243.75354     -1492.571       320.68338     -705.82965      3840.7412      0.99696119
    732000  -1268.4041      232.56584     -1500.97        305.96478     -1138.9189      3840.7412      0.99696119
    733000  -1283.5164      237.70464     -1521.221       312.72541     -1532.5267      3840.7412      0.99696119
    734000  -1303.2356      217.4066      -1520.6422      286.02122      653.26115      3840.7412      0.99696119
    735000  -1280.763       230.00528     -1510.7683      302.5961       1529.9297      3840.7412      0.99696119
    736000  -1276.0322      224.76619     -1500.7984      295.70352      304.21243      3840.7412      0.99696119
    737000  -1284.2815      233.57056     -1517.8521      307.2866      -1457.9196      3840.7412      0.99696119
    738000  -1307.037       213.11078     -1520.1478      280.36961     -447.35212      3840.7412      0.99696119
    739000  -1311.8079      196.39289     -1508.2008      258.37548      925.66334      3840.7412      0.99696119
    740000  -1301.4962      218.64591     -1520.1421      287.65165     -276.45762      3840.7412      0.99696119
    741000  -1275.8308      234.10723     -1509.938       307.99265     -555.191        3840.7412      0.99696119
    742000  -1295.5171      230.72598     -1526.2431      303.54425      1613.6066      3840.7412      0.99696119
    743000  -1274.3689      223.89248     -1498.2614      294.55407      1011.7009      3840.7412      0.99696119
    744000  -1302.5954      236.97478     -1539.5702      311.76521     -389.92449      3840.7412      0.99696119
    745000  -1303.8142      215.29969     -1519.1139      283.24935      769.15967      3840.7412      0.99696119
    746000  -1277.5444      240.02139     -1517.5658      315.77335     -113.12151      3840.7412      0.99696119
    747000  -1258.1004      219.96513     -1478.0655      289.38723      948.35563      3840.7412      0.99696119
    748000  -1219.4423      237.8503      -1457.2926      312.91705      2357.3924      3840.7412      0.99696119
    749000  -1294.9136      242.24397     -1537.1575      318.69738      487.1636       3840.7412      0.99696119
    750000  -1323.0316      224.33995     -1547.3716      295.14277     -771.91573      3840.7412      0.99696119
    751000  -1284.7205      227.59306     -1512.3135      299.42257      1337.8857      3840.7412      0.99696119
    752000  -1293.0908      223.1108      -1516.2016      293.52568      737.91335      3840.7412      0.99696119
    753000  -1304.0025      215.52701     -1519.5295      283.54842      220.71941      3840.7412      0.99696119
    754000  -1282.2238      218.25183     -1500.4757      287.13319      380.11861      3840.7412      0.99696119
    755000  -1293.2469      242.85952     -1536.1064      319.5072      -1222.5717      3840.7412      0.99696119
    756000  -1326.5433      232.81365     -1559.3569      306.2908      -948.04873      3840.7412      0.99696119
    757000  -1308.6484      216.55195     -1525.2004      284.89683      778.55044      3840.7412      0.99696119
    758000  -1284.9234      225.2471      -1510.1705      296.33621      1376.5065      3840.7412      0.99696119
    759000  -1281.0614      227.68236     -1508.7438      299.54005     -2198.0179      3840.7412      0.99696119
    760000  -1265.8482      233.90341     -1499.7517      307.7245      -1416.3805      3840.7412      0.99696119
    761000  -1297.9057      247.57224     -1545.4779      325.70728     -111.67196      3840.7412      0.99696119
    762000  -1311.1549      234.61073     -1545.7657      308.65505     -404.95953      3840.7412      0.99696119
    763000  -1265.2798      253.25021     -1518.53        333.17724     -591.22941      3840.7412      0.99696119
    764000  -1290.5652      244.82512     -1535.3903      322.09316     -639.68785      3840.7412      0.99696119
    765000  -1342.0425      205.0984      -1547.1409      269.82849      22.925306      3840.7412      0.99696119
    766000  -1299.1018      240.61917     -1539.7209      316.55979      196.15585      3840.7412      0.99696119
    767000  -1257.2007      230.72055     -1487.9213      303.53711     -487.80005      3840.7412      0.99696119
    768000  -1301.5457      229.68732     -1531.233       302.17778      118.05139      3840.7412      0.99696119
    769000  -1354.0083      212.37071     -1566.379       279.39596      709.83477      3840.7412      0.99696119
    770000  -1305.9097      214.10236     -1520.0121      281.67414      1452.3838      3840.7412      0.99696119
    771000  -1280.0934      236.07189     -1516.1653      310.57736      572.29198      3840.7412      0.99696119
    772000  -1250.8747      240.60882     -1491.4835      316.54617     -130.37131      3840.7412      0.99696119
    773000  -1305.8296      206.1354      -1511.965       271.19277     -560.23637      3840.7412      0.99696119
    774000  -1341.3505      224.35265     -1565.7032      295.15947     -2234.3992      3840.7412      0.99696119
    775000  -1323.3953      226.45361     -1549.8489      297.9235      -168.82464      3840.7412      0.99696119
    776000  -1291.5895      240.21867     -1531.8082      316.03288     -792.87365      3840.7412      0.99696119
    777000  -1282.9368      241.88961     -1524.8264      318.23118      1232.046       3840.7412      0.99696119
    778000  -1299.9895      211.56046     -1511.55        278.33        -130.84658      3840.7412      0.99696119
    779000  -1277.5326      233.87279     -1511.4053      307.68421     -46.399162      3840.7412      0.99696119
    780000  -1268.4253      221.97216     -1490.3975      292.02768     -1551.1554      3840.7412      0.99696119
    781000  -1290.1904      226.65082     -1516.8412      298.18295     -616.0341       3840.7412      0.99696119
    782000  -1304.0107      234.23177     -1538.2425      308.15648     -1987.4275      3840.7412      0.99696119
    783000  -1289.0349      217.55113     -1506.586       286.21135     -270.63176      3840.7412      0.99696119
    784000  -1321.052       215.7094      -1536.7614      283.78837     -1180.7984      3840.7412      0.99696119
    785000  -1285.9798      245.7519      -1531.7317      323.31243      530.30492      3840.7412      0.99696119
    786000  -1319.0081      211.39372     -1530.4018      278.11064      598.04376      3840.7412      0.99696119
    787000  -1270.8099      255.82396     -1526.6338      336.56329      1026.0525      3840.7412      0.99696119
    788000  -1309.8397      208.83877     -1518.6784      274.74933      584.98141      3840.7412      0.99696119
    789000  -1276.0698      221.75633     -1497.8261      291.74374      1099.2314      3840.7412      0.99696119
    790000  -1274.7797      239.48131     -1514.261       315.06281     -496.69602      3840.7412      0.99696119
    791000  -1282.6318      221.65299     -1504.2848      291.60778      1656.738       3840.7412      0.99696119
    792000  -1278.4428      245.04618     -1523.489       322.38398     -1477.2786      3840.7412      0.99696119
    793000  -1296.5112      223.40767     -1519.9189      293.91625     -1105.763       3840.7412      0.99696119
    794000  -1295.0073      222.60707     -1517.6143      292.86298      576.46331      3840.7412      0.99696119
    795000  -1298.4557      231.06653     -1529.5222      303.99228     -984.83798      3840.7412      0.99696119
    796000  -1308.4753      217.60907     -1526.0844      286.28758      2582.4853      3840.7412      0.99696119
    797000  -1298.1839      228.92613     -1527.1101      301.17636      155.38988      3840.7412      0.99696119
    798000  -1264.5849      230.90568     -1495.4906      303.78067      556.33054      3840.7412      0.99696119
    799000  -1293.7437      217.666       -1511.4097      286.36247     -590.91715      3840.7412      0.99696119
    800000  -1261.5113      231.15085     -1492.6622      304.10321     -728.35681      3840.7412      0.99696119
    801000  -1312.2058      218.04201     -1530.2478      286.85717     -1851.1804      3840.7412      0.99696119
    802000  -1307.9147      211.0697      -1518.9844      277.68435     -1297.3336      3840.7412      0.99696119
    803000  -1285.0684      222.6814      -1507.7498      292.96076     -148.27137      3840.7412      0.99696119
    804000  -1261.0735      245.03148     -1506.1049      322.36464     -1544.6571      3840.7412      0.99696119
    805000  -1280.4809      231.8046      -1512.2855      304.96329      600.6303       3840.7412      0.99696119
    806000  -1313.4377      206.67958     -1520.1173      271.90869      170.43412      3840.7412      0.99696119
    807000  -1304.8572      213.27699     -1518.1342      280.58828     -771.31064      3840.7412      0.99696119
    808000  -1261.6351      221.07214     -1482.7072      290.84361     -331.46094      3840.7412      0.99696119
    809000  -1312.0893      223.90256     -1535.9919      294.56734     -55.210842      3840.7412      0.99696119
    810000  -1268.7791      235.44753     -1504.2267      309.75596     -1025.5897      3840.7412      0.99696119
    811000  -1243.8052      250.15179     -1493.957       329.10095     -1287.0036      3840.7412      0.99696119
    812000  -1298.5091      230.10662     -1528.6157      302.72942      159.16026      3840.7412      0.99696119
    813000  -1276.5958      241.87904     -1518.4748      318.21727     -326.54587      3840.7412      0.99696119
    814000  -1288.15        228.66489     -1516.8149      300.83267     -679.51965      3840.7412      0.99696119
    815000  -1315.262       231.33634     -1546.5983      304.34725      1326.9642      3840.7412      0.99696119
    816000  -1290.859       233.20338     -1524.0623      306.80353      106.54217      3840.7412      0.99696119
    817000  -1282.7239      215.92616     -1498.65        284.07354     -34.961007      3840.7412      0.99696119
    818000  -1272.3651      220.59178     -1492.9569      290.21165     -963.02545      3840.7412      0.99696119
    819000  -1299.5777      218.51265     -1518.0903      287.47634     -312.76682      3840.7412      0.99696119
    820000  -1287.1988      232.35766     -1519.5564      305.6909      -173.42186      3840.7412      0.99696119
    821000  -1267.0591      239.57904     -1506.6382      315.19139     -461.04146      3840.7412      0.99696119
    822000  -1313.884       230.29883     -1544.1828      302.9823      -947.31143      3840.7412      0.99696119
    823000  -1310.7857      212.82798     -1523.6137      279.99756     -363.30514      3840.7412      0.99696119
    824000  -1268.2383      242.61683     -1510.8551      319.18792     -85.317996      3840.7412      0.99696119
    825000  -1303.9863      218.70314     -1522.6895      287.72695     -186.06287      3840.7412      0.99696119
    826000  -1276.8869      222.49918     -1499.3861      292.72103     -1163.9692      3840.7412      0.99696119
    827000  -1277.42        240.04666     -1517.4667      315.80659     -497.67219      3840.7412      0.99696119
    828000  -1293.7449      220.8772      -1514.6221      290.58715     -559.38916      3840.7412      0.99696119
    829000  -1305.8208      218.62227     -1524.4431      287.62055     -487.0073       3840.7412      0.99696119
    830000  -1283.4777      226.58901     -1510.0667      298.10164     -565.1595       3840.7412      0.99696119
    831000  -1261.567       215.9738      -1477.5409      284.13622     -906.15292      3840.7412      0.99696119
    832000  -1271.8995      226.29138     -1498.1909      297.71007     -1216.0735      3840.7412      0.99696119
    833000  -1282.2362      227.06595     -1509.3021      298.7291       315.2484       3840.7412      0.99696119
    834000  -1290.6825      249.89951     -1540.582       328.76905      802.70664      3840.7412      0.99696119
    835000  -1297.4562      230.76314     -1528.2193      303.59315      145.21823      3840.7412      0.99696119
    836000  -1260.5837      233.16121     -1493.7449      306.74806     -512.79705      3840.7412      0.99696119
    837000  -1282.6146      237.02634     -1519.6409      311.83304      419.04213      3840.7412      0.99696119
    838000  -1293.1015      222.0396      -1515.1411      292.11641     -1376.9995      3840.7412      0.99696119
    839000  -1280.7892      229.98536     -1510.7746      302.56989     -1223.7448      3840.7412      0.99696119
    840000  -1279.2658      220.19583     -1499.4616      289.69073     -581.17605      3840.7412      0.99696119
    841000  -1308.1219      222.7307      -1530.8526      293.02562      346.87503      3840.7412      0.99696119
    842000  -1301.2848      224.48838     -1525.7732      295.33804      1224.6018      3840.7412      0.99696119
    843000  -1346.1921      206.8103      -1553.0024      272.08066     -1843.8423      3840.7412      0.99696119
    844000  -1298.0522      245.82098     -1543.8732      323.40331      546.61576      3840.7412      0.99696119
    845000  -1337.3743      218.24188     -1555.6162      287.12011     -158.8299       3840.7412      0.99696119
    846000  -1312.5157      238.59635     -1551.112       313.89856      1107.4291      3840.7412      0.99696119
    847000  -1296.8833      250.72653     -1547.6098      329.85707      11.230027      3840.7412      0.99696119
    848000  -1339.755       234.48269     -1574.2377      308.4866       111.11057      3840.7412      0.99696119
    849000  -1315.0382      220.97944     -1536.0177      290.72165     -162.17164      3840.7412      0.99696119
    850000  -1305.1457      228.47832     -1533.624       300.58722     -1608.837       3840.7412      0.99696119
    851000  -1282.5181      238.80554     -1521.3236      314.17376      353.85868      3840.7412      0.99696119
    852000  -1288.5764      243.93362     -1532.5101      320.92029      787.21072      3840.7412      0.99696119
    853000  -1277.4555      223.43487     -1500.8904      293.95204     -705.16396      3840.7412      0.99696119
    854000  -1275.2401      222.26224     -1497.5023      292.40931     -445.48204      3840.7412      0.99696119
    855000  -1286.7786      228.15263     -1514.9313      300.15875      848.69846      3840.7412      0.99696119
    856000  -1289.7989      221.08215     -1510.881       290.85678     -473.21037      3840.7412      0.99696119
    857000  -1271.4226      222.96631     -1494.3889      293.33559     -303.93264      3840.7412      0.99696119
    858000  -1280.4217      230.20877     -1510.6304      302.86381     -2508.4718      3840.7412      0.99696119
    859000  -1284.3564      218.42815     -1502.7846      287.36517      644.9802       3840.7412      0.99696119
    860000  -1247.3657      252.8158      -1500.1815      332.60574      3130.069       3840.7412      0.99696119
    861000  -1310.6272      209.92612     -1520.5533      276.17986      1572.2581      3840.7412      0.99696119
    862000  -1281.985       241.60148     -1523.5865      317.85212     -1128.8162      3840.7412      0.99696119
    863000  -1288.3483      220.79965     -1509.148       290.48513     -523.94294      3840.7412      0.99696119
    864000  -1235.4936      238.75865     -1474.2523      314.11207     -755.51854      3840.7412      0.99696119
    865000  -1265.3709      227.44262     -1492.8136      299.22465      2086.4395      3840.7412      0.99696119
    866000  -1239.9722      238.45246     -1478.4247      313.70925      77.484606      3840.7412      0.99696119
    867000  -1282.3026      235.68815     -1517.9908      310.07251      1528.4827      3840.7412      0.99696119
    868000  -1305.7562      224.72431     -1530.4805      295.64843     -971.4121       3840.7412      0.99696119
    869000  -1285.0925      233.7967      -1518.8892      307.58411      1220.3604      3840.7412      0.99696119
    870000  -1287.0373      234.52208     -1521.5593      308.53842     -403.55314      3840.7412      0.99696119
    871000  -1286.1996      235.53203     -1521.7316      309.86712      27.847335      3840.7412      0.99696119
    872000  -1299.0314      212.01472     -1511.0461      278.92763     -266.85274      3840.7412      0.99696119
    873000  -1298.3622      225.48743     -1523.8496      296.65239     -701.31537      3840.7412      0.99696119
    874000  -1336.2269      227.10469     -1563.3316      298.78007     -1508.1017      3840.7412      0.99696119
    875000  -1312.8571      239.98706     -1552.8442      315.72818     -695.56097      3840.7412      0.99696119
    876000  -1333.2065      225.04242     -1558.2489      296.06693      144.39727      3840.7412      0.99696119
    877000  -1310.7296      218.79425     -1529.5239      287.84681     -1514.2418      3840.7412      0.99696119
    878000  -1342.5746      204.00472     -1546.5793      268.38963     -1335.3966      3840.7412      0.99696119
    879000  -1341.5948      209.08542     -1550.6802      275.07383     -1423.4694      3840.7412      0.99696119
    880000  -1276.1816      241.91038     -1518.0919      318.2585      -364.26839      3840.7412      0.99696119
    881000  -1307.1692      225.5619      -1532.7311      296.75036      174.65402      3840.7412      0.99696119
    882000  -1308.0004      237.13954     -1545.1399      311.98197     -359.20844      3840.7412      0.99696119
    883000  -1308.7751      209.02234     -1517.7975      274.99084     -382.91309      3840.7412      0.99696119
    884000  -1286.6176      221.07465     -1507.6923      290.84691      669.81611      3840.7412      0.99696119
    885000  -1306.4846      227.07904     -1533.5637      298.74632      1494.3661      3840.7412      0.99696119
    886000  -1310.2416      225.69784     -1535.9395      296.92921      1563.0074      3840.7412      0.99696119
    887000  -1261.7711      254.54413     -1516.3152      334.87953     -1702.1325      3840.7412      0.99696119
    888000  -1280.5248      228.66585     -1509.1907      300.83394     -76.797299      3840.7412      0.99696119
    889000  -1278.3102      230.64171     -1508.952       303.43339     -646.13508      3840.7412      0.99696119
    890000  -1307.5157      228.11054     -1535.6262      300.10337     -137.36395      3840.7412      0.99696119
    891000  -1283.8876      226.73743     -1510.625       298.29689     -332.5736       3840.7412      0.99696119
    892000  -1265.146       238.45485     -1503.6008      313.7124       1043.7149      3840.7412      0.99696119
    893000  -1309.5789      226.77133     -1536.3503      298.3415       223.65595      3840.7412      0.99696119
    894000  -1297.7342      231.32813     -1529.0623      304.33645     -648.4985       3840.7412      0.99696119
    895000  -1306.0616      226.55008     -1532.6117      298.05042      571.04441      3840.7412      0.99696119
    896000  -1325.0896      230.49663     -1555.5863      303.24253     -1260.0848      3840.7412      0.99696119
    897000  -1336.4254      218.11388     -1554.5393      286.95171     -1062.2481      3840.7412      0.99696119
    898000  -1297.985       225.98668     -1523.9717      297.3092      -68.647338      3840.7412      0.99696119
    899000  -1341.4734      206.04179     -1547.5152      271.06962      1258.25        3840.7412      0.99696119
    900000  -1283.4487      232.24094     -1515.6897      305.53735      2181.5239      3840.7412      0.99696119
    901000  -1299.3266      244.13572     -1543.4623      321.18618     -1819.0854      3840.7412      0.99696119
    902000  -1327.1948      213.7964      -1540.9912      281.27162     -162.14553      3840.7412      0.99696119
    903000  -1288.1107      235.09538     -1523.2061      309.29266      1947.6047      3840.7412      0.99696119
    904000  -1299.2419      221.22668     -1520.4686      291.04693      2083.1972      3840.7412      0.99696119
    905000  -1298.9839      223.80491     -1522.7888      294.43886      416.81854      3840.7412      0.99696119
    906000  -1291.601       224.94029     -1516.5413      295.93257      906.25335      3840.7412      0.99696119
    907000  -1318.2349      214.21795     -1532.4528      281.8262      -16.946691      3840.7412      0.99696119
    908000  -1312.9189      226.68098     -1539.5999      298.22264     -833.71802      3840.7412      0.99696119
    909000  -1282.8949      233.33222     -1516.2272      306.97304     -173.3418       3840.7412      0.99696119
    910000  -1301.3932      222.35643     -1523.7496      292.53324      851.37576      3840.7412      0.99696119
    911000  -1274.0721      239.47916     -1513.5512      315.05998      805.45745      3840.7412      0.99696119
    912000  -1293.1964      220.8303      -1514.0267      290.52545     -65.743602      3840.7412      0.99696119
    913000  -1279.3793      214.27199     -1493.6513      281.89731     -1396.8357      3840.7412      0.99696119
    914000  -1308.3004      224.55855     -1532.859       295.43036      677.83729      3840.7412      0.99696119
    915000  -1287.3732      218.51495     -1505.8881      287.47936     -1850.934       3840.7412      0.99696119
    916000  -1312.6153      214.12091     -1526.7362      281.69855      546.44083      3840.7412      0.99696119
    917000  -1301.4865      226.00214     -1527.4886      297.32955      732.14878      3840.7412      0.99696119
    918000  -1281.5699      222.32018     -1503.8901      292.48554      844.43239      3840.7412      0.99696119
    919000  -1292.8707      224.34018     -1517.2108      295.14307      903.3586       3840.7412      0.99696119
    920000  -1263.2687      227.49445     -1490.7631      299.29283     -1641.4182      3840.7412      0.99696119
    921000  -1264.9461      224.86502     -1489.8111      295.83355      225.49884      3840.7412      0.99696119
    922000  -1314.8331      207.19243     -1522.0255      272.58339     -1012.3302      3840.7412      0.99696119
    923000  -1323.2834      208.19618     -1531.4796      273.90394     -210.33711      3840.7412      0.99696119
    924000  -1271.4327      237.95863     -1509.3913      313.05957     -164.66359      3840.7412      0.99696119
    925000  -1253.3388      225.11295     -1478.4517      296.15972      924.13591      3840.7412      0.99696119
    926000  -1308.11        225.43872     -1533.5487      296.5883       756.72607      3840.7412      0.99696119
    927000  -1262.6417      241.62722     -1504.269       317.88597     -2079.9788      3840.7412      0.99696119
    928000  -1279.6392      224.84559     -1504.4848      295.80798      164.44998      3840.7412      0.99696119
    929000  -1303.6929      201.8133      -1505.5062      265.50659     -731.00814      3840.7412      0.99696119
    930000  -1279.3718      246.91457     -1526.2864      324.84205      421.26231      3840.7412      0.99696119
    931000  -1296.7654      223.93281     -1520.6982      294.60713     -573.3454       3840.7412      0.99696119
    932000  -1299.4158      226.23662     -1525.6524      297.63803      1533.161       3840.7412      0.99696119
    933000  -1267.0036      249.24531     -1516.2489      327.90838      197.00595      3840.7412      0.99696119
    934000  -1317.5667      219.98749     -1537.5542      289.41664      2633.424       3840.7412      0.99696119
    935000  -1301.971       217.01496     -1518.986       285.50596      842.73751      3840.7412      0.99696119
    936000  -1285.7503      222.39617     -1508.1464      292.58552     -1001.351       3840.7412      0.99696119
    937000  -1312.482       221.13384     -1533.6158      290.92479     -457.93563      3840.7412      0.99696119
    938000  -1275.3292      218.03988     -1493.369       286.85436     -53.101446      3840.7412      0.99696119
    939000  -1255.2929      231.29117     -1486.5841      304.28782      569.48749      3840.7412      0.99696119
    940000  -1288.6663      222.83066     -1511.497       293.15714     -2001.999       3840.7412      0.99696119
    941000  -1324.0506      218.94143     -1542.9921      288.04044     -993.48183      3840.7412      0.99696119
    942000  -1321.9784      221.11596     -1543.0944      290.90126     -116.93174      3840.7412      0.99696119
    943000  -1260.9104      243.38851     -1504.2989      320.20314      1346.3724      3840.7412      0.99696119
    944000  -1309.087       211.82025     -1520.9072      278.67179     -1378.9053      3840.7412      0.99696119
    945000  -1283.1918      227.29587     -1510.4877      299.03159      1468.9914      3840.7412      0.99696119
    946000  -1327.0792      207.66851     -1534.7477      273.20973     -564.97203      3840.7412      0.99696119
    947000  -1280.9023      229.03727     -1509.9395      301.32258     -387.11411      3840.7412      0.99696119
    948000  -1303.5586      207.70501     -1511.2637      273.25776      72.23292       3840.7412      0.99696119
    949000  -1284.2209      232.04355     -1516.2644      305.27765      129.35118      3840.7412      0.99696119
    950000  -1278.0739      231.76854     -1509.8424      304.91585     -537.04031      3840.7412      0.99696119
    951000  -1286.0492      221.31886     -1507.368       291.1682      -538.3636       3840.7412      0.99696119
    952000  -1281.3416      233.89356     -1515.2351      307.71154      1416.1359      3840.7412      0.99696119
    953000  -1349.4615      213.62279     -1563.0843      281.04322      2219.8018      3840.7412      0.99696119
    954000  -1270.9578      239.65894     -1510.6167      315.2965      -599.9995       3840.7412      0.99696119
    955000  -1291.3163      216.25398     -1507.5703      284.50482      230.18368      3840.7412      0.99696119
    956000  -1315.0025      223.9049      -1538.9074      294.57041      205.58494      3840.7412      0.99696119
    957000  -1284.5479      238.53543     -1523.0833      313.81841     -408.40114      3840.7412      0.99696119
    958000  -1253.175       230.15309     -1483.3281      302.79056      2370.6165      3840.7412      0.99696119
    959000  -1291.2365      223.49326     -1514.7298      294.02885     -635.13551      3840.7412      0.99696119
    960000  -1295.9343      236.40227     -1532.3366      311.01201     -381.05994      3840.7412      0.99696119
    961000  -1299.8001      236.66671     -1536.4669      311.3599       381.44566      3840.7412      0.99696119
    962000  -1278.2148      245.46597     -1523.6808      322.93626     -1258.733       3840.7412      0.99696119
    963000  -1317.7336      236.45095     -1554.1846      311.07606      72.651055      3840.7412      0.99696119
    964000  -1275.8926      230.2049      -1506.0975      302.85872      795.28644      3840.7412      0.99696119
    965000  -1302.1272      214.57397     -1516.7011      282.2946       605.78022      3840.7412      0.99696119
    966000  -1270.3869      225.24917     -1495.636       296.33893      1115.7554      3840.7412      0.99696119
    967000  -1331.8649      206.29911     -1538.164       271.40815      1077.7233      3840.7412      0.99696119
    968000  -1344.4341      201.47862     -1545.9127      265.06629     -1686.9907      3840.7412      0.99696119
    969000  -1293.1317      218.69461     -1511.8263      287.71572     -476.88622      3840.7412      0.99696119
    970000  -1306.0554      223.02698     -1529.0823      293.41541     -1224.9484      3840.7412      0.99696119
    971000  -1290.3376      210.8808      -1501.2184      277.43584      718.72025      3840.7412      0.99696119
    972000  -1294.6916      221.89422     -1516.5858      291.92515      653.87398      3840.7412      0.99696119
    973000  -1281.9201      227.0058      -1508.9259      298.64997     -1895.3799      3840.7412      0.99696119
    974000  -1316.653       213.31391     -1529.9669      280.63684      675.03092      3840.7412      0.99696119
    975000  -1251.8315      238.08987     -1489.9214      313.23222      2345.0057      3840.7412      0.99696119
    976000  -1310.244       215.77976     -1526.0237      283.88093     -1183.3206      3840.7412      0.99696119
    977000  -1282.5731      230.04759     -1512.6207      302.65176     -125.24984      3840.7412      0.99696119
    978000  -1256.0012      229.42238     -1485.4236      301.82923     -973.54381      3840.7412      0.99696119
    979000  -1249.1406      233.29858     -1482.4392      306.92878     -207.06344      3840.7412      0.99696119
    980000  -1233.0325      260.19652     -1493.229       342.31584      572.57064      3840.7412      0.99696119
    981000  -1279.3944      213.99431     -1493.3887      281.53199     -106.26155      3840.7412      0.99696119
    982000  -1275.2542      232.42983     -1507.684       305.78585      549.68798      3840.7412      0.99696119
    983000  -1328.8574      221.74683     -1550.6043      291.73124      572.68181      3840.7412      0.99696119
    984000  -1293.4978      226.1652      -1519.6629      297.54407      617.69846      3840.7412      0.99696119
    985000  -1274.7836      223.21556     -1497.9992      293.66351      248.33561      3840.7412      0.99696119
    986000  -1300.6855      199.81899     -1500.5045      262.88286      1275.4865      3840.7412      0.99696119
    987000  -1275.6611      229.10831     -1504.7694      301.41604      203.79834      3840.7412      0.99696119
    988000  -1284.9283      242.73548     -1527.6638      319.34401      944.19413      3840.7412      0.99696119
    989000  -1311.7757      225.61985     -1537.3956      296.82661      599.97203      3840.7412      0.99696119
    990000  -1276.4751      242.87925     -1519.3543      319.53315      1314.5021      3840.7412      0.99696119
    991000  -1295.6881      260.3347      -1556.0228      342.49764      683.86866      3840.7412      0.99696119
    992000  -1296.606       234.36523     -1530.9713      308.33207      354.81535      3840.7412      0.99696119
    993000  -1304.3457      237.79344     -1542.1391      312.84224      1281.6668      3840.7412      0.99696119
    994000  -1319.017       208.33602     -1527.353       274.08791      290.48526      3840.7412      0.99696119
    995000  -1261.2529      218.3951      -1479.648       287.32169      962.74427      3840.7412      0.99696119
    996000  -1282.0687      237.96471     -1520.0334      313.06756     -116.38172      3840.7412      0.99696119
    997000  -1262.6658      250.86538     -1513.5312      330.03975      20.047783      3840.7412      0.99696119
    998000  -1278.8961      239.38592     -1518.282       314.93732     -488.28707      3840.7412      0.99696119
    999000  -1305.7821      224.25062     -1530.0327      295.02523     -1174.7968      3840.7412      0.99696119
   1000000  -1267.3009      224.50561     -1491.8065      295.3607      -297.43521      3840.7412      0.99696119
Loop time of 1161.5 on 2 procs for 1000000 steps with 384 atoms

Performance: 74.387 ns/day, 0.323 hours/ns, 860.955 timesteps/s
99.7% CPU use with 2 MPI tasks x 1 OpenMP threads

MPI task timing breakdown:
Section |  min time  |  avg time  |  max time  |%varavg| %total
---------------------------------------------------------------
Pair    | 754.9      | 755.14     | 755.39     |   0.9 | 65.01
Bond    | 0.079293   | 0.084892   | 0.09049    |   1.9 |  0.01
Kspace  | 218.39     | 218.99     | 219.59     |   4.0 | 18.85
Neigh   | 53.691     | 53.691     | 53.691     |   0.0 |  4.62
Comm    | 77.188     | 77.517     | 77.846     |   3.7 |  6.67
Output  | 0.30632    | 0.30837    | 0.31041    |   0.4 |  0.03
Modify  | 52.542     | 52.706     | 52.869     |   2.3 |  4.54
Other   |            | 3.062      |            |       |  0.26

Nlocal:            192 ave         196 max         188 min
Histogram: 1 0 0 0 0 0 0 0 0 1
Nghost:         4815.5 ave        4818 max        4813 min
Histogram: 1 0 0 0 0 0 0 0 0 1
Neighs:          69374 ave       70109 max       68639 min
Histogram: 1 0 0 0 0 0 0 0 0 1

Total # of neighbors = 138748
Ave neighs/atom = 361.32292
Ave special neighs/atom = 2
Neighbor list builds = 33461
Dangerous builds = 0
# write data file
write_data data.after_eq.lmp
System init for write_data ...
PPPM initialization ...
  using 12-bit tables for long-range coulomb (src/kspace.cpp:342)
  G vector (1/distance) = 0.31203871
  grid = 15 15 15
  stencil order = 5
  estimated absolute RMS force accuracy = 0.0022228175
  estimated relative force accuracy = 6.6939488e-06
  using double precision FFTW3
  3d grid and FFT values/proc = 6776 1800
Generated 1 of 1 mixed pair_coeff terms from geometric mixing rule

# clean up
undump dEQUI

# production
# 2 ns
dump dPROD all custom 1000 prod.lammpstrj id element xu yu zu
dump_modify dPROD element H O sort id
run 2000000
PPPM initialization ...
  using 12-bit tables for long-range coulomb (src/kspace.cpp:342)
  G vector (1/distance) = 0.31203871
  grid = 15 15 15
  stencil order = 5
  estimated absolute RMS force accuracy = 0.0022228175
  estimated relative force accuracy = 6.6939488e-06
  using double precision FFTW3
  3d grid and FFT values/proc = 6776 1800
Generated 1 of 1 mixed pair_coeff terms from geometric mixing rule
Per MPI rank memory allocation (min/avg/max) = 9.718 | 9.718 | 9.718 Mbytes
   Step         TotEng         KinEng         PotEng          Temp          Press          Volume        Density
   1000000  -1267.3009      224.50561     -1491.8065      295.3607      -296.575        3840.7412      0.99696119
   1001000  -1307.443       243.29052     -1550.7335      320.07423     -2983.4441      3840.7412      0.99696119
   1002000  -1254.2843      231.10785     -1485.3922      304.04664      1539.743       3840.7412      0.99696119
   1003000  -1290.7327      232.37427     -1523.107       305.71276     -786.63802      3840.7412      0.99696119
   1004000  -1304.4476      223.49422     -1527.9418      294.03011     -227.54785      3840.7412      0.99696119
   1005000  -1331.3992      210.41379     -1541.813       276.82143     -2404.3673      3840.7412      0.99696119
   1006000  -1280.4774      243.36334     -1523.8407      320.17003     -299.68754      3840.7412      0.99696119
   1007000  -1303.9945      218.00278     -1521.9973      286.80555     -21.060448      3840.7412      0.99696119
   1008000  -1290.5439      209.78119     -1500.3251      275.98918     -2802.2674      3840.7412      0.99696119
   1009000  -1260.8622      232.64551     -1493.5077      306.0696       301.28561      3840.7412      0.99696119
   1010000  -1274.5168      233.14787     -1507.6646      306.7305      -1204.8888      3840.7412      0.99696119
   1011000  -1297.1565      225.13099     -1522.2875      296.18345      2622.044       3840.7412      0.99696119
   1012000  -1268.154       243.97232     -1512.1264      320.9712      -217.51679      3840.7412      0.99696119
   1013000  -1282.4257      218.38941     -1500.8151      287.31421     -3111.5747      3840.7412      0.99696119
   1014000  -1278.4459      207.22417     -1485.6701      272.62515      113.42785      3840.7412      0.99696119
   1015000  -1281.5655      223.29225     -1504.8577      293.7644       1798.8659      3840.7412      0.99696119
   1016000  -1283.808       238.1799      -1521.9879      313.35066     -16.986405      3840.7412      0.99696119
   1017000  -1323.3143      215.1366      -1538.4509      283.03479      755.23771      3840.7412      0.99696119
   1018000  -1276.3344      228.28519     -1504.6196      300.33314      1370.3132      3840.7412      0.99696119
   1019000  -1288.7908      234.38248     -1523.1733      308.35477     -407.22159      3840.7412      0.99696119
   1020000  -1299.6891      228.41021     -1528.0993      300.49762      1336.3393      3840.7412      0.99696119
   1021000  -1278.1799      243.17168     -1521.3515      319.91787      1228.5686      3840.7412      0.99696119
   1022000  -1269.2766      242.75829     -1512.0349      319.37402      464.88984      3840.7412      0.99696119
   1023000  -1309.9652      212.39425     -1522.3594      279.42693      1856.8856      3840.7412      0.99696119
   1024000  -1281.0023      247.94619     -1528.9485      326.19925     -1437.4476      3840.7412      0.99696119
   1025000  -1299.8036      235.99044     -1535.794       310.47021      330.76299      3840.7412      0.99696119
   1026000  -1322.8872      221.91282     -1544.8         291.94961      283.71148      3840.7412      0.99696119
   1027000  -1308.9375      220.88595     -1529.8234      290.59867     -547.27566      3840.7412      0.99696119
   1028000  -1288.1816      231.8772      -1520.0588      305.0588       336.38793      3840.7412      0.99696119
   1029000  -1271.3908      207.28603     -1478.6768      272.70653      545.14341      3840.7412      0.99696119
   1030000  -1255.6831      225.01911     -1480.7022      296.03627      515.532        3840.7412      0.99696119
   1031000  -1293.5935      225.24839     -1518.8419      296.33791      1162.2025      3840.7412      0.99696119
   1032000  -1280.9594      218.79796     -1499.7574      287.8517       1839.7321      3840.7412      0.99696119
   1033000  -1300.4889      231.87004     -1532.3589      305.04939     -3195.3721      3840.7412      0.99696119
   1034000  -1283.996       206.70769     -1490.7037      271.94568      882.73025      3840.7412      0.99696119
   1035000  -1271.7144      236.91841     -1508.6328      311.69105      1501.477       3840.7412      0.99696119
   1036000  -1313.1137      236.22807     -1549.3418      310.78283     -2276.9878      3840.7412      0.99696119
   1037000  -1304.6881      230.88746     -1535.5756      303.7567       694.20578      3840.7412      0.99696119
   1038000  -1262.6404      245.91058     -1508.5509      323.52119     -198.86288      3840.7412      0.99696119
   1039000  -1319.3785      219.41905     -1538.7976      288.6688      -915.07092      3840.7412      0.99696119
   1040000  -1301.9268      243.14433     -1545.0711      319.88189     -43.897028      3840.7412      0.99696119
   1041000  -1306.9785      235.781       -1542.7595      310.19466      2707.7988      3840.7412      0.99696119
   1042000  -1290.3138      233.3163      -1523.6301      306.9521       1146.5913      3840.7412      0.99696119
   1043000  -1279.3585      226.93673     -1506.2953      298.5591       1367.66        3840.7412      0.99696119
   1044000  -1263.4309      217.71794     -1481.1488      286.43081      775.12335      3840.7412      0.99696119
   1045000  -1307.2392      238.46985     -1545.7091      313.73213     -404.88302      3840.7412      0.99696119
   1046000  -1273.2842      235.92034     -1509.2045      310.37798     -336.82514      3840.7412      0.99696119
   1047000  -1269.4935      227.22753     -1496.721       298.94167      609.51237      3840.7412      0.99696119
   1048000  -1306.0949      226.62021     -1532.7151      298.14269     -387.7149       3840.7412      0.99696119
   1049000  -1333.9752      218.39999     -1552.3752      287.32812      282.82247      3840.7412      0.99696119
   1050000  -1336.4425      224.17613     -1560.6186      294.92724     -223.10401      3840.7412      0.99696119
   1051000  -1292.3933      233.06821     -1525.4615      306.6257      -2165.4941      3840.7412      0.99696119
   1052000  -1316.1633      236.01302     -1552.1764      310.49991     -1132.2638      3840.7412      0.99696119
   1053000  -1304.3544      227.96775     -1532.3221      299.91552     -1182.4427      3840.7412      0.99696119
   1054000  -1316.9252      223.13949     -1540.0647      293.56343     -359.14639      3840.7412      0.99696119
   1055000  -1294.4912      237.65745     -1532.1486      312.66333      2061.4121      3840.7412      0.99696119
   1056000  -1326.6258      207.68435     -1534.3101      273.23057     -61.386013      3840.7412      0.99696119
   1057000  -1316.946       211.13981     -1528.0859      277.7766      -1201.7187      3840.7412      0.99696119
   1058000  -1295.3405      228.36526     -1523.7058      300.43848     -190.142        3840.7412      0.99696119
   1059000  -1270.9127      234.77663     -1505.6893      308.87331     -1068.1049      3840.7412      0.99696119
   1060000  -1266.9953      243.65206     -1510.6474      320.54988     -2125.1411      3840.7412      0.99696119
   1061000  -1245.9591      244.40273     -1490.3618      321.53746     -774.23007      3840.7412      0.99696119
   1062000  -1301.8588      236.83829     -1538.6971      311.58564      726.14844      3840.7412      0.99696119
   1063000  -1289.0095      240.08983     -1529.0993      315.86338      636.07558      3840.7412      0.99696119
   1064000  -1312.3146      197.99271     -1510.3073      260.4802       417.59346      3840.7412      0.99696119
   1065000  -1309.6056      215.35245     -1524.9581      283.31876      531.19022      3840.7412      0.99696119
   1066000  -1323.8931      223.05882     -1546.952       293.45731     -681.42643      3840.7412      0.99696119
   1067000  -1283.075       244.69665     -1527.7717      321.92413     -1513.3552      3840.7412      0.99696119
   1068000  -1328.3775      199.90008     -1528.2776      262.98955     -893.5441       3840.7412      0.99696119
   1069000  -1290.309       216.29041     -1506.5994      284.55275     -49.681277      3840.7412      0.99696119
   1070000  -1318.9545      235.30508     -1554.2595      309.56854     -785.88848      3840.7412      0.99696119
   1071000  -1257.972       233.59817     -1491.5702      307.32292      660.67417      3840.7412      0.99696119
   1072000  -1292.9298      229.81825     -1522.7481      302.35004     -386.92519      3840.7412      0.99696119
   1073000  -1288.7791      205.81195     -1494.5911      270.76724     -679.0109       3840.7412      0.99696119
   1074000  -1253.77        253.51219     -1507.2821      333.5219       3260.7266      3840.7412      0.99696119
   1075000  -1253.2015      222.47692     -1475.6784      292.69175      975.60577      3840.7412      0.99696119
   1076000  -1253.6536      226.57633     -1480.2299      298.08495     -2809.5054      3840.7412      0.99696119
   1077000  -1278.0668      226.49576     -1504.5625      297.97895     -1681.9778      3840.7412      0.99696119
   1078000  -1271.1302      238.12336     -1509.2536      313.27629     -1838.6346      3840.7412      0.99696119
   1079000  -1270.8778      222.11673     -1492.9945      292.21788      1510.629       3840.7412      0.99696119
   1080000  -1273.8466      234.75888     -1508.6054      308.84996      660.6172       3840.7412      0.99696119
   1081000  -1313.0267      222.29708     -1535.3238      292.45515      514.31929      3840.7412      0.99696119
   1082000  -1282.6823      231.01819     -1513.7005      303.92869     -945.22283      3840.7412      0.99696119
   1083000  -1298.5791      220.85752     -1519.4366      290.56126      1437.3845      3840.7412      0.99696119
   1084000  -1261.5728      227.7961      -1489.3689      299.68969      613.8584       3840.7412      0.99696119
   1085000  -1310.4785      228.19905     -1538.6776      300.21981      542.94748      3840.7412      0.99696119
   1086000  -1293.5985      236.81046     -1530.4089      311.54903      144.04704      3840.7412      0.99696119
   1087000  -1311.0598      232.94486     -1544.0047      306.46342     -569.39169      3840.7412      0.99696119
   1088000  -1303.9713      238.06374     -1542.035       313.19784     -1168.3058      3840.7412      0.99696119
   1089000  -1285.9993      235.003       -1521.0023      309.17112     -677.1221       3840.7412      0.99696119
   1090000  -1280.93        213.69076     -1494.6208      281.13263     -373.94021      3840.7412      0.99696119
   1091000  -1301.944       219.09823     -1521.0422      288.24673     -781.59775      3840.7412      0.99696119
   1092000  -1283.6103      226.77176     -1510.3821      298.34206      1550.055       3840.7412      0.99696119
   1093000  -1270.399       232.21992     -1502.6189      305.50969     -2093.9631      3840.7412      0.99696119
   1094000  -1267.8557      220.46345     -1488.3192      290.04282     -655.36152      3840.7412      0.99696119
   1095000  -1254.4442      245.07416     -1499.5183      322.42079     -514.80075      3840.7412      0.99696119
   1096000  -1291.5103      236.30499     -1527.8153      310.88402     -1421.5896      3840.7412      0.99696119
   1097000  -1290.028       217.26427     -1507.2922      285.83396     -120.47111      3840.7412      0.99696119
   1098000  -1285.6738      228.66881     -1514.3426      300.83783     -495.2549       3840.7412      0.99696119
   1099000  -1307.7069      240.24374     -1547.9507      316.06587      477.63656      3840.7412      0.99696119
   1100000  -1304.2244      231.23623     -1535.4606      304.21554      833.67741      3840.7412      0.99696119
   1101000  -1305.6954      222.24486     -1527.9403      292.38646     -524.41049      3840.7412      0.99696119
   1102000  -1297.3491      230.95977     -1528.3089      303.85183      1103.0731      3840.7412      0.99696119
   1103000  -1278.0269      236.90188     -1514.9288      311.66929     -353.35138      3840.7412      0.99696119
   1104000  -1317.9353      213.78655     -1531.7219      281.25865      163.8872       3840.7412      0.99696119
   1105000  -1282.2599      242.45174     -1524.7116      318.97073     -0.93869748     3840.7412      0.99696119
   1106000  -1308.942       205.67071     -1514.6127      270.58142     -1466.2791      3840.7412      0.99696119
   1107000  -1296.55        237.69507     -1534.2451      312.71282     -111.51846      3840.7412      0.99696119
   1108000  -1253.7898      243.6896      -1497.4794      320.59926      72.902463      3840.7412      0.99696119
   1109000  -1310.1997      225.83299     -1536.0326      297.10701      703.31938      3840.7412      0.99696119
   1110000  -1317.4381      207.52023     -1524.9583      273.01465      123.28829      3840.7412      0.99696119
   1111000  -1329.7107      207.32945     -1537.0402      272.76366     -1362.9279      3840.7412      0.99696119
   1112000  -1295.6114      239.60235     -1535.2137      315.22205     -33.158684      3840.7412      0.99696119
   1113000  -1246.8347      245.53814     -1492.3728      323.03121     -150.97317      3840.7412      0.99696119
   1114000  -1286.9844      220.58489     -1507.5693      290.20258      803.27628      3840.7412      0.99696119
   1115000  -1288.4317      214.12723     -1502.5589      281.70686      1111.5268      3840.7412      0.99696119
   1116000  -1295.2232      223.00564     -1518.2289      293.38733      1543.6975      3840.7412      0.99696119
   1117000  -1305.9014      218.2622      -1524.1636      287.14684     -1203.7425      3840.7412      0.99696119
   1118000  -1291.123       260.25989     -1551.3829      342.39922     -984.51313      3840.7412      0.99696119
   1119000  -1361.1337      202.85994     -1563.9937      266.88355     -1140.1685      3840.7412      0.99696119
   1120000  -1289.3872      220.65798     -1510.0452      290.29875      788.56481      3840.7412      0.99696119
   1121000  -1273.0873      218.24746     -1491.3347      287.12745     -267.82227      3840.7412      0.99696119
   1122000  -1254.9328      239.46844     -1494.4012      315.04587     -327.79711      3840.7412      0.99696119
   1123000  -1289.8709      237.59966     -1527.4706      312.5873      -1360.7798      3840.7412      0.99696119
   1124000  -1266.6498      224.09217     -1490.742       294.81679      309.8331       3840.7412      0.99696119
   1125000  -1226.8093      242.55428     -1469.3635      319.10563      977.49776      3840.7412      0.99696119
   1126000  -1273.1027      225.71301     -1498.8157      296.94916     -884.12855      3840.7412      0.99696119
   1127000  -1275.0394      218.14323     -1493.1826      286.99033     -262.90819      3840.7412      0.99696119
   1128000  -1301.0745      216.2226      -1517.2971      284.46353      1672.8817      3840.7412      0.99696119
   1129000  -1271.5477      239.26749     -1510.8152      314.78151     -668.76803      3840.7412      0.99696119
   1130000  -1276.7698      216.26813     -1493.0379      284.52343     -818.22472      3840.7412      0.99696119
   1131000  -1325.1852      223.71343     -1548.8986      294.31851     -1216.4096      3840.7412      0.99696119
   1132000  -1266.1164      224.99317     -1491.1096      296.00214     -1609.7838      3840.7412      0.99696119
   1133000  -1261.8131      247.86856     -1509.6817      326.09712     -1511.9892      3840.7412      0.99696119
   1134000  -1294.9665      211.6454      -1506.6119      278.44175      1151.2949      3840.7412      0.99696119
   1135000  -1305.6211      222.12188     -1527.743       292.22466      256.94462      3840.7412      0.99696119
   1136000  -1303.0918      232.8754      -1535.9672      306.37204     -555.93091      3840.7412      0.99696119
   1137000  -1291.2513      238.85955     -1530.1109      314.24482     -819.17237      3840.7412      0.99696119
   1138000  -1320.2404      190.74799     -1510.9883      250.94901     -919.55376      3840.7412      0.99696119
   1139000  -1282.5336      233.42876     -1515.9623      307.10005      25.461555      3840.7412      0.99696119
   1140000  -1306.7175      213.70753     -1520.425       281.1547      -828.24104      3840.7412      0.99696119
   1141000  -1272.8027      222.75507     -1495.5578      293.05768      2109.5257      3840.7412      0.99696119
   1142000  -1317.7674      214.31441     -1532.0818      281.95311     -684.37282      3840.7412      0.99696119
   1143000  -1299.8092      236.61672     -1536.4259      311.29415     -746.13308      3840.7412      0.99696119
   1144000  -1312.2494      223.96564     -1536.2151      294.65032      353.67549      3840.7412      0.99696119
   1145000  -1284.9309      236.70342     -1521.6344      311.4082      -985.89208      3840.7412      0.99696119
   1146000  -1293.944       234.24015     -1528.1842      308.16752     -1802.3538      3840.7412      0.99696119
   1147000  -1302.0251      230.61802     -1532.6431      303.40222      325.83478      3840.7412      0.99696119
   1148000  -1273.5153      245.69701     -1519.2123      323.24022     -1258.7556      3840.7412      0.99696119
   1149000  -1316.0596      215.81545     -1531.8751      283.92788     -337.59035      3840.7412      0.99696119
   1150000  -1293.4036      226.13498     -1519.5385      297.50431      763.51738      3840.7412      0.99696119
   1151000  -1328.6036      212.68127     -1541.2849      279.80455     -249.31428      3840.7412      0.99696119
   1152000  -1292.0145      244.59396     -1536.6084      321.78904      837.08381      3840.7412      0.99696119
   1153000  -1282.4453      226.55945     -1509.0048      298.06275     -1465.5314      3840.7412      0.99696119
   1154000  -1341.5061      198.47499     -1539.9811      261.11469      758.25891      3840.7412      0.99696119
   1155000  -1308.9791      220.08264     -1529.0618      289.54182     -1505.4997      3840.7412      0.99696119
   1156000  -1298.3824      223.84529     -1522.2277      294.49198      264.44516      3840.7412      0.99696119
   1157000  -1329.3558      211.49611     -1540.8519      278.24534     -185.90114      3840.7412      0.99696119
   1158000  -1278.9103      238.32235     -1517.2327      313.53807     -275.18229      3840.7412      0.99696119
   1159000  -1325.822       202.18731     -1528.0093      265.99864     -1259.7956      3840.7412      0.99696119
   1160000  -1319.3569      234.39685     -1553.7538      308.37368      436.43287      3840.7412      0.99696119
   1161000  -1302.0615      226.97986     -1529.0414      298.61584     -1163.5367      3840.7412      0.99696119
   1162000  -1291.7179      238.80825     -1530.5261      314.17733      930.90503      3840.7412      0.99696119
   1163000  -1294.1506      225.276       -1519.4266      296.37423     -1431.6726      3840.7412      0.99696119
   1164000  -1282.4271      240.82558     -1523.2527      316.83133     -1131.6911      3840.7412      0.99696119
   1165000  -1272.8027      251.89628     -1524.699       331.39601      1997.3389      3840.7412      0.99696119
   1166000  -1294.0613      246.33113     -1540.3924      324.07446      972.20299      3840.7412      0.99696119
   1167000  -1355.0453      211.62789     -1566.6731      278.41871     -1081.6469      3840.7412      0.99696119
   1168000  -1307.6882      221.89869     -1529.5869      291.93102     -555.90271      3840.7412      0.99696119
   1169000  -1306.1365      230.49319     -1536.6297      303.23799      1690.1975      3840.7412      0.99696119
   1170000  -1322.492       224.49934     -1546.9913      295.35246     -218.54079      3840.7412      0.99696119
   1171000  -1295.9911      214.02327     -1510.0144      281.57008      1431.5619      3840.7412      0.99696119
   1172000  -1313.9255      225.54136     -1539.4668      296.72335     -501.37041      3840.7412      0.99696119
   1173000  -1310.9501      230.4588      -1541.4089      303.19275     -1654.896       3840.7412      0.99696119
   1174000  -1296.5802      221.58768     -1518.1678      291.52185      313.86807      3840.7412      0.99696119
   1175000  -1327.1058      218.34492     -1545.4507      287.25567     -512.68294      3840.7412      0.99696119
   1176000  -1275.7451      235.49514     -1511.2402      309.81858      46.49323       3840.7412      0.99696119
   1177000  -1313.1045      218.88887     -1531.9934      287.97129     -707.48449      3840.7412      0.99696119
   1178000  -1334.1543      228.42757     -1562.5818      300.52045     -648.44612      3840.7412      0.99696119
   1179000  -1312.0261      238.39113     -1550.4172      313.62856     -2676.1574      3840.7412      0.99696119
   1180000  -1302.3052      231.09859     -1533.4038      304.03446     -958.76327      3840.7412      0.99696119
   1181000  -1292.4512      221.03248     -1513.4837      290.79143     -2005.0922      3840.7412      0.99696119
   1182000  -1326.2636      214.20537     -1540.469       281.80965      593.57439      3840.7412      0.99696119
   1183000  -1325.9855      210.03513     -1536.0206      276.32328      1146.828       3840.7412      0.99696119
   1184000  -1307.5321      214.86629     -1522.3984      282.67917     -871.94206      3840.7412      0.99696119
   1185000  -1316.5512      217.35634     -1533.9076      285.95509      66.363061      3840.7412      0.99696119
   1186000  -1262.6257      237.90705     -1500.5327      312.99171      799.02611      3840.7412      0.99696119
   1187000  -1251.2642      224.78955     -1476.0537      295.73425     -26.687011      3840.7412      0.99696119
   1188000  -1283.2918      241.47818     -1524.77        317.6899      -885.34749      3840.7412      0.99696119
   1189000  -1300.7279      232.77429     -1533.5022      306.23902      128.37278      3840.7412      0.99696119
   1190000  -1252.7052      248.70857     -1501.4138      327.20224     -1636.7647      3840.7412      0.99696119
   1191000  -1282.6237      234.05903     -1516.6828      307.92923     -442.24254      3840.7412      0.99696119
   1192000  -1290.9504      212.2427      -1503.1931      279.22756      281.06085      3840.7412      0.99696119
   1193000  -1274.5536      246.51819     -1521.0718      324.32057      251.40407      3840.7412      0.99696119
   1194000  -1285.5712      241.96765     -1527.5388      318.33386     -1145.9184      3840.7412      0.99696119
   1195000  -1295.7664      221.61894     -1517.3853      291.56298     -1418.1055      3840.7412      0.99696119
   1196000  -1281.0655      226.69883     -1507.7643      298.24612     -573.67627      3840.7412      0.99696119
   1197000  -1299.9834      238.82163     -1538.805       314.19493     -1810.0215      3840.7412      0.99696119
   1198000  -1314.5863      219.34075     -1533.927       288.56579     -668.61062      3840.7412      0.99696119
   1199000  -1285.5819      217.95757     -1503.5394      286.74607     -405.92352      3840.7412      0.99696119
   1200000  -1295.6135      212.27906     -1507.8926      279.27539      1055.9068      3840.7412      0.99696119
   1201000  -1298.7736      217.27554     -1516.0491      285.84879      755.90743      3840.7412      0.99696119
   1202000  -1318.7788      231.48128     -1550.2601      304.53793     -2307.581       3840.7412      0.99696119
   1203000  -1301.409       231.90648     -1533.3155      305.09732     -161.39641      3840.7412      0.99696119
   1204000  -1313.7226      225.71951     -1539.4421      296.95771     -779.20621      3840.7412      0.99696119
   1205000  -1272.4555      220.3827      -1492.8382      289.93659      273.56147      3840.7412      0.99696119
   1206000  -1296.7688      233.42608     -1530.1949      307.09653     -704.57874      3840.7412      0.99696119
   1207000  -1283.1636      223.43989     -1506.6035      293.95863      377.33658      3840.7412      0.99696119
   1208000  -1288.7059      229.35422     -1518.0601      301.73956      437.19646      3840.7412      0.99696119
   1209000  -1341.8855      208.12519     -1550.0107      273.81054     -416.40973      3840.7412      0.99696119
   1210000  -1300.8342      216.71099     -1517.5452      285.10607     -220.06933      3840.7412      0.99696119
   1211000  -1298.411       242.57316     -1540.9842      319.13047     -518.51891      3840.7412      0.99696119
   1212000  -1283.8041      232.88329     -1516.6874      306.38243     -853.18458      3840.7412      0.99696119
   1213000  -1331.1533      214.5895      -1545.7428      282.31502     -861.38998      3840.7412      0.99696119
   1214000  -1317.4393      223.63136     -1541.0706      294.21054     -147.53235      3840.7412      0.99696119
   1215000  -1319.4026      231.28253     -1550.6851      304.27645     -271.91491      3840.7412      0.99696119
   1216000  -1282.0126      230.42464     -1512.4372      303.14782      338.46769      3840.7412      0.99696119
   1217000  -1309.9224      231.42018     -1541.3426      304.45754      1874.7395      3840.7412      0.99696119
   1218000  -1295.728       212.41504     -1508.143       279.45429     -1325.2568      3840.7412      0.99696119
   1219000  -1293.842       224.73712     -1518.5791      295.66528      713.26618      3840.7412      0.99696119
   1220000  -1310.9187      207.23578     -1518.1545      272.64044     -1058.3064      3840.7412      0.99696119
   1221000  -1261.6147      240.8887      -1502.5034      316.91439     -947.57313      3840.7412      0.99696119
   1222000  -1291.3356      229.59198     -1520.9276      302.05235     -1562.6137      3840.7412      0.99696119
   1223000  -1308.8916      221.00174     -1529.8933      290.75099     -591.63225      3840.7412      0.99696119
   1224000  -1308.693       217.47566     -1526.1687      286.11207      493.66414      3840.7412      0.99696119
   1225000  -1297.4883      228.21778     -1525.706       300.24446      822.84762      3840.7412      0.99696119
   1226000  -1296.751       229.95195     -1526.7029      302.52593     -426.92823      3840.7412      0.99696119
   1227000  -1288.4548      231.25364     -1519.7085      304.23845     -74.159898      3840.7412      0.99696119
   1228000  -1270.9812      237.52964     -1508.5109      312.49519      1516.5925      3840.7412      0.99696119
   1229000  -1320.3255      213.39027     -1533.7158      280.7373       36.380413      3840.7412      0.99696119
   1230000  -1286.3212      220.42045     -1506.7416      289.98625     -1655.5307      3840.7412      0.99696119
   1231000  -1303.4117      231.3575      -1534.7692      304.37509      909.39774      3840.7412      0.99696119
   1232000  -1312.3342      219.56771     -1531.9019      288.86438      362.40415      3840.7412      0.99696119
   1233000  -1303.3915      217.86879     -1521.2603      286.62927     -1349.7083      3840.7412      0.99696119
   1234000  -1304.5675      236.34418     -1540.9117      310.93558     -349.08988      3840.7412      0.99696119
   1235000  -1314.2109      231.01714     -1545.228       303.9273      -939.79322      3840.7412      0.99696119
   1236000  -1315.138       216.50732     -1531.6454      284.83812      1424.4812      3840.7412      0.99696119
   1237000  -1289.8298      224.90087     -1514.7307      295.88071     -396.6924       3840.7412      0.99696119
   1238000  -1285.7797      235.77445     -1521.5541      310.18605      497.11646      3840.7412      0.99696119
   1239000  -1283.2021      223.03485     -1506.2369      293.42577      1080.895       3840.7412      0.99696119
   1240000  -1304.1917      228.18423     -1532.376       300.20032      1831.8834      3840.7412      0.99696119
   1241000  -1307.3883      234.00406     -1541.3924      307.85691      413.40248      3840.7412      0.99696119
   1242000  -1295.6753      221.36305     -1517.0383      291.22634     -1945.1463      3840.7412      0.99696119
   1243000  -1276.1812      234.22971     -1510.4109      308.15378      765.77402      3840.7412      0.99696119
   1244000  -1309.0801      231.78934     -1540.8694      304.94322      982.54589      3840.7412      0.99696119
   1245000  -1312.0891      226.34108     -1538.4302      297.77546     -263.71488      3840.7412      0.99696119
   1246000  -1273.7346      229.42624     -1503.1609      301.83431     -34.435343      3840.7412      0.99696119
   1247000  -1309.2672      220.57961     -1529.8468      290.19564      732.74776      3840.7412      0.99696119
   1248000  -1284.9931      229.9199      -1514.913       302.48377     -873.41745      3840.7412      0.99696119
   1249000  -1278.6876      221.77603     -1500.4636      291.76966     -75.944048      3840.7412      0.99696119
   1250000  -1301.1028      233.36755     -1534.4704      307.01951     -1095.1011      3840.7412      0.99696119
   1251000  -1295.6731      227.80725     -1523.4804      299.70436     -886.10148      3840.7412      0.99696119
   1252000  -1308.5592      214.92873     -1523.4879      282.76131      503.23145      3840.7412      0.99696119
   1253000  -1299.1326      217.15883     -1516.2915      285.69524     -2305.5869      3840.7412      0.99696119
   1254000  -1279.7227      233.39683     -1513.1195      307.05804     -630.12135      3840.7412      0.99696119
   1255000  -1334.575       212.20839     -1546.7834      279.18242      1298.293       3840.7412      0.99696119
   1256000  -1304.3034      227.20057     -1531.504       298.9062      -527.90947      3840.7412      0.99696119
   1257000  -1326.3834      225.65475     -1552.0382      296.87252      723.54569      3840.7412      0.99696119
   1258000  -1277.0138      231.20938     -1508.2232      304.18022     -83.004334      3840.7412      0.99696119
   1259000  -1301.1942      221.69438     -1522.8886      291.66224     -1283.8695      3840.7412      0.99696119
   1260000  -1325.8541      203.28014     -1529.1342      267.43637     -522.14858      3840.7412      0.99696119
   1261000  -1315.9086      216.05269     -1531.9612      284.24         720.40514      3840.7412      0.99696119
   1262000  -1316.2924      221.8707      -1538.1631      291.89421     -1628.3616      3840.7412      0.99696119
   1263000  -1317.2164      208.72793     -1525.9444      274.6035      -1745.9879      3840.7412      0.99696119
   1264000  -1291.9389      223.00563     -1514.9445      293.38732      59.78445       3840.7412      0.99696119
   1265000  -1315.5584      218.81163     -1534.37        287.86968     -2163.8906      3840.7412      0.99696119
   1266000  -1283.0093      235.93036     -1518.9396      310.39116     -1610.7263      3840.7412      0.99696119
   1267000  -1290.1123      228.04803     -1518.1604      300.02113     -1944.3384      3840.7412      0.99696119
   1268000  -1291.952       226.74304     -1518.6951      298.30427      2302.2714      3840.7412      0.99696119
   1269000  -1267.2585      221.8256      -1489.0841      291.83488      844.32162      3840.7412      0.99696119
   1270000  -1271.8337      221.96817     -1493.8019      292.02243     -857.86937      3840.7412      0.99696119
   1271000  -1317.0748      249.1049      -1566.1797      327.72366     -1354.4375      3840.7412      0.99696119
   1272000  -1337.0139      202.62459     -1539.6385      266.57392      1201.9526      3840.7412      0.99696119
   1273000  -1298.5526      210.05002     -1508.6026      276.34285     -2525.1593      3840.7412      0.99696119
   1274000  -1288.5971      233.8919      -1522.489       307.70935     -1342.7742      3840.7412      0.99696119
   1275000  -1315.4527      218.41857     -1533.8713      287.35257     -1657.9709      3840.7412      0.99696119
   1276000  -1282.6253      233.68379     -1516.3091      307.43556      525.10878      3840.7412      0.99696119
   1277000  -1292.1776      228.89293     -1521.0705      301.13268     -218.3794       3840.7412      0.99696119
   1278000  -1282.742       241.24686     -1523.9889      317.38558      751.32933      3840.7412      0.99696119
   1279000  -1305.9904      225.94737     -1531.9378      297.25749      451.16316      3840.7412      0.99696119
   1280000  -1312.5536      208.02047     -1520.5741      273.67277     -1046.3378      3840.7412      0.99696119
   1281000  -1351.8825      190.28133     -1542.1638      250.33507     -1060.6828      3840.7412      0.99696119
   1282000  -1320.6562      230.85391     -1551.5101      303.71256      648.41762      3840.7412      0.99696119
   1283000  -1291.9187      237.12694     -1529.0457      311.96539      1754.2308      3840.7412      0.99696119
   1284000  -1296.592       236.14785     -1532.7399      310.6773      -1690.7529      3840.7412      0.99696119
   1285000  -1299.7103      205.56861     -1505.2789      270.44709     -655.59136      3840.7412      0.99696119
   1286000  -1320.1807      214.486       -1534.6667      282.17885     -1513.3396      3840.7412      0.99696119
   1287000  -1267.6673      223.64649     -1491.3138      294.23044     -616.99427      3840.7412      0.99696119
   1288000  -1291.6734      238.06602     -1529.7394      313.20085     -22.839809      3840.7412      0.99696119
   1289000  -1292.3512      215.04526     -1507.3965      282.91462     -1443.1928      3840.7412      0.99696119
   1290000  -1278.0855      244.95435     -1523.0398      322.26317     -2447.5111      3840.7412      0.99696119
   1291000  -1313.9189      215.28927     -1529.2082      283.23564      1391.4185      3840.7412      0.99696119
   1292000  -1270.0401      229.64014     -1499.6802      302.11572     -1168.4411      3840.7412      0.99696119
   1293000  -1324.1735      210.31468     -1534.4882      276.69105     -200.03981      3840.7412      0.99696119
   1294000  -1282.6504      235.66261     -1518.313       310.03891      75.736445      3840.7412      0.99696119
   1295000  -1316.2997      218.25322     -1534.5529      287.13503     -1512.3366      3840.7412      0.99696119
   1296000  -1282.1592      231.47818     -1513.6374      304.53385      277.10856      3840.7412      0.99696119
   1297000  -1296.6796      229.79037     -1526.47        302.31336     -1240.629       3840.7412      0.99696119
   1298000  -1307.9842      210.15301     -1518.1372      276.47835     -529.29615      3840.7412      0.99696119
   1299000  -1260.9443      237.57353     -1498.5178      312.55292     -901.6658       3840.7412      0.99696119
   1300000  -1316.136       224.62162     -1540.7576      295.51333     -279.48113      3840.7412      0.99696119
   1301000  -1306.7825      231.26598     -1538.0485      304.25468     -3162.5183      3840.7412      0.99696119
   1302000  -1325.166       209.58197     -1534.748       275.72709     -1262.4163      3840.7412      0.99696119
   1303000  -1294.4907      229.34146     -1523.8322      301.72277     -220.22684      3840.7412      0.99696119
   1304000  -1299.4263      212.26588     -1511.6922      279.25806     -875.19063      3840.7412      0.99696119
   1305000  -1268.4405      219.48627     -1487.9267      288.75724     -580.02782      3840.7412      0.99696119
   1306000  -1326.1977      206.53003     -1532.7277      271.71194     -257.13255      3840.7412      0.99696119
   1307000  -1283.5874      230.04832     -1513.6357      302.65272      837.21502      3840.7412      0.99696119
   1308000  -1332.9485      218.7672      -1551.7157      287.81122      402.09883      3840.7412      0.99696119
   1309000  -1291.0129      219.95194     -1510.9648      289.36987      256.82978      3840.7412      0.99696119
   1310000  -1261.6158      239.43508     -1501.0508      315.00199     -52.587268      3840.7412      0.99696119
   1311000  -1296.4936      220.60908     -1517.1027      290.23441      306.05355      3840.7412      0.99696119
   1312000  -1329.3251      201.55628     -1530.8813      265.16845      281.90543      3840.7412      0.99696119
   1313000  -1301.3306      219.87578     -1521.2064      289.26968      784.0966       3840.7412      0.99696119
   1314000  -1287.7175      228.11633     -1515.8338      300.11098     -982.26009      3840.7412      0.99696119
   1315000  -1283.7971      226.61507     -1510.4122      298.13592      695.60557      3840.7412      0.99696119
   1316000  -1321.9066      215.2021      -1537.1087      283.12096      139.31632      3840.7412      0.99696119
   1317000  -1313.2644      213.89675     -1527.1611      281.40363      1123.6821      3840.7412      0.99696119
   1318000  -1277.5125      218.28071     -1495.7933      287.1712       691.21641      3840.7412      0.99696119
   1319000  -1282.2968      225.001       -1507.2978      296.01245      1884.7536      3840.7412      0.99696119
   1320000  -1301.5673      221.95278     -1523.5201      292.00218     -1281.4956      3840.7412      0.99696119
   1321000  -1344.8417      213.54967     -1558.3914      280.94702      205.48414      3840.7412      0.99696119
   1322000  -1321.2708      207.42261     -1528.6934      272.88623      691.51761      3840.7412      0.99696119
   1323000  -1258.6464      232.09821     -1490.7446      305.34956     -991.50432      3840.7412      0.99696119
   1324000  -1292.6794      215.48757     -1508.1669      283.49653     -127.88864      3840.7412      0.99696119
   1325000  -1249.2801      242.80061     -1492.0807      319.4297       188.57556      3840.7412      0.99696119
   1326000  -1288.1327      214.15452     -1502.2872      281.74276     -1364.4162      3840.7412      0.99696119
   1327000  -1289.7109      207.3323      -1497.0432      272.76741      317.96987      3840.7412      0.99696119
   1328000  -1288.6174      237.92358     -1526.541       313.01345     -591.56793      3840.7412      0.99696119
   1329000  -1302.4187      235.0935      -1537.5122      309.29018      1427.1407      3840.7412      0.99696119
   1330000  -1341.1911      188.72165     -1529.9127      248.28315     -3072.8096      3840.7412      0.99696119
   1331000  -1299.8062      218.72298     -1518.5291      287.75305      1590.0822      3840.7412      0.99696119
   1332000  -1362.3573      194.34054     -1556.6978      255.67538      386.85938      3840.7412      0.99696119
   1333000  -1341.7299      206.6638      -1548.3937      271.88794      17.294299      3840.7412      0.99696119
   1334000  -1297.6542      223.50596     -1521.1602      294.04557     -1141.8418      3840.7412      0.99696119
   1335000  -1307.9289      230.60816     -1538.5371      303.38925      509.02452      3840.7412      0.99696119
   1336000  -1281.6629      248.73194     -1530.3948      327.23298      928.32017      3840.7412      0.99696119
   1337000  -1320.8463      212.6567      -1533.503       279.77222      254.2735       3840.7412      0.99696119
   1338000  -1293.2521      232.34303     -1525.5952      305.67166      621.49761      3840.7412      0.99696119
   1339000  -1273.8039      241.36363     -1515.1675      317.5392       440.26952      3840.7412      0.99696119
   1340000  -1326.6664      216.46708     -1543.1335      284.78518     -1632.8929      3840.7412      0.99696119
   1341000  -1302.7291      239.18218     -1541.9113      314.66927      681.7651       3840.7412      0.99696119
   1342000  -1330.3295      221.6293      -1551.9588      291.57662      1180.0755      3840.7412      0.99696119
   1343000  -1296.3343      229.71849     -1526.0528      302.21879     -828.05505      3840.7412      0.99696119
   1344000  -1321.2374      221.21958     -1542.457       291.03759     -317.52684      3840.7412      0.99696119
   1345000  -1306.4775      211.5948      -1518.0723      278.37517      479.73498      3840.7412      0.99696119
   1346000  -1312.3306      220.25345     -1532.5841      289.76655      2713.6062      3840.7412      0.99696119
   1347000  -1260.4977      224.66609     -1485.1638      295.57183      1337.67        3840.7412      0.99696119
   1348000  -1287.9372      227.95071     -1515.8879      299.8931       176.12173      3840.7412      0.99696119
   1349000  -1325.811       219.92963     -1545.7407      289.34052      2358.6435      3840.7412      0.99696119
   1350000  -1300.9241      226.11694     -1527.0411      297.48057     -2226.1538      3840.7412      0.99696119
   1351000  -1294.043       231.00897     -1525.052       303.91656      651.41768      3840.7412      0.99696119
   1352000  -1277.2802      221.2464      -1498.5266      291.07287     -1235.466       3840.7412      0.99696119
   1353000  -1265.3137      226.24497     -1491.5587      297.64901      780.16822      3840.7412      0.99696119
   1354000  -1274.086       227.74457     -1501.8306      299.6219      -1841.8684      3840.7412      0.99696119
   1355000  -1297.7975      224.44594     -1522.2435      295.2822      -1271.0634      3840.7412      0.99696119
   1356000  -1269.8547      224.60542     -1494.4601      295.49201     -50.515634      3840.7412      0.99696119
   1357000  -1296.2906      233.50865     -1529.7992      307.20515      376.5115       3840.7412      0.99696119
   1358000  -1324.9644      213.71658     -1538.681       281.16661     -885.41289      3840.7412      0.99696119
   1359000  -1281.8407      233.00763     -1514.8483      306.546        1093.5856      3840.7412      0.99696119
   1360000  -1302.2516      216.25258     -1518.5042      284.50298      1001.3372      3840.7412      0.99696119
   1361000  -1306.5109      226.09194     -1532.6028      297.44768      884.56371      3840.7412      0.99696119
   1362000  -1278.7211      229.78081     -1508.5019      302.30078      976.62629      3840.7412      0.99696119
   1363000  -1284.4677      219.37016     -1503.8379      288.60448     -391.90375      3840.7412      0.99696119
   1364000  -1267.5248      235.6718      -1503.1966      310.051        1053.5813      3840.7412      0.99696119
   1365000  -1271.3821      235.36836     -1506.7505      309.65179     -938.29951      3840.7412      0.99696119
   1366000  -1293.7899      218.42394     -1512.2138      287.35963     -2002.9233      3840.7412      0.99696119
   1367000  -1283.8912      241.86185     -1525.753       318.19466     -1423.1742      3840.7412      0.99696119
   1368000  -1273.3441      215.87509     -1489.2192      284.00635      233.23395      3840.7412      0.99696119
   1369000  -1280.4669      227.49926     -1507.9661      299.29917      154.35948      3840.7412      0.99696119
   1370000  -1303.2864      222.08587     -1525.3723      292.17728     -678.45587      3840.7412      0.99696119
   1371000  -1293.0661      225.57903     -1518.6452      296.7729       575.93222      3840.7412      0.99696119
   1372000  -1309.1479      224.89368     -1534.0416      295.87125     -160.98494      3840.7412      0.99696119
   1373000  -1310.8791      232.33062     -1543.2097      305.65533     -1379.4791      3840.7412      0.99696119
   1374000  -1313.7263      209.74055     -1523.4669      275.93572      754.43176      3840.7412      0.99696119
   1375000  -1338.1559      219.90091     -1558.0568      289.30274     -99.495751      3840.7412      0.99696119
   1376000  -1290.5632      223.05958     -1513.6228      293.4583       184.49787      3840.7412      0.99696119
   1377000  -1288.0566      232.88588     -1520.9425      306.38583     -162.48667      3840.7412      0.99696119
   1378000  -1298.935       213.60425     -1512.5392      281.01882     -1556.6937      3840.7412      0.99696119
   1379000  -1314.6995      223.20147     -1537.901       293.64498      795.73565      3840.7412      0.99696119
   1380000  -1290.7849      236.9897      -1527.7746      311.78483      1101.7216      3840.7412      0.99696119
   1381000  -1291.3837      236.38882     -1527.7726      310.99431      192.02175      3840.7412      0.99696119
   1382000  -1299.5651      242.8893      -1542.4544      319.54639     -1276.1815      3840.7412      0.99696119
   1383000  -1280.3543      226.59633     -1506.9507      298.11126     -2168.3741      3840.7412      0.99696119
   1384000  -1281.1543      221.03849     -1502.1928      290.79934      59.8947        3840.7412      0.99696119
   1385000  -1282.7412      240.72977     -1523.4709      316.70529     -1142.9716      3840.7412      0.99696119
   1386000  -1260.4879      237.10708     -1497.595       311.93926     -877.29939      3840.7412      0.99696119
   1387000  -1311.3103      222.98101     -1534.2913      293.35493     -47.623209      3840.7412      0.99696119
   1388000  -1307.0139      225.61158     -1532.6255      296.81573      2170.6922      3840.7412      0.99696119
   1389000  -1333.5083      207.04421     -1540.5525      272.38839     -668.9388       3840.7412      0.99696119
   1390000  -1306.4568      231.70437     -1538.1612      304.83142     -183.64066      3840.7412      0.99696119
   1391000  -1276.6569      219.81879     -1496.4757      289.1947       1100.6611      3840.7412      0.99696119
   1392000  -1319.9037      215.71881     -1535.6225      283.80074     -1334.0401      3840.7412      0.99696119
   1393000  -1299.3867      223.06695     -1522.4537      293.46799     -958.6606       3840.7412      0.99696119
   1394000  -1302.8236      215.09621     -1517.9198      282.98165      577.31259      3840.7412      0.99696119
   1395000  -1285.4419      243.98653     -1529.4284      320.9899       710.85587      3840.7412      0.99696119
   1396000  -1309.7779      213.5769      -1523.3548      280.98284     -188.25966      3840.7412      0.99696119
   1397000  -1334.2207      219.18428     -1553.405       288.35994     -1104.5683      3840.7412      0.99696119
   1398000  -1298.0062      220.0644      -1518.0706      289.51782      1054.904       3840.7412      0.99696119
   1399000  -1304.0429      224.11889     -1528.1618      294.85193      87.374069      3840.7412      0.99696119
   1400000  -1298.1461      223.53474     -1521.6809      294.08342     -1695.4141      3840.7412      0.99696119
   1401000  -1311.1216      224.20323     -1535.3248      294.96289      1299.6235      3840.7412      0.99696119
   1402000  -1306.9638      235.7421      -1542.7059      310.14349     -656.89553      3840.7412      0.99696119
   1403000  -1319.6491      232.20833     -1551.8574      305.49444     -212.4963       3840.7412      0.99696119
   1404000  -1322.0499      224.07719     -1546.1271      294.79708      543.77063      3840.7412      0.99696119
   1405000  -1315.3248      220.07449     -1535.3993      289.53111     -2088.9482      3840.7412      0.99696119
   1406000  -1285.1228      253.72462     -1538.8474      333.80139      952.16053      3840.7412      0.99696119
   1407000  -1298.3068      231.44089     -1529.7477      304.48479     -897.07722      3840.7412      0.99696119
   1408000  -1334.3972      202.62368     -1537.0208      266.57273      2058.6679      3840.7412      0.99696119
   1409000  -1323.9546      219.99729     -1543.9518      289.42953      212.64485      3840.7412      0.99696119
   1410000  -1299.5909      225.03057     -1524.6215      296.05134      827.08833      3840.7412      0.99696119
   1411000  -1330.3459      227.65422     -1558.0001      299.50304     -965.30686      3840.7412      0.99696119
   1412000  -1261.1254      246.5162      -1507.6416      324.31794      487.25939      3840.7412      0.99696119
   1413000  -1296.554       217.17089     -1513.7249      285.71112     -1424.1146      3840.7412      0.99696119
   1414000  -1267.9639      231.0926      -1499.0565      304.02659      332.18014      3840.7412      0.99696119
   1415000  -1309.935       234.92571     -1544.8607      309.06944     -1049.4864      3840.7412      0.99696119
   1416000  -1293.0844      229.09047     -1522.1749      301.39257     -92.948422      3840.7412      0.99696119
   1417000  -1332.0582      207.15381     -1539.212       272.53259     -1332.2917      3840.7412      0.99696119
   1418000  -1296.8914      237.70334     -1534.5948      312.72371      556.62643      3840.7412      0.99696119
   1419000  -1302.9236      215.0276      -1517.9512      282.89139     -690.27799      3840.7412      0.99696119
   1420000  -1310.9744      236.99291     -1547.9673      311.78906     -559.27426      3840.7412      0.99696119
   1421000  -1264.7633      256.29559     -1521.0589      337.18377      209.90642      3840.7412      0.99696119
   1422000  -1268.0511      244.50497     -1512.5561      321.67196      416.187        3840.7412      0.99696119
   1423000  -1300.6998      228.96739     -1529.6672      301.23064     -515.39855      3840.7412      0.99696119
   1424000  -1283.6176      220.27681     -1503.8944      289.79728     -1982.5332      3840.7412      0.99696119
   1425000  -1251.8289      224.13727     -1475.9662      294.87612      660.07151      3840.7412      0.99696119
   1426000  -1286.7496      221.95722     -1508.7068      292.00803      145.29656      3840.7412      0.99696119
   1427000  -1287.371       235.85052     -1523.2215      310.28613      1138.5945      3840.7412      0.99696119
   1428000  -1280.8312      228.18983     -1509.021       300.20769      1073.7481      3840.7412      0.99696119
   1429000  -1270.6239      228.80911     -1499.433       301.02241     -113.71608      3840.7412      0.99696119
   1430000  -1220.1903      259.49432     -1479.6846      341.39203     -912.72723      3840.7412      0.99696119
   1431000  -1294.6574      222.18885     -1516.8462      292.31276     -2450.8993      3840.7412      0.99696119
   1432000  -1273.639       225.35505     -1498.9941      296.47823     -749.89914      3840.7412      0.99696119
   1433000  -1301.4359      219.5277      -1520.9636      288.81174     -129.07655      3840.7412      0.99696119
   1434000  -1279.588       238.34943     -1517.9374      313.5737       167.56265      3840.7412      0.99696119
   1435000  -1310.3717      217.61392     -1527.9856      286.29396     -1176.1996      3840.7412      0.99696119
   1436000  -1261.0172      246.44416     -1507.4613      324.22317      100.87996      3840.7412      0.99696119
   1437000  -1291.4373      250.3361      -1541.7734      329.34343     -747.23305      3840.7412      0.99696119
   1438000  -1324.7457      222.03497     -1546.7807      292.11032      374.35823      3840.7412      0.99696119
   1439000  -1295.018       225.18469     -1520.2027      296.25411      567.80284      3840.7412      0.99696119
   1440000  -1288.2656      217.06292     -1505.3285      285.56907     -1579.2607      3840.7412      0.99696119
   1441000  -1249.4903      242.97486     -1492.4652      319.65895     -138.11274      3840.7412      0.99696119
   1442000  -1291.401       235.61984     -1527.0208      309.98264      959.56797      3840.7412      0.99696119
   1443000  -1310.0291      229.81518     -1539.8442      302.346        952.90607      3840.7412      0.99696119
   1444000  -1320.0009      214.26394     -1534.2648      281.88672     -339.36222      3840.7412      0.99696119
   1445000  -1342.234       201.76013     -1543.9941      265.43664     -1532.6833      3840.7412      0.99696119
   1446000  -1278.8913      224.02975     -1502.921       294.73466     -1363.3455      3840.7412      0.99696119
   1447000  -1292.3854      219.3944      -1511.7798      288.63637      220.13576      3840.7412      0.99696119
   1448000  -1290.9409      217.19616     -1508.137       285.74435     -2216.9901      3840.7412      0.99696119
   1449000  -1294.1316      238.64682     -1532.7784      313.96495      288.93457      3840.7412      0.99696119
   1450000  -1317.8821      231.18751     -1549.0696      304.15145      1043.772       3840.7412      0.99696119
   1451000  -1322.9336      213.02968     -1535.9632      280.26291      485.12099      3840.7412      0.99696119
   1452000  -1281.0047      234.97052     -1515.9752      309.1284      -676.26205      3840.7412      0.99696119
   1453000  -1258.025       225.90838     -1483.9334      297.20619      1239.6601      3840.7412      0.99696119
   1454000  -1278.1999      234.23461     -1512.4345      308.16022     -322.71981      3840.7412      0.99696119
   1455000  -1284.6866      230.30835     -1514.9949      302.99481     -1017.4751      3840.7412      0.99696119
   1456000  -1282.0369      240.34123     -1522.3781      316.19412      414.25436      3840.7412      0.99696119
   1457000  -1308.605       221.83474     -1530.4398      291.8469       1047.5779      3840.7412      0.99696119
   1458000  -1265.7379      230.72023     -1496.4581      303.53669     -1696.2519      3840.7412      0.99696119
   1459000  -1296.5633      220.49999     -1517.0632      290.0909      -1290.3535      3840.7412      0.99696119
   1460000  -1277.5094      225.30484     -1502.8142      296.41218     -429.22374      3840.7412      0.99696119
   1461000  -1313.2055      212.07156     -1525.2771      279.00241     -656.1912       3840.7412      0.99696119
   1462000  -1289.0828      239.32043     -1528.4032      314.85116     -1016.6033      3840.7412      0.99696119
   1463000  -1301.4873      239.6753      -1541.1626      315.31803      1019.4201      3840.7412      0.99696119
   1464000  -1336.9151      221.87038     -1558.7855      291.89378     -298.40121      3840.7412      0.99696119
   1465000  -1300.9494      219.27956     -1520.2289      288.48529     -455.52148      3840.7412      0.99696119
   1466000  -1279.14        234.91151     -1514.0516      309.05076      7.3100141      3840.7412      0.99696119
   1467000  -1273.5771      241.05596     -1514.6331      317.13443      1814.3328      3840.7412      0.99696119
   1468000  -1295.5004      220.52503     -1516.0254      290.12383      884.9301       3840.7412      0.99696119
   1469000  -1266.2402      236.34969     -1502.5899      310.94283      3017.402       3840.7412      0.99696119
   1470000  -1308.8437      209.32327     -1518.1669      275.38674     -1458.0362      3840.7412      0.99696119
   1471000  -1298.4357      227.25162     -1525.6873      298.97337      599.07447      3840.7412      0.99696119
   1472000  -1272.2819      235.38908     -1507.671       309.67905      482.1948       3840.7412      0.99696119
   1473000  -1282.9783      253.25153     -1536.2298      333.17898     -2364.7482      3840.7412      0.99696119
   1474000  -1268.5346      225.65768     -1494.1923      296.87638     -373.47409      3840.7412      0.99696119
   1475000  -1340.2308      216.91297     -1557.1437      285.37179     -328.85043      3840.7412      0.99696119
   1476000  -1329.0119      218.56904     -1547.5809      287.55052     -12.553055      3840.7412      0.99696119
   1477000  -1265.3033      233.38425     -1498.6875      307.04149      1834.9356      3840.7412      0.99696119
   1478000  -1276.9261      217.44526     -1494.3713      286.07207     -728.39867      3840.7412      0.99696119
   1479000  -1314.4651      216.2652      -1530.7304      284.51958      518.33152      3840.7412      0.99696119
   1480000  -1283.1145      230.20024     -1513.3148      302.85259      910.99418      3840.7412      0.99696119
   1481000  -1316.2057      212.69211     -1528.8978      279.81881     -838.47729      3840.7412      0.99696119
   1482000  -1285.1049      233.27845     -1518.3833      306.9023      -1828.4696      3840.7412      0.99696119
   1483000  -1294.8462      203.71266     -1498.5589      268.00539     -2566.4367      3840.7412      0.99696119
   1484000  -1279.2749      227.76063     -1507.0355      299.64302      445.53233      3840.7412      0.99696119
   1485000  -1337.6893      215.76659     -1553.4559      283.8636       1111.4419      3840.7412      0.99696119
   1486000  -1275.4089      241.86262     -1517.2716      318.19567     -894.26351      3840.7412      0.99696119
   1487000  -1313.3752      225.96887     -1539.3441      297.28578     -704.01196      3840.7412      0.99696119
   1488000  -1292.6179      228.94991     -1521.5678      301.20765     -1166.6988      3840.7412      0.99696119
   1489000  -1318.9517      226.09318     -1545.0449      297.44932     -992.49431      3840.7412      0.99696119
   1490000  -1302.5119      228.05475     -1530.5667      300.02997     -2182.2364      3840.7412      0.99696119
   1491000  -1292.8521      217.48851     -1510.3406      286.12897     -606.03715      3840.7412      0.99696119
   1492000  -1328.7274      221.02421     -1549.7516      290.78055      1422.8564      3840.7412      0.99696119
   1493000  -1291.6948      225.84134     -1517.5362      297.118       -3188.5676      3840.7412      0.99696119
   1494000  -1287.3951      235.39284     -1522.788       309.684       -221.4199       3840.7412      0.99696119
   1495000  -1314.2271      232.33534     -1546.5624      305.66153      2881.4475      3840.7412      0.99696119
   1496000  -1300.2714      237.64627     -1537.9176      312.64862     -2.574123       3840.7412      0.99696119
   1497000  -1310.9377      221.87546     -1532.8131      291.90047     -1385.7498      3840.7412      0.99696119
   1498000  -1302.3273      233.62193     -1535.9492      307.35418      1359.6098      3840.7412      0.99696119
   1499000  -1289.2724      237.70303     -1526.9755      312.72329     -315.39073      3840.7412      0.99696119
   1500000  -1321.7893      213.79406     -1535.5833      281.26854      1320.8452      3840.7412      0.99696119
   1501000  -1275.958       236.37939     -1512.3374      310.9819      -146.90043      3840.7412      0.99696119
   1502000  -1278.8762      208.0493      -1486.9255      273.7107      -1135.8449      3840.7412      0.99696119
   1503000  -1285.7091      239.14175     -1524.8508      314.61609     -943.27713      3840.7412      0.99696119
   1504000  -1287.9965      217.61991     -1505.6164      286.30185     -2153.6559      3840.7412      0.99696119
   1505000  -1264.1351      229.76666     -1493.9017      302.28217     -236.04351      3840.7412      0.99696119
   1506000  -1264.3858      238.04725     -1502.433       313.17616      741.19735      3840.7412      0.99696119
   1507000  -1287.0263      228.91577     -1515.9421      301.16274      1674.7303      3840.7412      0.99696119
   1508000  -1283.5551      236.8845      -1520.4396      311.64643      1589.2028      3840.7412      0.99696119
   1509000  -1327.9932      213.96648     -1541.9597      281.49537      107.31283      3840.7412      0.99696119
   1510000  -1324.0112      227.36902     -1551.3802      299.12782     -1325.1814      3840.7412      0.99696119
   1511000  -1277.5246      241.0433      -1518.568       317.11777      1204.3956      3840.7412      0.99696119
   1512000  -1268.098       238.51545     -1506.6134      313.79212     -12.697883      3840.7412      0.99696119
   1513000  -1295.5468      223.65441     -1519.2012      294.24087     -2033.0107      3840.7412      0.99696119
   1514000  -1291.7041      215.57816     -1507.2823      283.6157      -934.50581      3840.7412      0.99696119
   1515000  -1269.7371      253.52784     -1523.265       333.54249     -1293.2564      3840.7412      0.99696119
   1516000  -1299.0316      250.82527     -1549.8569      329.98699      706.17552      3840.7412      0.99696119
   1517000  -1315.7824      213.96751     -1529.7499      281.49672      900.80059      3840.7412      0.99696119
   1518000  -1279.5693      223.46158     -1503.0308      293.98718     -1169.0149      3840.7412      0.99696119
   1519000  -1294.1639      215.66196     -1509.8258      283.72595     -2213.4298      3840.7412      0.99696119
   1520000  -1296.3505      224.53097     -1520.8814      295.39407     -451.93401      3840.7412      0.99696119
   1521000  -1321.8026      235.05639     -1556.859       309.24136     -1828.0963      3840.7412      0.99696119
   1522000  -1322.1917      232.39804     -1554.5897      305.74402      900.65192      3840.7412      0.99696119
   1523000  -1277.3424      229.4543      -1506.7967      301.87122     -320.94309      3840.7412      0.99696119
   1524000  -1242.0058      243.06589     -1485.0716      319.7787       959.62186      3840.7412      0.99696119
   1525000  -1281.1742      230.90554     -1512.0797      303.78049     -1491.6442      3840.7412      0.99696119
   1526000  -1271.2413      233.34694     -1504.5882      306.9924      -786.41674      3840.7412      0.99696119
   1527000  -1280.5323      226.26179     -1506.7941      297.67115      198.61316      3840.7412      0.99696119
   1528000  -1268.7091      231.45332     -1500.1624      304.50115      1630.0698      3840.7412      0.99696119
   1529000  -1319.5236      217.20133     -1536.7249      285.75116     -657.83131      3840.7412      0.99696119
   1530000  -1293.4167      237.41663     -1530.8333      312.34651      1148.0564      3840.7412      0.99696119
   1531000  -1264.2909      237.76161     -1502.0525      312.80036      632.59014      3840.7412      0.99696119
   1532000  -1244.9656      261.02494     -1505.9905      343.40572      1521.4538      3840.7412      0.99696119
   1533000  -1263.7213      241.31959     -1505.0409      317.48126     -1543.1813      3840.7412      0.99696119
   1534000  -1317.5716      197.96814     -1515.5397      260.44788     -2897.2485      3840.7412      0.99696119
   1535000  -1269.9184      220.18066     -1490.099       289.67078     -915.40922      3840.7412      0.99696119
   1536000  -1278.6477      225.00469     -1503.6524      296.0173       185.22932      3840.7412      0.99696119
   1537000  -1255.5336      244.89889     -1500.4325      322.19021      494.89764      3840.7412      0.99696119
   1538000  -1267.4435      241.25787     -1508.7014      317.40006      380.10839      3840.7412      0.99696119
   1539000  -1296.1398      232.09879     -1528.2385      305.35033      480.24625      3840.7412      0.99696119
   1540000  -1270.0782      227.15314     -1497.2313      298.84381      1932.4947      3840.7412      0.99696119
   1541000  -1285.509       222.70037     -1508.2094      292.98572     -1328.299       3840.7412      0.99696119
   1542000  -1280.5279      238.9419      -1519.4698      314.35316      584.82154      3840.7412      0.99696119
   1543000  -1296.36        224.48326     -1520.8433      295.33131      775.58148      3840.7412      0.99696119
   1544000  -1298.5526      231.91823     -1530.4709      305.11278      244.89401      3840.7412      0.99696119
   1545000  -1299.3061      228.29572     -1527.6019      300.347       -9.3442054      3840.7412      0.99696119
   1546000  -1299.3532      216.1672      -1515.5204      284.39065      2022.7735      3840.7412      0.99696119
   1547000  -1321.087       220.98354     -1542.0705      290.72705     -1132.4294      3840.7412      0.99696119
   1548000  -1304.9139      225.36715     -1530.2811      296.49415      479.95791      3840.7412      0.99696119
   1549000  -1327.1916      218.56841     -1545.76        287.54969     -798.10936      3840.7412      0.99696119
   1550000  -1325.1921      214.92168     -1540.1138      282.75204     -1073.0906      3840.7412      0.99696119
   1551000  -1297.1936      212.68016     -1509.8738      279.80308     -850.71772      3840.7412      0.99696119
   1552000  -1325.0162      222.34551     -1547.3617      292.51886     -531.15988      3840.7412      0.99696119
   1553000  -1325.933       204.82323     -1530.7563      269.46646     -79.210884      3840.7412      0.99696119
   1554000  -1310.0804      228.33047     -1538.4109      300.39271     -408.33819      3840.7412      0.99696119
   1555000  -1331.4588      223.44465     -1554.9034      293.96491     -133.812        3840.7412      0.99696119
   1556000  -1289.8578      234.69717     -1524.555       308.76877      557.9486       3840.7412      0.99696119
   1557000  -1286.4391      242.09657     -1528.5357      318.50346      662.41889      3840.7412      0.99696119
   1558000  -1263.7431      241.30613     -1505.0493      317.46355      184.2387       3840.7412      0.99696119
   1559000  -1307.0285      230.63908     -1537.6676      303.42992     -383.81313      3840.7412      0.99696119
   1560000  -1308.075       242.9652      -1551.0402      319.64624     -607.95545      3840.7412      0.99696119
   1561000  -1283.3431      217.24185     -1500.585       285.80447     -1268.9924      3840.7412      0.99696119
   1562000  -1243.0965      257.36259     -1500.4591      338.58751      372.50912      3840.7412      0.99696119
   1563000  -1275.0523      228.37224     -1503.4245      300.44767     -1304.6815      3840.7412      0.99696119
   1564000  -1297.2747      222.01623     -1519.2909      292.08566     -157.76322      3840.7412      0.99696119
   1565000  -1313.1351      213.56893     -1526.704       280.97235     -44.736717      3840.7412      0.99696119
   1566000  -1303.0408      238.15648     -1541.1973      313.31986     -1448.2215      3840.7412      0.99696119
   1567000  -1286.5524      224.06724     -1510.6196      294.78398     -1084.4176      3840.7412      0.99696119
   1568000  -1305.5309      224.12673     -1529.6577      294.86225     -2091.2262      3840.7412      0.99696119
   1569000  -1312.0503      212.5117      -1524.562       279.58146     -1231.8633      3840.7412      0.99696119
   1570000  -1308.3766      231.16909     -1539.5456      304.12721     -943.60707      3840.7412      0.99696119
   1571000  -1305.159       233.78185     -1538.9409      307.56458      966.83356      3840.7412      0.99696119
   1572000  -1283.9839      216.49634     -1500.4802      284.82367     -809.79221      3840.7412      0.99696119
   1573000  -1329.6788      196.3635      -1526.0423      258.3368      -382.60823      3840.7412      0.99696119
   1574000  -1298.7983      220.42347     -1519.2218      289.99022     -2455.4288      3840.7412      0.99696119
   1575000  -1295.0594      221.8801      -1516.9395      291.90657     -1312.5456      3840.7412      0.99696119
   1576000  -1311.6668      228.05704     -1539.7238      300.03299     -261.19864      3840.7412      0.99696119
   1577000  -1287.881       224.15901     -1512.04        294.90472      618.58492      3840.7412      0.99696119
   1578000  -1320.7907      220.23256     -1541.0233      289.73906      921.63448      3840.7412      0.99696119
   1579000  -1286.5619      228.89295     -1515.4548      301.13271     -201.15709      3840.7412      0.99696119
   1580000  -1277.0595      236.7279      -1513.7874      311.44041      1796.6233      3840.7412      0.99696119
   1581000  -1314.8085      234.64435     -1549.4529      308.69928     -690.61122      3840.7412      0.99696119
   1582000  -1259.966       241.70269     -1501.6687      317.98527     -1061.3229      3840.7412      0.99696119
   1583000  -1273.7797      239.95401     -1513.7337      315.68469      322.53342      3840.7412      0.99696119
   1584000  -1292.9402      234.36685     -1527.3071      308.3342       111.04746      3840.7412      0.99696119
   1585000  -1282.6885      221.92809     -1504.6166      291.96971     -899.19819      3840.7412      0.99696119
   1586000  -1353.5175      195.99892     -1549.5164      257.85716      561.63219      3840.7412      0.99696119
   1587000  -1293.4721      233.85646     -1527.3286      307.66273     -1376.0091      3840.7412      0.99696119
   1588000  -1308.7005      218.10279     -1526.8033      286.93712      601.53216      3840.7412      0.99696119
   1589000  -1311.0225      236.27997     -1547.3025      310.85111     -221.05556      3840.7412      0.99696119
   1590000  -1268.2352      217.82054     -1486.0558      286.56579      921.59728      3840.7412      0.99696119
   1591000  -1268.4792      227.83379     -1496.3129      299.73928     -1773.3655      3840.7412      0.99696119
   1592000  -1284.8655      229.84523     -1514.7107      302.38554     -136.93733      3840.7412      0.99696119
   1593000  -1276.9882      240.75616     -1517.7443      316.74001      64.572999      3840.7412      0.99696119
   1594000  -1268.938       237.6295      -1506.5675      312.62656     -1518.6225      3840.7412      0.99696119
   1595000  -1312.5936      213.62968     -1526.2233      281.05227     -433.46143      3840.7412      0.99696119
   1596000  -1331.423       221.22672     -1552.6497      291.04698      701.77993      3840.7412      0.99696119
   1597000  -1316.0815      235.00817     -1551.0897      309.17792     -160.72144      3840.7412      0.99696119
   1598000  -1315.0649      221.18128     -1536.2461      290.9872      -839.46739      3840.7412      0.99696119
   1599000  -1301.1041      208.30243     -1509.4065      274.04372     -1913.3637      3840.7412      0.99696119
   1600000  -1326.4264      222.97461     -1549.401       293.34652     -1114.4016      3840.7412      0.99696119
   1601000  -1307.703       234.93798     -1542.641       309.08559     -1481.1358      3840.7412      0.99696119
   1602000  -1310.8103      231.51643     -1542.3268      304.58417      481.48277      3840.7412      0.99696119
   1603000  -1277.55        237.12638     -1514.6764      311.96465     -1185.6277      3840.7412      0.99696119
   1604000  -1271.4993      223.14633     -1494.6456      293.57243      194.41763      3840.7412      0.99696119
   1605000  -1290.1818      239.26461     -1529.4464      314.77772      409.57008      3840.7412      0.99696119
   1606000  -1316.1774      215.00003     -1531.1774      282.85512     -143.67826      3840.7412      0.99696119
   1607000  -1298.7468      213.8457      -1512.5925      281.33647     -933.51058      3840.7412      0.99696119
   1608000  -1258.3492      222.49143     -1480.8406      292.71083     -1338.1656      3840.7412      0.99696119
   1609000  -1276.448       247.85307     -1524.3011      326.07674      374.49783      3840.7412      0.99696119
   1610000  -1312.9797      228.88989     -1541.8696      301.12868      852.11304      3840.7412      0.99696119
   1611000  -1269.4956      233.31617     -1502.8118      306.95191     -942.1141       3840.7412      0.99696119
   1612000  -1289.9752      236.65266     -1526.6279      311.34143     -1893.4325      3840.7412      0.99696119
   1613000  -1284.3611      240.06627     -1524.4274      315.83239      179.08538      3840.7412      0.99696119
   1614000  -1268.0992      249.74208     -1517.8413      328.56193     -398.73695      3840.7412      0.99696119
   1615000  -1309.3075      213.81295     -1523.1205      281.29338     -1582.7195      3840.7412      0.99696119
   1616000  -1285.7463      237.70164     -1523.4479      312.72147      322.51403      3840.7412      0.99696119
   1617000  -1328.98        218.68915     -1547.6691      287.70854      773.09568      3840.7412      0.99696119
   1618000  -1312.0431      213.28265     -1525.3257      280.59572     -1210.9703      3840.7412      0.99696119
   1619000  -1303.4101      216.11776     -1519.5278      284.3256      -904.86488      3840.7412      0.99696119
   1620000  -1290.957       230.3724      -1521.3294      303.07908      185.6239       3840.7412      0.99696119
   1621000  -1280.7484      219.42571     -1500.1741      288.67756     -336.41974      3840.7412      0.99696119
   1622000  -1278.7074      206.85281     -1485.5602      272.13659     -652.55897      3840.7412      0.99696119
   1623000  -1276.2148      211.41521     -1487.63        278.13891      1445.4947      3840.7412      0.99696119
   1624000  -1307.6749      216.79464     -1524.4696      285.21611      561.82251      3840.7412      0.99696119
   1625000  -1315.6749      203.18776     -1518.8627      267.31484      188.19677      3840.7412      0.99696119
   1626000  -1283.5508      227.75986     -1511.3107      299.64201     -37.105046      3840.7412      0.99696119
   1627000  -1273.2575      226.2758      -1499.5333      297.68958     -691.95271      3840.7412      0.99696119
   1628000  -1244.6513      236.89624     -1481.5475      311.66187     -796.4785       3840.7412      0.99696119
   1629000  -1242.4076      231.44862     -1473.8563      304.49497     -78.829504      3840.7412      0.99696119
   1630000  -1290.03        219.59003     -1509.6201      288.89374     -1550.4263      3840.7412      0.99696119
   1631000  -1262.5235      236.42559     -1498.9491      311.04269     -1161.417       3840.7412      0.99696119
   1632000  -1274.0041      243.08252     -1517.0866      319.80058     -1621.5465      3840.7412      0.99696119
   1633000  -1258.0968      223.18603     -1481.2828      293.62465      12.635256      3840.7412      0.99696119
   1634000  -1289.1687      227.87005     -1517.0388      299.78698      655.05748      3840.7412      0.99696119
   1635000  -1274.0401      226.10333     -1500.1435      297.46267      1222.3153      3840.7412      0.99696119
   1636000  -1226.488       246.83027     -1473.3182      324.73114     -512.83444      3840.7412      0.99696119
   1637000  -1296.7948      212.79254     -1509.5874      279.95093     -936.20502      3840.7412      0.99696119
   1638000  -1285.1955      225.71026     -1510.9058      296.94555     -653.54652      3840.7412      0.99696119
   1639000  -1293.0028      240.61427     -1533.6171      316.55334     -1556.9324      3840.7412      0.99696119
   1640000  -1305.5974      222.74653     -1528.3439      293.04645     -1377.0368      3840.7412      0.99696119
   1641000  -1313.1179      212.6711      -1525.789       279.79116      12.664012      3840.7412      0.99696119
   1642000  -1258.6616      242.21727     -1500.8789      318.66226      434.6218       3840.7412      0.99696119
   1643000  -1297.6079      218.3033      -1515.9112      287.20091      62.30585       3840.7412      0.99696119
   1644000  -1276.1029      226.22939     -1502.3323      297.62852     -785.76179      3840.7412      0.99696119
   1645000  -1261.2678      233.99094     -1495.2588      307.83965      1646.4822      3840.7412      0.99696119
   1646000  -1280.1106      233.93864     -1514.0492      307.77085     -544.7513       3840.7412      0.99696119
   1647000  -1293.6505      243.40706     -1537.0576      320.22755      490.96929      3840.7412      0.99696119
   1648000  -1312.8073      217.58064     -1530.3879      286.25018      1287.9328      3840.7412      0.99696119
   1649000  -1297.2397      216.74029     -1513.98        285.14461     -403.64219      3840.7412      0.99696119
   1650000  -1316.3701      237.77457     -1554.1447      312.81742      1043.1348      3840.7412      0.99696119
   1651000  -1284.4575      240.04133     -1524.4989      315.79957      338.62054      3840.7412      0.99696119
   1652000  -1270.0573      239.62251     -1509.6798      315.24857      1284.0173      3840.7412      0.99696119
   1653000  -1259.1873      234.68757     -1493.8748      308.75614     -1269.9933      3840.7412      0.99696119
   1654000  -1313.6454      204.97784     -1518.6232      269.66987      766.51706      3840.7412      0.99696119
   1655000  -1275.9961      232.40404     -1508.4001      305.75191      2025.4471      3840.7412      0.99696119
   1656000  -1288.1055      234.17267     -1522.2782      308.07873      204.01506      3840.7412      0.99696119
   1657000  -1261.4772      224.90709     -1486.3843      295.8889       454.02608      3840.7412      0.99696119
   1658000  -1296.1527      226.58067     -1522.7334      298.09066      269.76446      3840.7412      0.99696119
   1659000  -1332.347       217.89749     -1550.2445      286.66703     -1935.8763      3840.7412      0.99696119
   1660000  -1307.2973      215.03066     -1522.328       282.89542      1020.4787      3840.7412      0.99696119
   1661000  -1311.7018      246.38881     -1558.0906      324.15036     -1050.2397      3840.7412      0.99696119
   1662000  -1288.138       251.22761     -1539.3656      330.5163       965.09479      3840.7412      0.99696119
   1663000  -1324.2842      205.96396     -1530.2481      270.96721     -130.42346      3840.7412      0.99696119
   1664000  -1293.3059      223.04259     -1516.3485      293.43595      979.65132      3840.7412      0.99696119
   1665000  -1275.5304      225.80245     -1501.3329      297.06683      1915.1263      3840.7412      0.99696119
   1666000  -1267.5547      248.31979     -1515.8745      326.69076      189.4013       3840.7412      0.99696119
   1667000  -1300.0331      221.79149     -1521.8245      291.78999      1568.6744      3840.7412      0.99696119
   1668000  -1318.0879      207.5919      -1525.6798      273.10895     -2133.1843      3840.7412      0.99696119
   1669000  -1252.2359      231.05397     -1483.2899      303.97576     -562.67376      3840.7412      0.99696119
   1670000  -1242.9742      251.03208     -1494.0063      330.25906      443.33746      3840.7412      0.99696119
   1671000  -1268.6166      239.75963     -1508.3762      315.42896     -86.08257       3840.7412      0.99696119
   1672000  -1272.8467      236.21515     -1509.0618      310.76584     -179.08362      3840.7412      0.99696119
   1673000  -1317.3869      203.41595     -1520.8029      267.61504      1891.9245      3840.7412      0.99696119
   1674000  -1316.3444      234.09112     -1550.4356      307.97144      268.41596      3840.7412      0.99696119
   1675000  -1326.8464      230.15979     -1557.0062      302.79938      61.137199      3840.7412      0.99696119
   1676000  -1318.2601      236.69287     -1554.953       311.39432      375.28824      3840.7412      0.99696119
   1677000  -1288.0787      233.89142     -1521.9701      307.70873     -518.02847      3840.7412      0.99696119
   1678000  -1302.1272      221.68143     -1523.8086      291.6452       189.10697      3840.7412      0.99696119
   1679000  -1309.0516      202.18759     -1511.2392      265.99901     -1635.6456      3840.7412      0.99696119
   1680000  -1274.7003      255.27612     -1529.9764      335.84254      1190.5224      3840.7412      0.99696119
   1681000  -1312.2992      215.56191     -1527.8611      283.59432      966.73         3840.7412      0.99696119
   1682000  -1302.8193      211.58163     -1514.4009      278.35786      883.68208      3840.7412      0.99696119
   1683000  -1303.1805      213.01281     -1516.1934      280.24072      650.10525      3840.7412      0.99696119
   1684000  -1284.7111      219.96172     -1504.6728      289.38274     -325.92526      3840.7412      0.99696119
   1685000  -1263.4825      226.02152     -1489.504       297.35505     -897.15982      3840.7412      0.99696119
   1686000  -1273.9408      221.01231     -1494.9531      290.7649      -972.36547      3840.7412      0.99696119
   1687000  -1286.0544      219.02905     -1505.0835      288.15572      1040.5811      3840.7412      0.99696119
   1688000  -1296.1521      224.51303     -1520.6651      295.37046     -696.41657      3840.7412      0.99696119
   1689000  -1312.7561      230.19218     -1542.9483      302.84199     -185.79484      3840.7412      0.99696119
   1690000  -1323.1598      209.91608     -1533.0759      276.16665     -155.06068      3840.7412      0.99696119
   1691000  -1296.1759      231.18754     -1527.3634      304.15148     -1163.7639      3840.7412      0.99696119
   1692000  -1305.9425      214.20036     -1520.1429      281.80307     -43.538869      3840.7412      0.99696119
   1693000  -1288.2775      233.30256     -1521.58        306.93401      682.50452      3840.7412      0.99696119
   1694000  -1320.812       210.364       -1531.176       276.75594     -603.31028      3840.7412      0.99696119
   1695000  -1311.7578      202.54522     -1514.303       266.4695       920.98648      3840.7412      0.99696119
   1696000  -1325.6487      202.95105     -1528.5998      267.00341     -1747.5641      3840.7412      0.99696119
   1697000  -1311.9309      229.27947     -1541.2104      301.64122     -184.42606      3840.7412      0.99696119
   1698000  -1311.1663      219.97689     -1531.1431      289.4027       634.07991      3840.7412      0.99696119
   1699000  -1287.1961      216.15087     -1503.347       284.36917      662.01878      3840.7412      0.99696119
   1700000  -1323.0094      218.15959     -1541.169       287.01185     -787.199        3840.7412      0.99696119
   1701000  -1299.6227      229.42225     -1529.0449      301.82906      614.2066       3840.7412      0.99696119
   1702000  -1288.0563      226.80453     -1514.8608      298.38517     -1355.5478      3840.7412      0.99696119
   1703000  -1267.87        230.35375     -1498.2238      303.05455      2824.1778      3840.7412      0.99696119
   1704000  -1285.5058      217.53974     -1503.0455      286.19637      592.40911      3840.7412      0.99696119
   1705000  -1319.3535      233.19773     -1552.5512      306.7961       1107.1268      3840.7412      0.99696119
   1706000  -1297.1258      226.96863     -1524.0944      298.60107     -2102.1316      3840.7412      0.99696119
   1707000  -1323.51        207.47695     -1530.987       272.95771      238.1135       3840.7412      0.99696119
   1708000  -1307.4703      222.12482     -1529.5951      292.22852      1070.7016      3840.7412      0.99696119
   1709000  -1307.6111      226.44424     -1534.0554      297.91118     -1862.7608      3840.7412      0.99696119
   1710000  -1282.992       213.38687     -1496.3789      280.73283      278.78805      3840.7412      0.99696119
   1711000  -1283.1072      219.36584     -1502.4731      288.5988       1214.1882      3840.7412      0.99696119
   1712000  -1288.6329      226.50123     -1515.1342      297.98615      1027.8537      3840.7412      0.99696119
   1713000  -1281.1555      239.74782     -1520.9033      315.41344      2123.1081      3840.7412      0.99696119
   1714000  -1277.0086      217.61793     -1494.6266      286.29924     -323.40621      3840.7412      0.99696119
   1715000  -1305.5357      236.57026     -1542.106       311.23302      203.29753      3840.7412      0.99696119
   1716000  -1283.3384      229.48778     -1512.8262      301.91527      361.77684      3840.7412      0.99696119
   1717000  -1291.3719      243.61496     -1534.9869      320.50106     -475.98588      3840.7412      0.99696119
   1718000  -1273.9615      240.11142     -1514.0729      315.89179     -1096.4518      3840.7412      0.99696119
   1719000  -1303.3482      212.64569     -1515.9938      279.75773     -1849.2818      3840.7412      0.99696119
   1720000  -1263.0349      233.43988     -1496.4747      307.11468      2840.3884      3840.7412      0.99696119
   1721000  -1311.6087      208.51118     -1520.1198      274.31835     -1871.4987      3840.7412      0.99696119
   1722000  -1282.1419      220.75665     -1502.8986      290.42855     -1262.1001      3840.7412      0.99696119
   1723000  -1326.6802      225.33283     -1552.013       296.44899     -387.85794      3840.7412      0.99696119
   1724000  -1311.2366      219.9102      -1531.1468      289.31497      1244.2049      3840.7412      0.99696119
   1725000  -1323.2673      207.74635     -1531.0136      273.31214      75.545403      3840.7412      0.99696119
   1726000  -1281.0749      227.7948      -1508.8697      299.68798     -465.08331      3840.7412      0.99696119
   1727000  -1296.1584      224.10904     -1520.2674      294.83897     -76.343432      3840.7412      0.99696119
   1728000  -1326.6344      205.6184      -1532.2528      270.51259      746.6908       3840.7412      0.99696119
   1729000  -1331.4611      212.05144     -1543.5125      278.97594     -1132.2277      3840.7412      0.99696119
   1730000  -1293.2939      214.08953     -1507.3834      281.65726     -1117.9754      3840.7412      0.99696119
   1731000  -1303.6738      226.94558     -1530.6193      298.57074     -62.232722      3840.7412      0.99696119
   1732000  -1300.8555      235.1196      -1535.9751      309.32453      560.91225      3840.7412      0.99696119
   1733000  -1321.886       214.6267      -1536.5127      282.36397      264.7418       3840.7412      0.99696119
   1734000  -1271.5502      227.06182     -1498.6121      298.72366      516.51462      3840.7412      0.99696119
   1735000  -1264.1542      219.61818     -1483.7724      288.93078     -1750.0976      3840.7412      0.99696119
   1736000  -1303.3569      226.61384     -1529.9707      298.1343       8.3645054      3840.7412      0.99696119
   1737000  -1302.9054      214.99291     -1517.8983      282.84575      811.23552      3840.7412      0.99696119
   1738000  -1262.1139      236.38277     -1498.4967      310.98636      2719.5208      3840.7412      0.99696119
   1739000  -1288.9106      240.21936     -1529.13        316.0338      -1072.1156      3840.7412      0.99696119
   1740000  -1290.4844      224.44247     -1514.9269      295.27764      36.828885      3840.7412      0.99696119
   1741000  -1333.7811      218.20677     -1551.9878      287.07391      90.294         3840.7412      0.99696119
   1742000  -1310.0361      210.16625     -1520.2024      276.49577     -1077.0654      3840.7412      0.99696119
   1743000  -1309.0019      226.69636     -1535.6982      298.24287     -299.19448      3840.7412      0.99696119
   1744000  -1264.2317      244.51294     -1508.7446      321.68245      433.06605      3840.7412      0.99696119
   1745000  -1307.8875      225.1608      -1533.0483      296.22268     -2469.076       3840.7412      0.99696119
   1746000  -1297.0341      235.83501     -1532.8691      310.26571      1289.6287      3840.7412      0.99696119
   1747000  -1313.5731      221.30868     -1534.8818      291.15481      324.73476      3840.7412      0.99696119
   1748000  -1305.8205      234.29132     -1540.1118      308.23483      510.30038      3840.7412      0.99696119
   1749000  -1280.4458      243.68419     -1524.13        320.59214     -1299.4491      3840.7412      0.99696119
   1750000  -1328.8577      212.66393     -1541.5217      279.78174      31.149445      3840.7412      0.99696119
   1751000  -1309.7949      224.24515     -1534.04        295.01804      1087.5863      3840.7412      0.99696119
   1752000  -1351.6064      211.61087     -1563.2173      278.39633     -1975.3449      3840.7412      0.99696119
   1753000  -1310.3766      226.36655     -1536.7432      297.80897      608.01226      3840.7412      0.99696119
   1754000  -1316.3825      223.4904      -1539.8729      294.02509     -846.27424      3840.7412      0.99696119
   1755000  -1315.9287      220.23258     -1536.1613      289.73908     -617.05865      3840.7412      0.99696119
   1756000  -1279.3413      212.86624     -1492.2075      280.04789      864.88706      3840.7412      0.99696119
   1757000  -1251.8279      221.5954      -1473.4233      291.53202     -159.89178      3840.7412      0.99696119
   1758000  -1269.3037      235.62861     -1504.9323      309.99418      444.47563      3840.7412      0.99696119
   1759000  -1331.875       208.62962     -1540.5046      274.47417     -1228.6279      3840.7412      0.99696119
   1760000  -1313.1816      198.66311     -1511.8448      261.36219     -755.2733       3840.7412      0.99696119
   1761000  -1302.8038      217.81537     -1520.6192      286.559       -2513.9498      3840.7412      0.99696119
   1762000  -1295.2732      218.2197      -1513.4929      287.09093     -1133.2332      3840.7412      0.99696119
   1763000  -1283.5437      214.66854     -1498.2122      282.419        245.71684      3840.7412      0.99696119
   1764000  -1321.2117      232.15425     -1553.366       305.42329     -207.82374      3840.7412      0.99696119
   1765000  -1289.6811      247.18858     -1536.8697      325.20253     -241.90612      3840.7412      0.99696119
   1766000  -1316.9114      215.6099      -1532.5213      283.65746      670.32356      3840.7412      0.99696119
   1767000  -1285.0299      236.18691     -1521.2168      310.72868     -637.31205      3840.7412      0.99696119
   1768000  -1305.5369      239.2215      -1544.7584      314.721        966.27003      3840.7412      0.99696119
   1769000  -1333.4235      223.73532     -1557.1588      294.34731     -977.22386      3840.7412      0.99696119
   1770000  -1306.6235      230.65506     -1537.2785      303.45095      118.00252      3840.7412      0.99696119
   1771000  -1347.1412      219.95262     -1567.0939      289.37077     -665.79834      3840.7412      0.99696119
   1772000  -1310.9138      224.99764     -1535.9114      296.00802      1127.4554      3840.7412      0.99696119
   1773000  -1295.746       211.00196     -1506.748       277.59523     -480.3255       3840.7412      0.99696119
   1774000  -1270.3813      230.03844     -1500.4198      302.63973      619.31898      3840.7412      0.99696119
   1775000  -1279.6585      229.71906     -1509.3775      302.21955     -1051.3315      3840.7412      0.99696119
   1776000  -1291.7729      210.68787     -1502.4608      277.18202     -570.44453      3840.7412      0.99696119
   1777000  -1275.1973      240.04245     -1515.2398      315.80105      1171.671       3840.7412      0.99696119
   1778000  -1316.6791      203.71948     -1520.3986      268.01437      351.39811      3840.7412      0.99696119
   1779000  -1280.9571      241.91802     -1522.8751      318.26856      2.5970363      3840.7412      0.99696119
   1780000  -1314.1636      231.56721     -1545.7308      304.65098     -1169.7839      3840.7412      0.99696119
   1781000  -1310.373       235.32944     -1545.7024      309.60059     -1251.553       3840.7412      0.99696119
   1782000  -1296.5398      221.23683     -1517.7766      291.06028      1877.9549      3840.7412      0.99696119
   1783000  -1312.2021      243.67168     -1555.8738      320.57568      936.72609      3840.7412      0.99696119
   1784000  -1322.8126      213.67959     -1536.4921      281.11793     -1036.9728      3840.7412      0.99696119
   1785000  -1296.9609      231.96788     -1528.9288      305.1781       696.95561      3840.7412      0.99696119
   1786000  -1318.4876      222.16817     -1540.6558      292.28556     -1636.3832      3840.7412      0.99696119
   1787000  -1323.3353      225.13923     -1548.4745      296.19429      124.0238       3840.7412      0.99696119
   1788000  -1288.8737      255.59033     -1544.464       336.25592      812.71017      3840.7412      0.99696119
   1789000  -1328.6913      222.43055     -1551.1218      292.63074     -557.8741       3840.7412      0.99696119
   1790000  -1316.0451      220.4533      -1536.4985      290.02947      242.51686      3840.7412      0.99696119
   1791000  -1334.3504      203.73466     -1538.0851      268.03434      138.99038      3840.7412      0.99696119
   1792000  -1299.4865      244.16477     -1543.6513      321.22439     -1660.9369      3840.7412      0.99696119
   1793000  -1314.7078      220.28978     -1534.9975      289.81433     -357.95663      3840.7412      0.99696119
   1794000  -1292.2781      240.57377     -1532.8518      316.50005      988.87705      3840.7412      0.99696119
   1795000  -1316.5937      226.30463     -1542.8983      297.72751     -568.7238       3840.7412      0.99696119
   1796000  -1266.7061      246.89115     -1513.5972      324.81124      841.83649      3840.7412      0.99696119
   1797000  -1313.7398      225.26616     -1539.006       296.36129     -400.48336      3840.7412      0.99696119
   1798000  -1304.5719      219.1295      -1523.7014      288.28786     -606.54346      3840.7412      0.99696119
   1799000  -1327.6206      211.80555     -1539.4262      278.65244      281.05903      3840.7412      0.99696119
   1800000  -1319.4779      224.60767     -1544.0855      295.49498     -2163.5905      3840.7412      0.99696119
   1801000  -1341.3798      196.90938     -1538.2892      259.05496      353.93473      3840.7412      0.99696119
   1802000  -1279.8761      216.04848     -1495.9246      284.23446      180.6077       3840.7412      0.99696119
   1803000  -1310.4453      223.00709     -1533.4523      293.38925     -107.79781      3840.7412      0.99696119
   1804000  -1325.8382      217.56948     -1543.4077      286.2355       1247.4431      3840.7412      0.99696119
   1805000  -1339.4347      218.36812     -1557.8028      287.2862      -256.21712      3840.7412      0.99696119
   1806000  -1330.0067      217.53764     -1547.5443      286.19361     -202.41178      3840.7412      0.99696119
   1807000  -1291.3757      229.43054     -1520.8062      301.83996     -840.09497      3840.7412      0.99696119
   1808000  -1315.8009      228.64986     -1544.4508      300.8129      -344.32721      3840.7412      0.99696119
   1809000  -1300.7808      237.40999     -1538.1908      312.33777      1638.3717      3840.7412      0.99696119
   1810000  -1319.4028      232.02619     -1551.429       305.25481     -2682.5608      3840.7412      0.99696119
   1811000  -1299.5519      236.87134     -1536.4233      311.62912     -874.81054      3840.7412      0.99696119
   1812000  -1313.2293      221.61023     -1534.8395      291.55153     -1699.9648      3840.7412      0.99696119
   1813000  -1287.2395      223.22502     -1510.4645      293.67595      1077.4157      3840.7412      0.99696119
   1814000  -1305.2023      236.79865     -1542.001       311.53349     -411.97228      3840.7412      0.99696119
   1815000  -1257.5158      235.85927     -1493.375       310.29764      126.69082      3840.7412      0.99696119
   1816000  -1328.3434      200.30414     -1528.6476      263.52113      90.593427      3840.7412      0.99696119
   1817000  -1326.0563      217.23288     -1543.2892      285.79266     -149.32703      3840.7412      0.99696119
   1818000  -1289.4845      214.42599     -1503.9105      282.0999      -166.85661      3840.7412      0.99696119
   1819000  -1343.9153      196.6133      -1540.5286      258.66544     -263.74476      3840.7412      0.99696119
   1820000  -1328.7109      221.45314     -1550.1641      291.34486     -514.92853      3840.7412      0.99696119
   1821000  -1313.0016      220.90323     -1533.9048      290.6214       386.94261      3840.7412      0.99696119
   1822000  -1302.1304      240.58985     -1542.7202      316.52122      1072.2174      3840.7412      0.99696119
   1823000  -1309.1779      218.58119     -1527.7591      287.56651     -1270.9256      3840.7412      0.99696119
   1824000  -1289.302       239.91586     -1529.2178      315.6345       242.83007      3840.7412      0.99696119
   1825000  -1312.471       226.53999     -1539.011       298.03715     -1296.6505      3840.7412      0.99696119
   1826000  -1325.6514      224.69826     -1550.3496      295.61415      526.05989      3840.7412      0.99696119
   1827000  -1281.3114      247.93031     -1529.2417      326.17836      578.31402      3840.7412      0.99696119
   1828000  -1279.8719      240.27416     -1520.146       316.10589      74.167317      3840.7412      0.99696119
   1829000  -1281.4255      225.03644     -1506.4619      296.05906     -1086.2873      3840.7412      0.99696119
   1830000  -1328.9692      215.33253     -1544.3017      283.29255     -738.5579       3840.7412      0.99696119
   1831000  -1282.2578      232.55514     -1514.813       305.9507      -548.01653      3840.7412      0.99696119
   1832000  -1291.3606      228.88758     -1520.2482      301.12564      1125.6456      3840.7412      0.99696119
   1833000  -1293.668       226.82838     -1520.4964      298.41656     -2447.4343      3840.7412      0.99696119
   1834000  -1293.7983      217.41656     -1511.2148      286.03432      1130.064       3840.7412      0.99696119
   1835000  -1296.1813      240.52445     -1536.7058      316.43517      549.33602      3840.7412      0.99696119
   1836000  -1286.167       228.7577      -1514.9247      300.95478      925.32193      3840.7412      0.99696119
   1837000  -1302.0901      236.45442     -1538.5446      311.08062      398.92685      3840.7412      0.99696119
   1838000  -1297.9407      210.19229     -1508.1329      276.53003      1856.0486      3840.7412      0.99696119
   1839000  -1267.3946      220.99857     -1488.3932      290.74682     -343.3865       3840.7412      0.99696119
   1840000  -1297.0909      210.62661     -1507.7175      277.10142      623.62417      3840.7412      0.99696119
   1841000  -1256.6083      240.33638     -1496.9447      316.18774      46.011241      3840.7412      0.99696119
   1842000  -1288.6695      215.97297     -1504.6424      284.13512     -972.66012      3840.7412      0.99696119
   1843000  -1309.521       238.16457     -1547.6856      313.3305      -829.70116      3840.7412      0.99696119
   1844000  -1237.3995      236.79391     -1474.1934      311.52725     -441.26299      3840.7412      0.99696119
   1845000  -1307.739       229.53752     -1537.2765      301.98071     -164.45733      3840.7412      0.99696119
   1846000  -1287.0154      230.50702     -1517.5224      303.25619      1794.5464      3840.7412      0.99696119
   1847000  -1264.6455      238.37661     -1503.0221      313.60946     -1426.6188      3840.7412      0.99696119
   1848000  -1326.886       204.93369     -1531.8196      269.61179     -471.63361      3840.7412      0.99696119
   1849000  -1317.8832      222.85896     -1540.7422      293.19436      1162.6178      3840.7412      0.99696119
   1850000  -1307.8238      222.95162     -1530.7754      293.31627      2275.2476      3840.7412      0.99696119
   1851000  -1293.9494      226.58291     -1520.5323      298.09362      554.37997      3840.7412      0.99696119
   1852000  -1286.3586      232.11728     -1518.4759      305.37465     -462.40915      3840.7412      0.99696119
   1853000  -1310.3362      209.97255     -1520.3087      276.24093      364.38504      3840.7412      0.99696119
   1854000  -1262.2723      214.02733     -1476.2996      281.57542      370.98379      3840.7412      0.99696119
   1855000  -1276.3252      233.79267     -1510.1178      307.5788      -130.84353      3840.7412      0.99696119
   1856000  -1318.6935      211.26787     -1529.9614      277.94507     -1398.8717      3840.7412      0.99696119
   1857000  -1328.667       208.0494      -1536.7164      273.71083     -303.83449      3840.7412      0.99696119
   1858000  -1308.881       221.46107     -1530.342       291.35529      298.81728      3840.7412      0.99696119
   1859000  -1269.2346      220.97791     -1490.2125      290.71964      255.69066      3840.7412      0.99696119
   1860000  -1320.7235      216.76833     -1537.4918      285.1815       1470.2189      3840.7412      0.99696119
   1861000  -1274.1709      220.75578     -1494.9267      290.42742     -111.04847      3840.7412      0.99696119
   1862000  -1287.0952      234.15174     -1521.2469      308.0512       1152.9474      3840.7412      0.99696119
   1863000  -1314.7179      228.37828     -1543.0961      300.45561     -1007.9183      3840.7412      0.99696119
   1864000  -1310.269       226.42619     -1536.6952      297.88743     -105.17438      3840.7412      0.99696119
   1865000  -1273.6946      245.51954     -1519.2141      323.00674     -1015.9201      3840.7412      0.99696119
   1866000  -1283.0402      227.69592     -1510.7361      299.5579      -485.35162      3840.7412      0.99696119
   1867000  -1268.2458      201.89805     -1470.1438      265.61809     -1288.4946      3840.7412      0.99696119
   1868000  -1286.878       231.58568     -1518.4636      304.67528     -123.42162      3840.7412      0.99696119
   1869000  -1269.9987      250.69382     -1520.6926      329.81404      934.42618      3840.7412      0.99696119
   1870000  -1332.2316      225.1355      -1557.3671      296.18939     -568.31343      3840.7412      0.99696119
   1871000  -1296.6717      237.6886      -1534.3603      312.70431      1031.4487      3840.7412      0.99696119
   1872000  -1315.0276      215.68458     -1530.7122      283.75571     -1743.9529      3840.7412      0.99696119
   1873000  -1255.0856      219.43106     -1474.5167      288.68461     -2017.8938      3840.7412      0.99696119
   1874000  -1316.1416      209.14418     -1525.2858      275.15113      844.08825      3840.7412      0.99696119
   1875000  -1314.6509      220.20581     -1534.8568      289.70387      1194.0439      3840.7412      0.99696119
   1876000  -1298.4902      217.0076      -1515.4978      285.49628      1376.7515      3840.7412      0.99696119
   1877000  -1250.403       253.27419     -1503.6772      333.20879     -341.64457      3840.7412      0.99696119
   1878000  -1276.8048      216.16091     -1492.9657      284.38237     -635.32729      3840.7412      0.99696119
   1879000  -1282.0523      203.61569     -1485.668       267.87782     -609.47192      3840.7412      0.99696119
   1880000  -1274.1834      233.69359     -1507.877       307.44846     -1969.6379      3840.7412      0.99696119
   1881000  -1270.7385      215.88207     -1486.6205      284.01553     -628.74417      3840.7412      0.99696119
   1882000  -1302.5922      230.89655     -1533.4887      303.76866     -349.86132      3840.7412      0.99696119
   1883000  -1245.3475      250.10173     -1495.4493      329.03509      662.42257      3840.7412      0.99696119
   1884000  -1325.7304      215.89708     -1541.6274      284.03528      443.89697      3840.7412      0.99696119
   1885000  -1321.6244      228.51045     -1550.1349      300.62949      149.44134      3840.7412      0.99696119
   1886000  -1288.9918      244.38028     -1533.3721      321.50791     -498.00319      3840.7412      0.99696119
   1887000  -1312.8306      230.59916     -1543.4298      303.37741     -228.99315      3840.7412      0.99696119
   1888000  -1304.1362      226.50577     -1530.642       297.99213     -1593.8499      3840.7412      0.99696119
   1889000  -1276.9603      241.4908      -1518.4511      317.70651     -1127.3962      3840.7412      0.99696119
   1890000  -1264.158       220.16856     -1484.3265      289.65486     -1176.8488      3840.7412      0.99696119
   1891000  -1285.6634      227.84097     -1513.5043      299.74872     -212.4616       3840.7412      0.99696119
   1892000  -1303.4919      232.42512     -1535.917       305.77965     -750.42357      3840.7412      0.99696119
   1893000  -1320.3308      217.10407     -1537.4349      285.6232      -1813.8566      3840.7412      0.99696119
   1894000  -1287.8823      228.70557     -1516.5879      300.88619     -1747.7694      3840.7412      0.99696119
   1895000  -1295.8148      212.38221     -1508.197       279.4111      -536.38884      3840.7412      0.99696119
   1896000  -1258.3612      240.1665      -1498.5277      315.96425      841.76207      3840.7412      0.99696119
   1897000  -1303.0349      228.29864     -1531.3336      300.35084      239.10028      3840.7412      0.99696119
   1898000  -1286.36        243.63527     -1529.9953      320.52778     -693.23452      3840.7412      0.99696119
   1899000  -1323.3843      224.15455     -1547.5388      294.89885      2597.3894      3840.7412      0.99696119
   1900000  -1256.9767      244.49801     -1501.4747      321.66281     -1136.1784      3840.7412      0.99696119
   1901000  -1283.7119      217.19076     -1500.9027      285.73725     -541.96316      3840.7412      0.99696119
   1902000  -1332.1036      218.69896     -1550.8025      287.72145      168.98804      3840.7412      0.99696119
   1903000  -1308.487       227.46598     -1535.953       299.25538     -1389.0998      3840.7412      0.99696119
   1904000  -1279.0029      238.14423     -1517.1471      313.30374     -542.57821      3840.7412      0.99696119
   1905000  -1306.4423      231.61139     -1538.0537      304.70911     -128.47091      3840.7412      0.99696119
   1906000  -1250.6957      240.78607     -1491.4818      316.77936      4580.1896      3840.7412      0.99696119
   1907000  -1274.845       247.81251     -1522.6575      326.02337     -984.09899      3840.7412      0.99696119
   1908000  -1297.6302      215.90808     -1513.5383      284.04975      307.29069      3840.7412      0.99696119
   1909000  -1293.7795      233.38104     -1527.1605      307.03726      461.30374      3840.7412      0.99696119
   1910000  -1263.5275      242.63935     -1506.1669      319.21755     -1728.2422      3840.7412      0.99696119
   1911000  -1296.612       226.93777     -1523.5498      298.56047     -2610.4676      3840.7412      0.99696119
   1912000  -1314.6379      228.91961     -1543.5575      301.16779     -783.74019      3840.7412      0.99696119
   1913000  -1251.9928      249.37806     -1501.3708      328.08303      477.41413      3840.7412      0.99696119
   1914000  -1301.2399      212.50108     -1513.741       279.56748      816.87161      3840.7412      0.99696119
   1915000  -1324.059       220.28884     -1544.3478      289.8131      -2049.3682      3840.7412      0.99696119
   1916000  -1268.4682      232.88351     -1501.3517      306.38271     -1404.7919      3840.7412      0.99696119
   1917000  -1271.7245      214.10957     -1485.834       281.68362      790.2612       3840.7412      0.99696119
   1918000  -1253.842       248.69927     -1502.5412      327.19        -301.78946      3840.7412      0.99696119
   1919000  -1289.5731      232.0267      -1521.5998      305.25549      98.953355      3840.7412      0.99696119
   1920000  -1340.9247      208.60879     -1549.5335      274.44678     -1504.2763      3840.7412      0.99696119
   1921000  -1300.9139      220.16035     -1521.0742      289.64406     -1185.5342      3840.7412      0.99696119
   1922000  -1309.1203      211.33832     -1520.4587      278.03775     -969.68658      3840.7412      0.99696119
   1923000  -1302.8679      212.97982     -1515.8477      280.19731      737.0645       3840.7412      0.99696119
   1924000  -1291.158       226.28014     -1517.4382      297.69528     -569.07907      3840.7412      0.99696119
   1925000  -1269.6607      225.49007     -1495.1508      296.65587      1780.2647      3840.7412      0.99696119
   1926000  -1309.4887      211.58463     -1521.0734      278.3618       1461.1214      3840.7412      0.99696119
   1927000  -1260.0494      256.16451     -1516.2139      337.01131     -134.63177      3840.7412      0.99696119
   1928000  -1279.2272      227.69477     -1506.9219      299.55638     -27.235431      3840.7412      0.99696119
   1929000  -1300.7376      228.47197     -1529.2096      300.57887      1281.6173      3840.7412      0.99696119
   1930000  -1295.5752      243.01053     -1538.5857      319.70587      1002.6735      3840.7412      0.99696119
   1931000  -1310.1202      220.9152      -1531.0354      290.63714     -341.7231       3840.7412      0.99696119
   1932000  -1299.6621      222.73374     -1522.3958      293.02962      1047.2564      3840.7412      0.99696119
   1933000  -1265.6572      239.29241     -1504.9496      314.8143      -536.95927      3840.7412      0.99696119
   1934000  -1281.8299      225.29545     -1507.1253      296.39983      73.116684      3840.7412      0.99696119
   1935000  -1340.5818      196.11742     -1536.6992      258.01306      395.84261      3840.7412      0.99696119
   1936000  -1279.1853      229.25414     -1508.4394      301.60789      742.79362      3840.7412      0.99696119
   1937000  -1306.6215      226.4731      -1533.0946      297.94915     -2793.6213      3840.7412      0.99696119
   1938000  -1311.1802      233.90509     -1545.0853      307.7267       475.57412      3840.7412      0.99696119
   1939000  -1320.3633      228.7502      -1549.1135      300.9449      -1491.8088      3840.7412      0.99696119
   1940000  -1282.559       238.94396     -1521.503       314.35586     -295.41809      3840.7412      0.99696119
   1941000  -1293.2953      225.70178     -1518.9971      296.9344      -617.30664      3840.7412      0.99696119
   1942000  -1272.8508      235.34546     -1508.1963      309.62167      1031.9433      3840.7412      0.99696119
   1943000  -1319.6606      229.42695     -1549.0875      301.83524      427.53531      3840.7412      0.99696119
   1944000  -1251.6816      254.03787     -1505.7195      334.21349      585.00182      3840.7412      0.99696119
   1945000  -1317.3779      206.49165     -1523.8695      271.66145     -1196.0456      3840.7412      0.99696119
   1946000  -1313.7278      225.7512      -1539.479       296.99941     -1241.488       3840.7412      0.99696119
   1947000  -1294.4956      228.50228     -1522.9979      300.61874     -2843.0942      3840.7412      0.99696119
   1948000  -1282.4586      237.15615     -1519.6148      312.00382      625.4158       3840.7412      0.99696119
   1949000  -1317.7503      233.96707     -1551.7174      307.80824     -2992.3291      3840.7412      0.99696119
   1950000  -1304.6229      215.57648     -1520.1994      283.6135      -674.60311      3840.7412      0.99696119
   1951000  -1273.0267      237.25172     -1510.2784      312.12955      735.36279      3840.7412      0.99696119
   1952000  -1295.1719      233.5032      -1528.6751      307.19798      612.19137      3840.7412      0.99696119
   1953000  -1290.2698      205.93665     -1496.2065      270.93128     -2623.1013      3840.7412      0.99696119
   1954000  -1264.0361      237.18997     -1501.2261      312.04831     -1193.1848      3840.7412      0.99696119
   1955000  -1281.207       226.24696     -1507.4539      297.65163      970.55514      3840.7412      0.99696119
   1956000  -1317.4733      215.64652     -1533.1198      283.70564     -1302.4151      3840.7412      0.99696119
   1957000  -1261.7675      229.52584     -1491.2934      301.96535      1520.1741      3840.7412      0.99696119
   1958000  -1298.7217      233.79094     -1532.5127      307.57653      660.34551      3840.7412      0.99696119
   1959000  -1279.8543      231.83669     -1511.691       305.0055      -759.60804      3840.7412      0.99696119
   1960000  -1279.3328      211.62461     -1490.9574      278.41439     -1747.527       3840.7412      0.99696119
   1961000  -1255.0021      242.59866     -1497.6008      319.16401      813.28014      3840.7412      0.99696119
   1962000  -1286.4994      212.76838     -1499.2678      279.91914     -973.33304      3840.7412      0.99696119
   1963000  -1291.4798      225.58319     -1517.063       296.77838     -501.69672      3840.7412      0.99696119
   1964000  -1293.4017      222.76553     -1516.1672      293.07144     -229.17669      3840.7412      0.99696119
   1965000  -1285.4029      231.80844     -1517.2113      304.96835     -90.674219      3840.7412      0.99696119
   1966000  -1263.9419      238.38685     -1502.3287      313.62293      1318.4362      3840.7412      0.99696119
   1967000  -1271.9688      221.12065     -1493.0894      290.90743     -438.60377      3840.7412      0.99696119
   1968000  -1314.8344      221.98016     -1536.8146      292.03822     -475.48547      3840.7412      0.99696119
   1969000  -1284.4558      220.33179     -1504.7876      289.8696       1374.5334      3840.7412      0.99696119
   1970000  -1305.8223      240.52436     -1546.3467      316.43505     -235.28037      3840.7412      0.99696119
   1971000  -1304.4722      224.58676     -1529.0589      295.46746     -795.04579      3840.7412      0.99696119
   1972000  -1327.9902      217.18313     -1545.1734      285.72722      615.13215      3840.7412      0.99696119
   1973000  -1291.3201      227.30989     -1518.63        299.05003      1925.0658      3840.7412      0.99696119
   1974000  -1284.8185      212.61299     -1497.4315      279.71471      486.50508      3840.7412      0.99696119
   1975000  -1331.0386      207.25988     -1538.2985      272.67214     -77.231856      3840.7412      0.99696119
   1976000  -1312.8273      204.93157     -1517.7589      269.609       -668.22889      3840.7412      0.99696119
   1977000  -1262.7891      239.90447     -1502.6936      315.61952      339.16184      3840.7412      0.99696119
   1978000  -1300.488       228.08731     -1528.5753      300.0728      -103.2511       3840.7412      0.99696119
   1979000  -1271.7406      235.4549      -1507.1955      309.76564      907.32693      3840.7412      0.99696119
   1980000  -1298.5805      229.99        -1528.5705      302.576       -1110.2005      3840.7412      0.99696119
   1981000  -1274.2146      231.62046     -1505.8351      304.72103      674.8833       3840.7412      0.99696119
   1982000  -1297.7541      234.1299      -1531.884       308.02247     -293.82827      3840.7412      0.99696119
   1983000  -1263.6956      221.26954     -1484.9651      291.10332      683.47927      3840.7412      0.99696119
   1984000  -1272.145       228.04054     -1500.1855      300.01128     -1454.949       3840.7412      0.99696119
   1985000  -1297.3255      220.58198     -1517.9075      290.19875     -1252.7115      3840.7412      0.99696119
   1986000  -1332.6113      221.72647     -1554.3378      291.70445     -1607.759       3840.7412      0.99696119
   1987000  -1296.4299      234.64253     -1531.0724      308.69689      358.77293      3840.7412      0.99696119
   1988000  -1313.8969      233.88213     -1547.779       307.6965      -232.88268      3840.7412      0.99696119
   1989000  -1258.8399      239.69306     -1498.533       315.34139      1147.7305      3840.7412      0.99696119
   1990000  -1288.3743      225.43234     -1513.8066      296.57991      1255.6289      3840.7412      0.99696119
   1991000  -1283.9327      211.76575     -1495.6984      278.60009     -798.4077       3840.7412      0.99696119
   1992000  -1334.3374      227.54263     -1561.88        299.35622     -2289.6873      3840.7412      0.99696119
   1993000  -1305.4058      218.75522     -1524.161       287.79546     -1086.7531      3840.7412      0.99696119
   1994000  -1317.306       226.65506     -1543.961       298.18854      132.00795      3840.7412      0.99696119
   1995000  -1304.1167      240.94492     -1545.0616      316.98834     -1704.6304      3840.7412      0.99696119
   1996000  -1287.3314      234.60283     -1521.9343      308.64466     -1127.8405      3840.7412      0.99696119
   1997000  -1268.9255      239.85849     -1508.784       315.55904     -1684.5129      3840.7412      0.99696119
   1998000  -1283.3183      225.1584      -1508.4767      296.21952     -665.34269      3840.7412      0.99696119
   1999000  -1255.8017      233.87248     -1489.6742      307.68381      2320.6113      3840.7412      0.99696119
   2000000  -1290.7483      232.51851     -1523.2668      305.90251      1634.6718      3840.7412      0.99696119
   2001000  -1308.4704      225.31888     -1533.7892      296.43064     -1516.8458      3840.7412      0.99696119
   2002000  -1325.1497      224.77801     -1549.9277      295.71908     -696.0163       3840.7412      0.99696119
   2003000  -1306.7202      213.41112     -1520.1313      280.76474     -1120.2262      3840.7412      0.99696119
   2004000  -1283.6851      228.71621     -1512.4013      300.90019     -115.96688      3840.7412      0.99696119
   2005000  -1281.7453      218.56193     -1500.3072      287.54117     -10.816601      3840.7412      0.99696119
   2006000  -1298.1951      241.91965     -1540.1147      318.2707       1823.2094      3840.7412      0.99696119
   2007000  -1318.4456      239.66186     -1558.1075      315.30035      159.06838      3840.7412      0.99696119
   2008000  -1333.7529      241.1388      -1574.8917      317.24341     -185.85202      3840.7412      0.99696119
   2009000  -1290.2577      245.11415     -1535.3719      322.4734       2021.0968      3840.7412      0.99696119
   2010000  -1277.7932      219.13918     -1496.9324      288.3006      -548.77693      3840.7412      0.99696119
   2011000  -1271.0995      206.03577     -1477.1353      271.0617       1488.6035      3840.7412      0.99696119
   2012000  -1307.3759      243.377       -1550.7528      320.18799     -106.50026      3840.7412      0.99696119
   2013000  -1297.722       221.11359     -1518.8356      290.89814      263.70449      3840.7412      0.99696119
   2014000  -1273.7072      236.13656     -1509.8438      310.66243      309.97755      3840.7412      0.99696119
   2015000  -1279.8906      231.1396      -1511.0302      304.08841      529.69434      3840.7412      0.99696119
   2016000  -1310.6945      202.51318     -1513.2077      266.42735     -782.9572       3840.7412      0.99696119
   2017000  -1269.6839      234.00686     -1503.6908      307.8606       732.42482      3840.7412      0.99696119
   2018000  -1323.8062      225.84335     -1549.6496      297.12065     -1964.0352      3840.7412      0.99696119
   2019000  -1281.3623      246.2359      -1527.5982      323.94918      41.855829      3840.7412      0.99696119
   2020000  -1309.5381      221.08056     -1530.6187      290.8547      -1653.9021      3840.7412      0.99696119
   2021000  -1317.929       230.95231     -1548.8813      303.84202      223.41246      3840.7412      0.99696119
   2022000  -1327.8548      235.52942     -1563.3842      309.86369     -1050.204       3840.7412      0.99696119
   2023000  -1315.2214      236.13236     -1551.3538      310.65692     -1003.2087      3840.7412      0.99696119
   2024000  -1316.2732      227.86852     -1544.1417      299.78497     -767.78264      3840.7412      0.99696119
   2025000  -1320.4264      216.07338     -1536.4998      284.26722     -660.87054      3840.7412      0.99696119
   2026000  -1284.4755      237.77969     -1522.2552      312.82415      1951.2349      3840.7412      0.99696119
   2027000  -1278.938       222.31037     -1501.2484      292.47264     -428.87626      3840.7412      0.99696119
   2028000  -1276.2309      233.31235     -1509.5433      306.9469      -652.19851      3840.7412      0.99696119
   2029000  -1317.7767      213.81418     -1531.5909      281.29501      557.24892      3840.7412      0.99696119
   2030000  -1290.983       236.03458     -1527.0176      310.52827      935.26371      3840.7412      0.99696119
   2031000  -1267.4099      252.8644      -1520.2743      332.66967     -597.39894      3840.7412      0.99696119
   2032000  -1263.6883      249.89284     -1513.5811      328.76027     -709.60021      3840.7412      0.99696119
   2033000  -1300.1219      235.59232     -1535.7142      309.94644     -117.81035      3840.7412      0.99696119
   2034000  -1311.9465      218.52646     -1530.4729      287.4945      -361.28327      3840.7412      0.99696119
   2035000  -1288.7516      226.07368     -1514.8253      297.42367      83.451522      3840.7412      0.99696119
   2036000  -1241.3836      239.36051     -1480.7441      314.90388      1835.3182      3840.7412      0.99696119
   2037000  -1304.3988      217.9609      -1522.3597      286.75046      62.872065      3840.7412      0.99696119
   2038000  -1276.19        223.55438     -1499.7444      294.10926      2383.2386      3840.7412      0.99696119
   2039000  -1269.2867      232.57054     -1501.8572      305.97096      1741.2684      3840.7412      0.99696119
   2040000  -1309.9721      233.89989     -1543.872       307.71986     -751.06054      3840.7412      0.99696119
   2041000  -1347.6941      201.55736     -1549.2514      265.16987     -619.83968      3840.7412      0.99696119
   2042000  -1290.4261      231.57525     -1522.0013      304.66156     -2404.0776      3840.7412      0.99696119
   2043000  -1268.0492      253.58228     -1521.6315      333.61411      54.289851      3840.7412      0.99696119
   2044000  -1258.0632      238.00151     -1496.0647      313.11598      60.189738      3840.7412      0.99696119
   2045000  -1284.5488      223.08075     -1507.6296      293.48615     -1242.2473      3840.7412      0.99696119
   2046000  -1257.3735      228.96651     -1486.34        301.22949      2953.2185      3840.7412      0.99696119
   2047000  -1299.333       225.52629     -1524.8593      296.70352     -1193.9187      3840.7412      0.99696119
   2048000  -1305.057       220.10124     -1525.1582      289.56629      2387.0414      3840.7412      0.99696119
   2049000  -1287.4188      216.05696     -1503.4757      284.24562     -577.90093      3840.7412      0.99696119
   2050000  -1291.0523      229.46812     -1520.5204      301.88941     -724.74794      3840.7412      0.99696119
   2051000  -1316.1346      229.63822     -1545.7729      302.11319      379.8712       3840.7412      0.99696119
   2052000  -1272.4478      248.66073     -1521.1085      327.1393       2316.337       3840.7412      0.99696119
   2053000  -1327.0202      227.1874      -1554.2076      298.88887      602.40661      3840.7412      0.99696119
   2054000  -1276.7194      249.59425     -1526.3137      328.36745      5.1074197      3840.7412      0.99696119
   2055000  -1269.6655      222.69136     -1492.3569      292.97387      1886.9181      3840.7412      0.99696119
   2056000  -1267.1074      250.59397     -1517.7014      329.68268     -392.18514      3840.7412      0.99696119
   2057000  -1266.9301      225.84625     -1492.7763      297.12446     -1524.0913      3840.7412      0.99696119
   2058000  -1306.49        212.51652     -1519.0066      279.5878       2253.6308      3840.7412      0.99696119
   2059000  -1288.6295      232.32244     -1520.9519      305.64456      1884.6121      3840.7412      0.99696119
   2060000  -1255.6417      254.94918     -1510.5909      335.41242      1056.4942      3840.7412      0.99696119
   2061000  -1288.4018      224.6791      -1513.0809      295.58895      1593.1443      3840.7412      0.99696119
   2062000  -1287.5316      232.7291      -1520.2607      306.17957      1163.8761      3840.7412      0.99696119
   2063000  -1289.524       228.78767     -1518.3117      300.99421      471.5751       3840.7412      0.99696119
   2064000  -1303.5051      215.4907      -1518.9958      283.50064     -771.52807      3840.7412      0.99696119
   2065000  -1285.1918      242.36491     -1527.5567      318.8565       112.96163      3840.7412      0.99696119
   2066000  -1302.2136      219.29627     -1521.5099      288.50727     -861.78467      3840.7412      0.99696119
   2067000  -1307.5918      222.81263     -1530.4045      293.13341      1348.5633      3840.7412      0.99696119
   2068000  -1273.6617      223.75339     -1497.4151      294.37108     -1464.0004      3840.7412      0.99696119
   2069000  -1279.8791      227.93716     -1507.8162      299.87527     -162.39415      3840.7412      0.99696119
   2070000  -1335.9508      204.5484      -1540.4992      269.1049      -1009.7439      3840.7412      0.99696119
   2071000  -1314.7759      197.78235     -1512.5582      260.20345     -1016.6093      3840.7412      0.99696119
   2072000  -1259.9054      232.02518     -1491.9306      305.25348     -596.92558      3840.7412      0.99696119
   2073000  -1296.5225      211.13227     -1507.6548      277.76667      1213.1303      3840.7412      0.99696119
   2074000  -1292.6262      243.30218     -1535.9284      320.08956     -1346.5304      3840.7412      0.99696119
   2075000  -1290.5353      222.92818     -1513.4635      293.28543      1865.057       3840.7412      0.99696119
   2076000  -1290.5202      225.06912     -1515.5893      296.10207      1242.6215      3840.7412      0.99696119
   2077000  -1289.8263      219.22034     -1509.0467      288.40737      870.84245      3840.7412      0.99696119
   2078000  -1291.1785      220.1342      -1511.3127      289.60966      1079.6264      3840.7412      0.99696119
   2079000  -1287.5008      237.75467     -1525.2554      312.79124      1940.8244      3840.7412      0.99696119
   2080000  -1296.1293      223.47729     -1519.6065      294.00784     -432.91027      3840.7412      0.99696119
   2081000  -1315.0688      205.98409     -1521.0529      270.99369     -608.29081      3840.7412      0.99696119
   2082000  -1315.7863      218.08541     -1533.8717      286.91426      77.808512      3840.7412      0.99696119
   2083000  -1291.6459      212.60482     -1504.2508      279.70397      1428.4496      3840.7412      0.99696119
   2084000  -1320.3273      223.6008      -1543.9281      294.17033     -70.962523      3840.7412      0.99696119
   2085000  -1291.4374      228.09128     -1519.5287      300.07802      1351.0922      3840.7412      0.99696119
   2086000  -1313.4254      233.42495     -1546.8503      307.09503      416.68252      3840.7412      0.99696119
   2087000  -1292.6611      233.36827     -1526.0294      307.02046     -902.47643      3840.7412      0.99696119
   2088000  -1287.6707      241.26728     -1528.938       317.41244     -542.83872      3840.7412      0.99696119
   2089000  -1246.5847      247.45868     -1494.0433      325.55787      1933.5629      3840.7412      0.99696119
   2090000  -1326.5733      217.80695     -1544.3802      286.54792     -1561.9374      3840.7412      0.99696119
   2091000  -1318.9757      233.38534     -1552.361       307.04292     -2229.6367      3840.7412      0.99696119
   2092000  -1308.9667      228.62842     -1537.5951      300.78469     -1179.0281      3840.7412      0.99696119
   2093000  -1278.9085      203.60563     -1482.5141      267.86458      1843.2543      3840.7412      0.99696119
   2094000  -1246.6059      231.84155     -1478.4474      305.01191      2007.6705      3840.7412      0.99696119
   2095000  -1275.6689      237.14674     -1512.8157      311.99144      1515.0196      3840.7412      0.99696119
   2096000  -1306.4636      227.21877     -1533.6824      298.93015     -307.5662       3840.7412      0.99696119
   2097000  -1311.986       219.93382     -1531.9199      289.34603      1702.9889      3840.7412      0.99696119
   2098000  -1326.3839      201.89848     -1528.2824      265.61865      752.70071      3840.7412      0.99696119
   2099000  -1284.0837      238.89313     -1522.9768      314.28899     -3.0866221      3840.7412      0.99696119
   2100000  -1284.7339      232.65285     -1517.3868      306.07925     -1653.6876      3840.7412      0.99696119
   2101000  -1298.3802      233.60296     -1531.9832      307.32923      692.5945       3840.7412      0.99696119
   2102000  -1310.1374      224.59111     -1534.7285      295.47319     -410.70557      3840.7412      0.99696119
   2103000  -1340.0338      206.1512      -1546.185       271.21355     -1013.755       3840.7412      0.99696119
   2104000  -1291.343       241.01451     -1532.3575      317.0799       1786.1217      3840.7412      0.99696119
   2105000  -1316.4045      237.68865     -1554.0932      312.70438     -728.0054       3840.7412      0.99696119
   2106000  -1329.2588      223.28339     -1552.5422      293.75274      613.11935      3840.7412      0.99696119
   2107000  -1280.3244      218.1858      -1498.5102      287.04633     -697.87778      3840.7412      0.99696119
   2108000  -1284.7458      233.62289     -1518.3687      307.35544      963.9291       3840.7412      0.99696119
   2109000  -1320.4556      226.69519     -1547.1508      298.24132     -31.009119      3840.7412      0.99696119
   2110000  -1271.2259      229.76543     -1500.9913      302.28056     -687.22689      3840.7412      0.99696119
   2111000  -1307.6596      218.16675     -1525.8263      287.02127     -3375.0031      3840.7412      0.99696119
   2112000  -1300.8478      221.51431     -1522.3621      291.42534     -1792.3145      3840.7412      0.99696119
   2113000  -1286.3988      216.6409      -1503.0397      285.01386     -2569.3083      3840.7412      0.99696119
   2114000  -1296.9456      230.63607     -1527.5817      303.42597     -349.56337      3840.7412      0.99696119
   2115000  -1304.9425      221.02964     -1525.9721      290.7877      -2224.9829      3840.7412      0.99696119
   2116000  -1272.8031      226.19298     -1498.996       297.58061      1030.367       3840.7412      0.99696119
   2117000  -1261.8         234.48133     -1496.2813      308.48481     -215.7609       3840.7412      0.99696119
   2118000  -1291.1557      221.85805     -1513.0137      291.87756     -302.58804      3840.7412      0.99696119
   2119000  -1297.7476      219.5669      -1517.3145      288.86331     -2007.9123      3840.7412      0.99696119
   2120000  -1303.9359      241.70677     -1545.6426      317.99063     -655.82289      3840.7412      0.99696119
   2121000  -1277.1347      227.62048     -1504.7552      299.45864     -644.47604      3840.7412      0.99696119
   2122000  -1289.528       214.7999      -1504.3279      282.59183     -108.83545      3840.7412      0.99696119
   2123000  -1297.9472      234.75848     -1532.7057      308.84943     -554.7592       3840.7412      0.99696119
   2124000  -1310.8575      216.04237     -1526.8999      284.22642     -238.48097      3840.7412      0.99696119
   2125000  -1284.0505      240.06542     -1524.1159      315.83126      1110.799       3840.7412      0.99696119
   2126000  -1319.1606      247.85973     -1567.0204      326.0855       1149.5912      3840.7412      0.99696119
   2127000  -1298.2715      242.9783      -1541.2498      319.66347      346.32758      3840.7412      0.99696119
   2128000  -1281.3389      211.7894      -1493.1283      278.6312       335.94646      3840.7412      0.99696119
   2129000  -1285.9156      229.00588     -1514.9214      301.28128     -2141.3385      3840.7412      0.99696119
   2130000  -1263.3395      227.88228     -1491.2218      299.80306      1407.1141      3840.7412      0.99696119
   2131000  -1306.3759      226.86264     -1533.2386      298.46163     -149.883        3840.7412      0.99696119
   2132000  -1304.3609      228.10159     -1532.4625      300.09159      1911.0345      3840.7412      0.99696119
   2133000  -1303.4716      229.93244     -1533.4041      302.50027     -416.14522      3840.7412      0.99696119
   2134000  -1283.0153      253.03693     -1536.0523      332.89666      486.88091      3840.7412      0.99696119
   2135000  -1266.644       249.83622     -1516.4803      328.68578     -2175.517       3840.7412      0.99696119
   2136000  -1309.9579      225.87551     -1535.8334      297.16296     -143.80197      3840.7412      0.99696119
   2137000  -1299.2411      204.50565     -1503.7467      269.04866      200.80144      3840.7412      0.99696119
   2138000  -1275.1529      206.74416     -1481.8971      271.99365     -260.81258      3840.7412      0.99696119
   2139000  -1280.5296      223.44635     -1503.976       293.96713     -100.43789      3840.7412      0.99696119
   2140000  -1290.2109      229.14488     -1519.3558      301.46416      1797.4209      3840.7412      0.99696119
   2141000  -1290.5992      225.35187     -1515.9511      296.47405      2512.373       3840.7412      0.99696119
   2142000  -1317.8948      222.63456     -1540.5294      292.89914     -77.482952      3840.7412      0.99696119
   2143000  -1294.5471      236.52456     -1531.0717      311.17289      1082.0225      3840.7412      0.99696119
   2144000  -1305.4082      242.68726     -1548.0955      319.28058      2237.7022      3840.7412      0.99696119
   2145000  -1316.7046      221.14254     -1537.8471      290.93624     -1239.6643      3840.7412      0.99696119
   2146000  -1245.1777      232.41328     -1477.591       305.76408      2556.0645      3840.7412      0.99696119
   2147000  -1257.5465      235.18069     -1492.7272      309.40489      298.05884      3840.7412      0.99696119
   2148000  -1312.2365      210.98385     -1523.2204      277.57141     -1195.463       3840.7412      0.99696119
   2149000  -1288.0349      223.09132     -1511.1262      293.50006     -1623.0154      3840.7412      0.99696119
   2150000  -1293.9667      223.88874     -1517.8554      294.54915      49.798697      3840.7412      0.99696119
   2151000  -1295.3887      234.09665     -1529.4854      307.97872     -89.501213      3840.7412      0.99696119
   2152000  -1328.5414      201.30045     -1529.8419      264.83188      1066.0981      3840.7412      0.99696119
   2153000  -1309.0633      226.28531     -1535.3486      297.70209      413.04329      3840.7412      0.99696119
   2154000  -1275.1322      229.41752     -1504.5498      301.82283     -168.18793      3840.7412      0.99696119
   2155000  -1287.0431      226.26578     -1513.3089      297.67639     -1079.9109      3840.7412      0.99696119
   2156000  -1289.7363      214.85284     -1504.5891      282.66147     -1642.7385      3840.7412      0.99696119
   2157000  -1275.2638      212.27287     -1487.5366      279.26725      1657.7707      3840.7412      0.99696119
   2158000  -1273.6387      234.49823     -1508.137       308.50705      30.581218      3840.7412      0.99696119
   2159000  -1303.6647      217.88033     -1521.5451      286.64445     -400.69332      3840.7412      0.99696119
   2160000  -1279.9847      237.56479     -1517.5494      312.54142     -772.75095      3840.7412      0.99696119
   2161000  -1288.1453      231.24225     -1519.3875      304.22346      696.51834      3840.7412      0.99696119
   2162000  -1319.4348      240.42743     -1559.8622      316.30754      330.58392      3840.7412      0.99696119
   2163000  -1316.9312      223.33085     -1540.2621      293.81519      156.22456      3840.7412      0.99696119
   2164000  -1324.9552      224.21095     -1549.1662      294.97305     -2554.5749      3840.7412      0.99696119
   2165000  -1295.2107      230.86191     -1526.0726      303.72309      1598.2888      3840.7412      0.99696119
   2166000  -1325.4656      222.98384     -1548.4494      293.35866     -901.38415      3840.7412      0.99696119
   2167000  -1320.2627      216.71819     -1536.9809      285.11554     -634.90208      3840.7412      0.99696119
   2168000  -1277.3152      232.90406     -1510.2193      306.40974     -757.6271       3840.7412      0.99696119
   2169000  -1293.1484      226.0864      -1519.2348      297.4404      -344.37058      3840.7412      0.99696119
   2170000  -1300.6315      226.26916     -1526.9007      297.68083      861.30407      3840.7412      0.99696119
   2171000  -1286.3022      248.7812      -1535.0834      327.2978       1278.6597      3840.7412      0.99696119
   2172000  -1305.4055      229.57974     -1534.9853      302.03626     -897.46459      3840.7412      0.99696119
   2173000  -1266.1571      229.02494     -1495.182       301.30636     -1157.7609      3840.7412      0.99696119
   2174000  -1260.1999      227.21138     -1487.4113      298.92044      322.14949      3840.7412      0.99696119
   2175000  -1295.3917      217.10639     -1512.4981      285.62625     -192.49739      3840.7412      0.99696119
   2176000  -1296.6383      225.18769     -1521.826       296.25805      2757.4592      3840.7412      0.99696119
   2177000  -1246.5335      251.5275      -1498.061       330.91084      1997.3007      3840.7412      0.99696119
   2178000  -1279.9556      216.32707     -1496.2827      284.60097      1170.5111      3840.7412      0.99696119
   2179000  -1293.2344      224.62806     -1517.8624      295.52181      147.11892      3840.7412      0.99696119
   2180000  -1301.0034      215.74604     -1516.7494      283.83658      117.50553      3840.7412      0.99696119
   2181000  -1264.7192      235.78732     -1500.5065      310.20298      560.57486      3840.7412      0.99696119
   2182000  -1284.8248      213.28515     -1498.11        280.59901      448.08985      3840.7412      0.99696119
   2183000  -1248.1609      250.55349     -1498.7143      329.62943     -309.12655      3840.7412      0.99696119
   2184000  -1300.5223      219.44813     -1519.9704      288.70706     -1490.2377      3840.7412      0.99696119
   2185000  -1296.9375      233.13749     -1530.075       306.71685     -592.99908      3840.7412      0.99696119
   2186000  -1298.5976      219.56155     -1518.1592      288.85627     -887.33076      3840.7412      0.99696119
   2187000  -1283.2022      218.59631     -1501.7985      287.5864       1439.0599      3840.7412      0.99696119
   2188000  -1304.578       226.20445     -1530.7824      297.5957      -1065.4253      3840.7412      0.99696119
   2189000  -1239.634       231.00302     -1470.637       303.90872     -443.67363      3840.7412      0.99696119
   2190000  -1284.8895      215.07439     -1499.9639      282.95294     -1056.3392      3840.7412      0.99696119
   2191000  -1269.3843      238.3325      -1507.7168      313.55143     -12.709627      3840.7412      0.99696119
   2192000  -1287.0144      228.58963     -1515.604       300.73366     -829.09606      3840.7412      0.99696119
   2193000  -1337.1641      229.72356     -1566.8876      302.22546     -370.8839       3840.7412      0.99696119
   2194000  -1314.2936      218.73834     -1533.0319      287.77326     -593.94798      3840.7412      0.99696119
   2195000  -1279.6992      230.33805     -1510.0372      303.03389      1404.7262      3840.7412      0.99696119
   2196000  -1325.3112      211.84277     -1537.1539      278.70141     -1719.965       3840.7412      0.99696119
   2197000  -1314.3724      226.92717     -1541.2996      298.54652      657.2794       3840.7412      0.99696119
   2198000  -1321.528       224.82614     -1546.3541      295.78239     -2676.2216      3840.7412      0.99696119
   2199000  -1283.3957      230.69983     -1514.0955      303.50986     -274.68672      3840.7412      0.99696119
   2200000  -1294.4914      244.03085     -1538.5223      321.04821      188.09268      3840.7412      0.99696119
   2201000  -1293.4082      209.57679     -1502.985       275.72027      508.47007      3840.7412      0.99696119
   2202000  -1276.6349      233.81201     -1510.4469      307.60425      34.666823      3840.7412      0.99696119
   2203000  -1292.9742      232.89332     -1525.8676      306.39562      440.10366      3840.7412      0.99696119
   2204000  -1310.6274      217.90602     -1528.5334      286.67826      2291.5513      3840.7412      0.99696119
   2205000  -1247.9034      251.12941     -1499.0329      330.38711      797.76245      3840.7412      0.99696119
   2206000  -1300.7214      224.58987     -1525.3112      295.47156      67.540058      3840.7412      0.99696119
   2207000  -1302.1102      228.05737     -1530.1676      300.03342      1113.7764      3840.7412      0.99696119
   2208000  -1300.6113      239.00051     -1539.6119      314.43027      591.75461      3840.7412      0.99696119
   2209000  -1299.6338      246.61769     -1546.2514      324.45146     -598.92705      3840.7412      0.99696119
   2210000  -1291.2877      219.13726     -1510.4249      288.29808      98.118766      3840.7412      0.99696119
   2211000  -1273.5843      224.44833     -1498.0326      295.28534     -1262.329       3840.7412      0.99696119
   2212000  -1294.8933      222.08451     -1516.9778      292.17549      1740.3234      3840.7412      0.99696119
   2213000  -1317.0972      212.54123     -1529.6384      279.6203      -689.2211       3840.7412      0.99696119
   2214000  -1303.5165      225.1104      -1528.6269      296.15637     -906.88193      3840.7412      0.99696119
   2215000  -1268.2837      247.74835     -1516.032       325.93897     -1276.1099      3840.7412      0.99696119
   2216000  -1321.4887      222.76098     -1544.2497      293.06546      510.58007      3840.7412      0.99696119
   2217000  -1304.3663      224.28996     -1528.6563      295.07699      1112.4187      3840.7412      0.99696119
   2218000  -1252.6669      230.74994     -1483.4169      303.57578     -471.68301      3840.7412      0.99696119
   2219000  -1312.2259      233.803       -1546.0289      307.59239     -908.32191      3840.7412      0.99696119
   2220000  -1274.7789      225.80411     -1500.583       297.06901     -1853.7178      3840.7412      0.99696119
   2221000  -1309.6028      216.59235     -1526.1951      284.94997      99.916311      3840.7412      0.99696119
   2222000  -1289.3612      223.92559     -1513.2868      294.59763     -821.07599      3840.7412      0.99696119
   2223000  -1292.6426      222.33449     -1514.9771      292.50437      915.36754      3840.7412      0.99696119
   2224000  -1283.1021      225.00636     -1508.1084      296.01949      818.98252      3840.7412      0.99696119
   2225000  -1314.6719      213.98333     -1528.6552      281.51754     -972.04226      3840.7412      0.99696119
   2226000  -1290.5369      228.73027     -1519.2671      300.91869      936.56932      3840.7412      0.99696119
   2227000  -1283.4029      225.43036     -1508.8332      296.57731      302.59319      3840.7412      0.99696119
   2228000  -1314.1808      221.7474      -1535.9282      291.73199     -500.04208      3840.7412      0.99696119
   2229000  -1289.1986      229.49706     -1518.6957      301.92748      98.343818      3840.7412      0.99696119
   2230000  -1304.9276      221.53383     -1526.4614      291.45101      1890.6172      3840.7412      0.99696119
   2231000  -1311.7131      218.24148     -1529.9546      287.11959     -96.8453        3840.7412      0.99696119
   2232000  -1287.6936      227.94424     -1515.6378      299.88458     -422.43948      3840.7412      0.99696119
   2233000  -1334.2353      209.89682     -1544.1322      276.14131     -322.19068      3840.7412      0.99696119
   2234000  -1315.7487      219.99186     -1535.7406      289.42239     -331.80492      3840.7412      0.99696119
   2235000  -1305.4508      227.56406     -1533.0149      299.38441      1405.0297      3840.7412      0.99696119
   2236000  -1319.2888      210.33409     -1529.6229      276.71658     -1008.4756      3840.7412      0.99696119
   2237000  -1310.1727      225.18632     -1535.359       296.25625      558.43057      3840.7412      0.99696119
   2238000  -1309.0401      207.03757     -1516.0776      272.37966     -505.00107      3840.7412      0.99696119
   2239000  -1289.3119      230.74091     -1520.0528      303.5639      -583.19637      3840.7412      0.99696119
   2240000  -1335.0994      224.58004     -1559.6794      295.45862      477.27444      3840.7412      0.99696119
   2241000  -1298.4211      227.30305     -1525.7241      299.04103     -1015.4382      3840.7412      0.99696119
   2242000  -1267.2365      214.15454     -1481.391       281.74278     -381.02201      3840.7412      0.99696119
   2243000  -1310.8957      235.04356     -1545.9393      309.22449      574.2824       3840.7412      0.99696119
   2244000  -1263.0799      234.63625     -1497.7162      308.68863     -694.52993      3840.7412      0.99696119
   2245000  -1250.4598      251.87492     -1502.3348      331.36791      2906.9771      3840.7412      0.99696119
   2246000  -1299.0847      233.51932     -1532.604       307.21918      236.33906      3840.7412      0.99696119
   2247000  -1294.1192      221.3755      -1515.4947      291.24271     -244.91023      3840.7412      0.99696119
   2248000  -1298.1236      210.5865      -1508.7101      277.04866     -562.13654      3840.7412      0.99696119
   2249000  -1312.2389      230.76321     -1543.0021      303.59323      176.05201      3840.7412      0.99696119
   2250000  -1271.2954      245.90616     -1517.2016      323.51537     -233.54301      3840.7412      0.99696119
   2251000  -1293.4755      231.15486     -1524.6303      304.10849      441.25872      3840.7412      0.99696119
   2252000  -1302.1199      239.0438      -1541.1637      314.48722      339.68049      3840.7412      0.99696119
   2253000  -1324.9503      206.3151      -1531.2654      271.42918     -1414.1006      3840.7412      0.99696119
   2254000  -1288.5651      229.26073     -1517.8258      301.61657      1375.8895      3840.7412      0.99696119
   2255000  -1274.0079      230.94447     -1504.9524      303.8317       187.24857      3840.7412      0.99696119
   2256000  -1296.1703      214.21108     -1510.3814      281.81717     -1991.8803      3840.7412      0.99696119
   2257000  -1291.2342      225.40774     -1516.6419      296.54755      799.71325      3840.7412      0.99696119
   2258000  -1318.5938      214.68266     -1533.2765      282.43758      1393.689       3840.7412      0.99696119
   2259000  -1284.8936      236.2336      -1521.1272      310.7901      -636.21527      3840.7412      0.99696119
   2260000  -1315.5712      228.81374     -1544.3849      301.0285       882.21231      3840.7412      0.99696119
   2261000  -1308.9831      213.36392     -1522.3471      280.70264     -1082.921       3840.7412      0.99696119
   2262000  -1273.5937      225.96069     -1499.5544      297.27501     -806.38512      3840.7412      0.99696119
   2263000  -1298.5656      229.41662     -1527.9822      301.82166     -1610.3652      3840.7412      0.99696119
   2264000  -1298.0978      220.71035     -1518.8082      290.36764      439.48521      3840.7412      0.99696119
   2265000  -1310.5983      220.12201     -1530.7203      289.59361     -19.112792      3840.7412      0.99696119
   2266000  -1310.308       197.5069      -1507.8149      259.84106     -2923.7211      3840.7412      0.99696119
   2267000  -1289.1327      223.1339      -1512.2666      293.55608     -737.75039      3840.7412      0.99696119
   2268000  -1270.8857      242.68726     -1513.5729      319.28057     -45.958872      3840.7412      0.99696119
   2269000  -1299.5983      218.68124     -1518.2795      287.69813     -410.77011      3840.7412      0.99696119
   2270000  -1293.3298      207.40529     -1500.7351      272.86343     -1590.7277      3840.7412      0.99696119
   2271000  -1307.0084      209.46494     -1516.4734      275.57312      1353.836       3840.7412      0.99696119
   2272000  -1260.9332      237.90649     -1498.8397      312.99097     -2328.5898      3840.7412      0.99696119
   2273000  -1288.4773      227.31716     -1515.7945      299.0596      -688.62315      3840.7412      0.99696119
   2274000  -1339.7219      209.27727     -1548.9991      275.32623      194.6482       3840.7412      0.99696119
   2275000  -1285.2942      231.09312     -1516.3873      304.02726     -1306.4406      3840.7412      0.99696119
   2276000  -1290.1228      221.81005     -1511.9328      291.81441     -655.64533      3840.7412      0.99696119
   2277000  -1286.561       228.97599     -1515.537       301.24196     -271.99851      3840.7412      0.99696119
   2278000  -1300.746       208.61063     -1509.3567      274.4492       95.919024      3840.7412      0.99696119
   2279000  -1279.0891      213.46325     -1492.5523      280.83332     -84.868265      3840.7412      0.99696119
   2280000  -1289.2234      218.0479      -1507.2713      286.8649       558.22353      3840.7412      0.99696119
   2281000  -1292.1906      223.37623     -1515.5669      293.87488     -22.769468      3840.7412      0.99696119
   2282000  -1292.5518      232.12115     -1524.6729      305.37975      1974.8647      3840.7412      0.99696119
   2283000  -1316.1361      207.61853     -1523.7547      273.14397      419.06515      3840.7412      0.99696119
   2284000  -1316.9687      213.32819     -1530.2969      280.65564      575.0347       3840.7412      0.99696119
   2285000  -1267.3644      235.94002     -1503.3045      310.40387      1130.2738      3840.7412      0.99696119
   2286000  -1302.4596      214.33747     -1516.7971      281.98345     -833.75619      3840.7412      0.99696119
   2287000  -1321.1784      227.39689     -1548.5753      299.16448     -658.47489      3840.7412      0.99696119
   2288000  -1291.1753      258.35        -1549.5253      339.88655      511.83425      3840.7412      0.99696119
   2289000  -1312.3829      215.91819     -1528.3011      284.06305     -1616.724       3840.7412      0.99696119
   2290000  -1293.1363      226.1907      -1519.327       297.57762     -2264.9749      3840.7412      0.99696119
   2291000  -1330.8669      209.4185      -1540.2854      275.51203     -240.13554      3840.7412      0.99696119
   2292000  -1287.6776      230.60887     -1518.2865      303.39019      576.17627      3840.7412      0.99696119
   2293000  -1308.9707      233.97366     -1542.9444      307.81692      265.86051      3840.7412      0.99696119
   2294000  -1280.8156      239.13765     -1519.9532      314.61069      1824.9213      3840.7412      0.99696119
   2295000  -1316.1351      206.81051     -1522.9456      272.08094      385.69187      3840.7412      0.99696119
   2296000  -1288.7112      231.17417     -1519.8854      304.13389     -1311.322       3840.7412      0.99696119
   2297000  -1280.0641      243.58767     -1523.6518      320.46516      1529.7842      3840.7412      0.99696119
   2298000  -1272.0044      239.49888     -1511.5033      315.08592     -1230.1062      3840.7412      0.99696119
   2299000  -1297.3308      222.52124     -1519.852       292.75006      383.35502      3840.7412      0.99696119
   2300000  -1303.402       231.50629     -1534.9083      304.57084     -522.27516      3840.7412      0.99696119
   2301000  -1282.6799      229.43389     -1512.1137      301.84437      3849.455       3840.7412      0.99696119
   2302000  -1319.6246      235.37291     -1554.9975      309.65778     -1659.2342      3840.7412      0.99696119
   2303000  -1254.118       232.35567     -1486.4737      305.68828     -1366.1694      3840.7412      0.99696119
   2304000  -1290.5849      198.63603     -1489.2209      261.32655     -1679.0196      3840.7412      0.99696119
   2305000  -1260.3018      230.13168     -1490.4335      302.76239     -601.61622      3840.7412      0.99696119
   2306000  -1299.1062      227.04225     -1526.1484      298.69792     -408.4427       3840.7412      0.99696119
   2307000  -1279.2107      245.66193     -1524.8727      323.19407     -970.14667      3840.7412      0.99696119
   2308000  -1300.8921      224.89239     -1525.7845      295.86956      388.96977      3840.7412      0.99696119
   2309000  -1253.9824      244.20702     -1498.1895      321.27998     -298.66344      3840.7412      0.99696119
   2310000  -1302.6404      222.04722     -1524.6877      292.12644     -1777.582       3840.7412      0.99696119
   2311000  -1235.0927      262.26412     -1497.3568      345.03599      1012.2953      3840.7412      0.99696119
   2312000  -1311.2446      233.91832     -1545.163       307.74411     -405.20691      3840.7412      0.99696119
   2313000  -1267.9993      226.58531     -1494.5846      298.09677     -1287.6814      3840.7412      0.99696119
   2314000  -1275.8463      220.04866     -1495.895       289.49712     -1695.5683      3840.7412      0.99696119
   2315000  -1272.9819      240.23418     -1513.2161      316.05329      537.15194      3840.7412      0.99696119
   2316000  -1306.73        230.19984     -1536.9298      302.85206      647.30728      3840.7412      0.99696119
   2317000  -1346.0017      227.9699      -1573.9716      299.91834     -313.1699       3840.7412      0.99696119
   2318000  -1305.2378      224.41388     -1529.6517      295.24002      1179.823       3840.7412      0.99696119
   2319000  -1340.0232      203.55614     -1543.5793      267.79947     -228.9442       3840.7412      0.99696119
   2320000  -1310.1045      226.96253     -1537.067       298.59304     -50.270862      3840.7412      0.99696119
   2321000  -1316.4926      216.16113     -1532.6537      284.38266      454.11995      3840.7412      0.99696119
   2322000  -1325.608       211.2655      -1536.8735      277.94195     -291.02444      3840.7412      0.99696119
   2323000  -1293.0288      229.0236      -1522.0524      301.3046       1734.4626      3840.7412      0.99696119
   2324000  -1284.0028      238.09147     -1522.0943      313.23433     -631.87975      3840.7412      0.99696119
   2325000  -1295.1871      217.37838     -1512.5655      285.98408     -174.90994      3840.7412      0.99696119
   2326000  -1286.8029      216.92751     -1503.7305      285.39092     -443.13182      3840.7412      0.99696119
   2327000  -1282.051       227.01271     -1509.0637      298.65906     -1293.7647      3840.7412      0.99696119
   2328000  -1312.6013      228.41554     -1541.0168      300.50463     -623.29335      3840.7412      0.99696119
   2329000  -1312.4553      213.83191     -1526.2873      281.31833      660.6081       3840.7412      0.99696119
   2330000  -1291.1491      227.2699      -1518.419       298.99742     -1435.2335      3840.7412      0.99696119
   2331000  -1289.6649      226.62908     -1516.294       298.15435      67.480146      3840.7412      0.99696119
   2332000  -1279.2754      219.97261     -1499.248       289.39706     -60.813794      3840.7412      0.99696119
   2333000  -1319.9404      212.99492     -1532.9353      280.21718      495.93743      3840.7412      0.99696119
   2334000  -1291.7941      235.11787     -1526.912       309.32225      822.99573      3840.7412      0.99696119
   2335000  -1289.9159      220.25228     -1510.1681      289.76501      389.0469       3840.7412      0.99696119
   2336000  -1291.9922      226.4637      -1518.4559      297.93678      964.92495      3840.7412      0.99696119
   2337000  -1317.5131      210.38239     -1527.8955      276.78012     -23.923881      3840.7412      0.99696119
   2338000  -1290.7771      204.37984     -1495.1569      268.88314     -1799.4822      3840.7412      0.99696119
   2339000  -1316.7786      218.16958     -1534.9481      287.02499      179.83004      3840.7412      0.99696119
   2340000  -1310.2606      242.64499     -1552.9056      319.22497     -264.11125      3840.7412      0.99696119
   2341000  -1324.7659      230.6562      -1555.422       303.45245      256.85977      3840.7412      0.99696119
   2342000  -1309.9342      229.04164     -1538.9758      301.32833     -541.65495      3840.7412      0.99696119
   2343000  -1320.2351      216.25322     -1536.4883      284.50382     -1036.8833      3840.7412      0.99696119
   2344000  -1304.4443      217.7549      -1522.1992      286.47943      1110.9102      3840.7412      0.99696119
   2345000  -1276.6124      252.38424     -1528.9966      332.03797      421.58793      3840.7412      0.99696119
   2346000  -1321.3742      222.79223     -1544.1665      293.10657      547.87999      3840.7412      0.99696119
   2347000  -1315.4438      213.20683     -1528.6506      280.49597      412.89943      3840.7412      0.99696119
   2348000  -1259.971       238.00605     -1497.977       313.12195     -722.11131      3840.7412      0.99696119
   2349000  -1298.7         205.49184     -1504.1919      270.34609     -893.48579      3840.7412      0.99696119
   2350000  -1296.8679      215.39818     -1512.2661      283.37892     -690.50418      3840.7412      0.99696119
   2351000  -1339.3783      200.25628     -1539.6346      263.45816      1069.2322      3840.7412      0.99696119
   2352000  -1266.2847      252.69272     -1518.9775      332.44381      261.00018      3840.7412      0.99696119
   2353000  -1299.9124      215.49595     -1515.4083      283.50756     -1621.5605      3840.7412      0.99696119
   2354000  -1282.2493      238.83831     -1521.0876      314.21687      1130.9316      3840.7412      0.99696119
   2355000  -1286.8973      225.48799     -1512.3853      296.65313     -1030.7892      3840.7412      0.99696119
   2356000  -1267.4012      224.25677     -1491.658       295.03333     -1698.277       3840.7412      0.99696119
   2357000  -1252.8015      218.57617     -1471.3777      287.55991      629.46829      3840.7412      0.99696119
   2358000  -1304.9843      227.40846     -1532.3927      299.17971     -898.22642      3840.7412      0.99696119
   2359000  -1271.7924      234.68473     -1506.4771      308.7524      -556.41656      3840.7412      0.99696119
   2360000  -1263.269       242.15201     -1505.421       318.5764      -172.49277      3840.7412      0.99696119
   2361000  -1283.8124      213.02492     -1496.8373      280.25665      628.20555      3840.7412      0.99696119
   2362000  -1272.7321      213.95665     -1486.6887      281.48244     -379.16783      3840.7412      0.99696119
   2363000  -1268.2798      268.10915     -1536.389       352.72575     -272.11601      3840.7412      0.99696119
   2364000  -1299.0643      226.62752     -1525.6918      298.1523      -656.2083       3840.7412      0.99696119
   2365000  -1299.7359      213.53999     -1513.2759      280.93428     -857.48872      3840.7412      0.99696119
   2366000  -1302.5411      228.7658      -1531.3069      300.96543     -1440.902       3840.7412      0.99696119
   2367000  -1289.9602      218.34851     -1508.3087      287.26039     -889.40171      3840.7412      0.99696119
   2368000  -1274.6294      232.55837     -1507.1878      305.95496     -363.74072      3840.7412      0.99696119
   2369000  -1304.7936      206.86927     -1511.6629      272.15825      1515.3289      3840.7412      0.99696119
   2370000  -1296.2962      214.92387     -1511.2201      282.75492      1032.9166      3840.7412      0.99696119
   2371000  -1302.6165      227.62509     -1530.2416      299.46471      1194.3901      3840.7412      0.99696119
   2372000  -1276.9923      229.49269     -1506.485       301.92174     -1843.4615      3840.7412      0.99696119
   2373000  -1333.8999      209.44803     -1543.3479      275.55087      1389.4455      3840.7412      0.99696119
   2374000  -1307.6504      214.97724     -1522.6276      282.82513     -200.41472      3840.7412      0.99696119
   2375000  -1328.8855      215.16201     -1544.0475      283.06822      2087.1503      3840.7412      0.99696119
   2376000  -1280.1625      248.29413     -1528.4567      326.657        348.96941      3840.7412      0.99696119
   2377000  -1250.9292      247.48467     -1498.4139      325.59207      153.94854      3840.7412      0.99696119
   2378000  -1288.5414      213.65042     -1502.1918      281.07957      655.72126      3840.7412      0.99696119
   2379000  -1285.1198      221.93817     -1507.0579      291.98297     -804.28126      3840.7412      0.99696119
   2380000  -1291.4507      224.38732     -1515.838       295.20508     -45.459741      3840.7412      0.99696119
   2381000  -1274.7389      236.6048      -1511.3437      311.27846     -817.95075      3840.7412      0.99696119
   2382000  -1285.4985      224.33517     -1509.8336      295.13647     -339.46941      3840.7412      0.99696119
   2383000  -1274.7322      235.6964      -1510.4286      310.08336     -1221.2597      3840.7412      0.99696119
   2384000  -1273.1742      226.43195     -1499.6061      297.89501     -1513.5196      3840.7412      0.99696119
   2385000  -1284.5865      232.20436     -1516.7909      305.48922     -957.89876      3840.7412      0.99696119
   2386000  -1282.5392      236.97143     -1519.5106      311.7608      -417.62127      3840.7412      0.99696119
   2387000  -1260.3982      242.35655     -1502.7548      318.84548     -2372.1369      3840.7412      0.99696119
   2388000  -1300.0506      234.48032     -1534.531       308.48348      522.79031      3840.7412      0.99696119
   2389000  -1291.7878      224.18528     -1515.9731      294.93928     -166.14931      3840.7412      0.99696119
   2390000  -1303.5421      231.89499     -1535.4371      305.08221      1543.0466      3840.7412      0.99696119
   2391000  -1283.756       233.02788     -1516.7839      306.57265      1268.2612      3840.7412      0.99696119
   2392000  -1308.3336      216.81766     -1525.1512      285.24639     -2901.8942      3840.7412      0.99696119
   2393000  -1277.2994      234.80097     -1512.1004      308.90534      33.525549      3840.7412      0.99696119
   2394000  -1311.6328      217.20483     -1528.8376      285.75576     -202.65395      3840.7412      0.99696119
   2395000  -1252.2431      253.28684     -1505.5299      333.22544     -227.20349      3840.7412      0.99696119
   2396000  -1293.9738      213.83186     -1507.8057      281.31826     -878.29755      3840.7412      0.99696119
   2397000  -1296.8729      218.09191     -1514.9648      286.9228      -317.40335      3840.7412      0.99696119
   2398000  -1298.6849      214.31702     -1513.002       281.95654     -287.52885      3840.7412      0.99696119
   2399000  -1247.3212      243.79974     -1491.121       320.74416     -408.0407       3840.7412      0.99696119
   2400000  -1281.7605      233.15562     -1514.9162      306.7407       1452.1044      3840.7412      0.99696119
   2401000  -1303.8893      230.07035     -1533.9596      302.68171     -768.9598       3840.7412      0.99696119
   2402000  -1296.6382      215.06363     -1511.7018      282.93878      581.97756      3840.7412      0.99696119
   2403000  -1297.5464      213.39844     -1510.9449      280.74806     -1608.5339      3840.7412      0.99696119
   2404000  -1296.9354      209.642       -1506.5774      275.80606     -669.15423      3840.7412      0.99696119
   2405000  -1283.0156      244.40872     -1527.4244      321.54533     -1229.3704      3840.7412      0.99696119
   2406000  -1290.4898      239.95956     -1530.4493      315.692       -913.85417      3840.7412      0.99696119
   2407000  -1231.7708      247.01066     -1478.7814      324.96845      583.86824      3840.7412      0.99696119
   2408000  -1258.999       226.01367     -1485.0127      297.34471     -594.79095      3840.7412      0.99696119
   2409000  -1294.0566      235.04013     -1529.0968      309.21997      141.45409      3840.7412      0.99696119
   2410000  -1310.1832      210.61217     -1520.7954      277.08242     -780.04813      3840.7412      0.99696119
   2411000  -1294.6654      216.9482      -1511.6136      285.41814      2196.8857      3840.7412      0.99696119
   2412000  -1293.6027      234.90939     -1528.5121      309.04797      1764.2644      3840.7412      0.99696119
   2413000  -1272.0743      231.28121     -1503.3555      304.27472     -1189.2985      3840.7412      0.99696119
   2414000  -1290.6581      217.63197     -1508.2901      286.31771     -212.31357      3840.7412      0.99696119
   2415000  -1308.712       226.48843     -1535.2004      297.96932     -453.57183      3840.7412      0.99696119
   2416000  -1307.6134      217.49757     -1525.1109      286.14089      870.5421       3840.7412      0.99696119
   2417000  -1282.8473      246.00206     -1528.8494      323.64154     -1780.0774      3840.7412      0.99696119
   2418000  -1293.946       243.48833     -1537.4344      320.33447     -1493.2163      3840.7412      0.99696119
   2419000  -1261.9394      231.531       -1493.4704      304.60335     -450.67796      3840.7412      0.99696119
   2420000  -1330.7331      202.14134     -1532.8745      265.93815      477.76512      3840.7412      0.99696119
   2421000  -1285.48        234.47358     -1519.9535      308.47461      429.106        3840.7412      0.99696119
   2422000  -1275.6684      242.84039     -1518.5088      319.48203     -581.21117      3840.7412      0.99696119
   2423000  -1265.8489      240.00984     -1505.8588      315.75815     -253.33805      3840.7412      0.99696119
   2424000  -1294.0887      232.11083     -1526.1996      305.36618      918.44452      3840.7412      0.99696119
   2425000  -1341.1783      214.8196      -1555.9979      282.61774     -142.97668      3840.7412      0.99696119
   2426000  -1305.1278      231.12895     -1536.2567      304.0744      -497.87348      3840.7412      0.99696119
   2427000  -1287.4504      220.95026     -1508.4006      290.68327      283.65022      3840.7412      0.99696119
   2428000  -1277.1946      231.93155     -1509.1261      305.13031      1622.8258      3840.7412      0.99696119
   2429000  -1317.8373      210.70236     -1528.5397      277.20108      728.34122      3840.7412      0.99696119
   2430000  -1281.5909      223.49818     -1505.089       294.03533      534.02538      3840.7412      0.99696119
   2431000  -1300.5841      230.30012     -1530.8843      302.98399     -784.40829      3840.7412      0.99696119
   2432000  -1279.2163      233.96162     -1513.178       307.80108      152.19539      3840.7412      0.99696119
   2433000  -1305.3012      224.84063     -1530.1418      295.80146     -306.41181      3840.7412      0.99696119
   2434000  -1298.1622      220.87351     -1519.0357      290.5823       1011.1483      3840.7412      0.99696119
   2435000  -1321.9119      220.85518     -1542.7671      290.55818      271.24554      3840.7412      0.99696119
   2436000  -1299.6572      231.1647      -1530.8219      304.12144      542.59782      3840.7412      0.99696119
   2437000  -1323.7854      223.71396     -1547.4993      294.31921      1168.6838      3840.7412      0.99696119
   2438000  -1360.9201      211.05219     -1571.9723      277.66132     -1196.3616      3840.7412      0.99696119
   2439000  -1273.3583      250.98434     -1524.3426      330.19625     -828.80954      3840.7412      0.99696119
   2440000  -1286.6297      232.12549     -1518.7552      305.38545     -62.607196      3840.7412      0.99696119
   2441000  -1266.2491      250.23739     -1516.4865      329.21356     -37.099148      3840.7412      0.99696119
   2442000  -1317.5904      224.53104     -1542.1215      295.39417     -1091.474       3840.7412      0.99696119
   2443000  -1302.046       229.84312     -1531.8891      302.38276     -1266.3793      3840.7412      0.99696119
   2444000  -1271.1322      247.81856     -1518.9508      326.03134     -973.36926      3840.7412      0.99696119
   2445000  -1316.73        203.80286     -1520.5328      268.12406     -2052.8725      3840.7412      0.99696119
   2446000  -1276.8374      205.65014     -1482.4875      270.55436      53.580067      3840.7412      0.99696119
   2447000  -1293.0658      217.15895     -1510.2248      285.6954       652.32875      3840.7412      0.99696119
   2448000  -1320.6265      223.7664      -1544.3929      294.3882      -759.31347      3840.7412      0.99696119
   2449000  -1287.5782      225.19905     -1512.7773      296.273        1847.2969      3840.7412      0.99696119
   2450000  -1312.8699      206.8311      -1519.701       272.10803      66.708853      3840.7412      0.99696119
   2451000  -1307.8183      202.3145      -1510.1328      266.16597      460.95854      3840.7412      0.99696119
   2452000  -1286.4839      230.02573     -1516.5096      302.623       -818.42847      3840.7412      0.99696119
   2453000  -1285.8806      211.57042     -1497.451       278.3431      -843.72824      3840.7412      0.99696119
   2454000  -1303.2231      222.29302     -1525.5161      292.44981      783.03406      3840.7412      0.99696119
   2455000  -1291.7703      216.69274     -1508.463       285.08205     -864.01102      3840.7412      0.99696119
   2456000  -1290.5887      222.47757     -1513.0663      292.69261     -889.60635      3840.7412      0.99696119
   2457000  -1307.9525      216.28006     -1524.2326      284.53913      1682.4952      3840.7412      0.99696119
   2458000  -1278.1571      221.2527      -1499.4098      291.08116      587.12053      3840.7412      0.99696119
   2459000  -1299.2111      222.59586     -1521.807       292.84822      111.87161      3840.7412      0.99696119
   2460000  -1284.15        214.68001     -1498.83        282.43409     -817.12071      3840.7412      0.99696119
   2461000  -1274.0994      229.23579     -1503.3351      301.58376     -258.1712       3840.7412      0.99696119
   2462000  -1306.955       236.07597     -1543.031       310.58273      226.056        3840.7412      0.99696119
   2463000  -1273.0495      243.15042     -1516.1999      319.88991      1117.0801      3840.7412      0.99696119
   2464000  -1269.4998      251.40567     -1520.9055      330.75056     -217.51744      3840.7412      0.99696119
   2465000  -1294.3809      239.41978     -1533.8007      314.98186      132.4002       3840.7412      0.99696119
   2466000  -1300.0602      211.66814     -1511.7283      278.47167     -1794.6859      3840.7412      0.99696119
   2467000  -1315.8476      212.19187     -1528.0394      279.16069     -1034.5403      3840.7412      0.99696119
   2468000  -1319.5606      230.55927     -1550.1199      303.32493      960.05042      3840.7412      0.99696119
   2469000  -1300.4222      217.1972      -1517.6194      285.74573     -429.03858      3840.7412      0.99696119
   2470000  -1322.0177      217.95312     -1539.9709      286.74022     -796.75093      3840.7412      0.99696119
   2471000  -1241.8442      252.68787     -1494.5321      332.43742     -314.70568      3840.7412      0.99696119
   2472000  -1282.604       246.4313      -1529.0354      324.20626     -1236.9671      3840.7412      0.99696119
   2473000  -1337.0407      213.82843     -1550.8692      281.31375     -373.71274      3840.7412      0.99696119
   2474000  -1241.7366      236.85491     -1478.5915      311.60751     -269.08836      3840.7412      0.99696119
   2475000  -1275.2358      220.58657     -1495.8223      290.2048      -1332.0663      3840.7412      0.99696119
   2476000  -1291.5071      235.26918     -1526.7763      309.52131      1036.7517      3840.7412      0.99696119
   2477000  -1296.3068      244.86588     -1541.1727      322.14678     -1268.5733      3840.7412      0.99696119
   2478000  -1310.5446      220.72187     -1531.2665      290.3828       817.51677      3840.7412      0.99696119
   2479000  -1316.9677      227.101       -1544.0687      298.77521     -407.34562      3840.7412      0.99696119
   2480000  -1321.515       219.39562     -1540.9106      288.63797     -2286.4229      3840.7412      0.99696119
   2481000  -1271.0667      233.3324      -1504.3991      306.97327     -308.02311      3840.7412      0.99696119
   2482000  -1302.5429      206.65753     -1509.2005      271.87968      1517.5516      3840.7412      0.99696119
   2483000  -1286.7197      225.82777     -1512.5475      297.10015     -127.29319      3840.7412      0.99696119
   2484000  -1302.8178      206.51113     -1509.329       271.68707     -562.14079      3840.7412      0.99696119
   2485000  -1295.264       224.57364     -1519.8376      295.45021      1078.5256      3840.7412      0.99696119
   2486000  -1344.1558      227.11068     -1571.2665      298.78795     -1637.1907      3840.7412      0.99696119
   2487000  -1308.3534      234.16888     -1542.5222      308.07375     -280.86146      3840.7412      0.99696119
   2488000  -1293.3802      249.53836     -1542.9185      328.29392     -1835.9252      3840.7412      0.99696119
   2489000  -1304.5912      224.08154     -1528.6727      294.8028       94.434733      3840.7412      0.99696119
   2490000  -1304.9894      216.77098     -1521.7604      285.18498     -437.66393      3840.7412      0.99696119
   2491000  -1284.5563      249.12974     -1533.686       327.75634     -70.709471      3840.7412      0.99696119
   2492000  -1298.3767      205.20871     -1503.5854      269.9736       936.49111      3840.7412      0.99696119
   2493000  -1261.0755      225.12754     -1486.2031      296.17892      115.624        3840.7412      0.99696119
   2494000  -1305.9118      216.51268     -1522.4244      284.84516     -553.54782      3840.7412      0.99696119
   2495000  -1313.0023      221.98568     -1534.988       292.04547      973.57615      3840.7412      0.99696119
   2496000  -1246.9195      245.3866      -1492.3061      322.83184     -368.79582      3840.7412      0.99696119
   2497000  -1295.7028      219.10155     -1514.8043      288.2511      -1552.3351      3840.7412      0.99696119
   2498000  -1269.4146      224.33404     -1493.7486      295.13499     -152.31787      3840.7412      0.99696119
   2499000  -1313.9933      221.30715     -1535.3004      291.1528      -935.96795      3840.7412      0.99696119
   2500000  -1287.5011      230.01545     -1517.5165      302.60948      1517.5912      3840.7412      0.99696119
   2501000  -1306.1072      209.49522     -1515.6024      275.61296     -516.37603      3840.7412      0.99696119
   2502000  -1300.7489      226.76751     -1527.5164      298.33648     -343.84783      3840.7412      0.99696119
   2503000  -1306.5696      233.13996     -1539.7095      306.7201      -617.29601      3840.7412      0.99696119
   2504000  -1276.9613      213.18116     -1490.1425      280.4622       816.76463      3840.7412      0.99696119
   2505000  -1311.7449      224.11905     -1535.864       294.85215     -926.27527      3840.7412      0.99696119
   2506000  -1318.1254      230.55885     -1548.6843      303.32438      737.33133      3840.7412      0.99696119
   2507000  -1287.726       218.10935     -1505.8353      286.94575     -299.78597      3840.7412      0.99696119
   2508000  -1275.4017      228.31799     -1503.7197      300.37629     -930.40443      3840.7412      0.99696119
   2509000  -1300.0759      229.32509     -1529.401       301.70123     -1111.6969      3840.7412      0.99696119
   2510000  -1290.6803      228.70812     -1519.3884      300.88954     -2589.1872      3840.7412      0.99696119
   2511000  -1289.8999      231.68202     -1521.5819      304.80203      306.9791       3840.7412      0.99696119
   2512000  -1315.6496      222.1983      -1537.8479      292.3252      -1416.5227      3840.7412      0.99696119
   2513000  -1267.1309      245.14138     -1512.2723      322.50922      2124.715       3840.7412      0.99696119
   2514000  -1294.0599      237.32356     -1531.3834      312.22406      1331.3941      3840.7412      0.99696119
   2515000  -1316.0467      214.01698     -1530.0637      281.56181     -322.94822      3840.7412      0.99696119
   2516000  -1331.7877      221.64977     -1553.4375      291.60355     -762.45146      3840.7412      0.99696119
   2517000  -1278.9789      229.26879     -1508.2477      301.62717     -982.37115      3840.7412      0.99696119
   2518000  -1293.3765      214.07084     -1507.4474      281.63267      1653.6352      3840.7412      0.99696119
   2519000  -1316.7422      231.24321     -1547.9854      304.22472      148.0378       3840.7412      0.99696119
   2520000  -1244.0301      247.03619     -1491.0663      325.00205      869.31482      3840.7412      0.99696119
   2521000  -1275.2654      222.47662     -1497.742       292.69136     -2957.3214      3840.7412      0.99696119
   2522000  -1269.1974      242.01348     -1511.2108      318.39415      673.81197      3840.7412      0.99696119
   2523000  -1275.7725      236.67776     -1512.4502      311.37444     -514.05612      3840.7412      0.99696119
   2524000  -1298.3729      220.74322     -1519.1161      290.41089     -864.81792      3840.7412      0.99696119
   2525000  -1279.0717      241.90058     -1520.9723      318.24561      289.40236      3840.7412      0.99696119
   2526000  -1295.7822      222.80711     -1518.5893      293.12614     -496.72977      3840.7412      0.99696119
   2527000  -1276.3965      227.05739     -1503.4539      298.71784      180.5942       3840.7412      0.99696119
   2528000  -1269.5632      214.14697     -1483.7101      281.73283      157.98037      3840.7412      0.99696119
   2529000  -1309.2054      229.89371     -1539.0991      302.44931     -2049.7367      3840.7412      0.99696119
   2530000  -1257.256       237.05173     -1494.3077      311.86644      366.39688      3840.7412      0.99696119
   2531000  -1306.9791      211.99178     -1518.9709      278.89745      556.97392      3840.7412      0.99696119
   2532000  -1291.8393      247.83744     -1539.6768      326.05618     -1619.9913      3840.7412      0.99696119
   2533000  -1280.7588      232.20689     -1512.9657      305.49255     -918.44851      3840.7412      0.99696119
   2534000  -1256.7706      235.08946     -1491.86        309.28488     -162.35011      3840.7412      0.99696119
   2535000  -1292.2079      250.9703      -1543.1782      330.17778      1625.3814      3840.7412      0.99696119
   2536000  -1295.2138      227.09165     -1522.3055      298.76291      744.39416      3840.7412      0.99696119
   2537000  -1272.7075      232.88134     -1505.5888      306.37986      292.31343      3840.7412      0.99696119
   2538000  -1276.2533      223.57986     -1499.8331      294.14278      450.62776      3840.7412      0.99696119
   2539000  -1282.6763      250.39407     -1533.0703      329.41969     -491.96448      3840.7412      0.99696119
   2540000  -1256.3801      245.75249     -1502.1326      323.31321     -71.361138      3840.7412      0.99696119
   2541000  -1287.0591      237.84801     -1524.9071      312.91403      327.06458      3840.7412      0.99696119
   2542000  -1331.6618      228.2076      -1559.8694      300.23106     -1875.5585      3840.7412      0.99696119
   2543000  -1275.5306      247.20278     -1522.7334      325.22122      27.460228      3840.7412      0.99696119
   2544000  -1287.2007      228.76028     -1515.961       300.95817     -1002.2703      3840.7412      0.99696119
   2545000  -1319.3629      222.99389     -1542.3567      293.37188     -334.21026      3840.7412      0.99696119
   2546000  -1314.5299      228.4862      -1543.0161      300.59759      626.0114       3840.7412      0.99696119
   2547000  -1310.367       238.40782     -1548.7749      313.65052     -964.54222      3840.7412      0.99696119
   2548000  -1311.1006      221.55137     -1532.652       291.47409      2011.1031      3840.7412      0.99696119
   2549000  -1287.4967      243.09431     -1530.591       319.81609      515.55771      3840.7412      0.99696119
   2550000  -1342.627       196.60444     -1539.2314      258.65379     -1961.5721      3840.7412      0.99696119
   2551000  -1307.0826      212.95403     -1520.0366      280.16339     -1151.6097      3840.7412      0.99696119
   2552000  -1286.4707      228.78391     -1515.2546      300.98926     -1677.1261      3840.7412      0.99696119
   2553000  -1304.9897      242.02336     -1547.0131      318.40714     -1326.2927      3840.7412      0.99696119
   2554000  -1290.5984      220.23656     -1510.8349      289.74432     -663.9119       3840.7412      0.99696119
   2555000  -1298.7203      216.55614     -1515.2764      284.90234     -912.62443      3840.7412      0.99696119
   2556000  -1280.4826      231.01053     -1511.4931      303.91861     -1163.2785      3840.7412      0.99696119
   2557000  -1280.6127      223.04626     -1503.659       293.44078      911.72724      3840.7412      0.99696119
   2558000  -1305.3348      213.87193     -1519.2067      281.37098     -571.09839      3840.7412      0.99696119
   2559000  -1288.7541      224.20819     -1512.9623      294.96942     -437.58623      3840.7412      0.99696119
   2560000  -1291.2036      243.77643     -1534.98        320.71349      1123.3221      3840.7412      0.99696119
   2561000  -1283.4493      229.3387      -1512.788       301.71914      363.0452       3840.7412      0.99696119
   2562000  -1310.8525      218.74004     -1529.5925      287.7755       712.09586      3840.7412      0.99696119
   2563000  -1294.6983      222.65736     -1517.3556      292.92914      872.64389      3840.7412      0.99696119
   2564000  -1304.638       200.15568     -1504.7936      263.32581      797.25774      3840.7412      0.99696119
   2565000  -1279.59        236.283       -1515.873       310.8551       1260.1326      3840.7412      0.99696119
   2566000  -1270.546       236.92136     -1507.4673      311.69493     -223.41989      3840.7412      0.99696119
   2567000  -1316.112       219.92736     -1536.0394      289.33753     -42.601745      3840.7412      0.99696119
   2568000  -1301.5733      219.56654     -1521.1398      288.86284     -700.41129      3840.7412      0.99696119
   2569000  -1285.3956      236.16676     -1521.5623      310.70217     -382.28719      3840.7412      0.99696119
   2570000  -1303.1271      228.64853     -1531.7756      300.81115      819.7774       3840.7412      0.99696119
   2571000  -1250.4143      243.20964     -1493.6239      319.96782      167.43544      3840.7412      0.99696119
   2572000  -1289.1987      222.89373     -1512.0924      293.24011     -583.8735       3840.7412      0.99696119
   2573000  -1304.7199      207.56161     -1512.2815      273.0691      -2799.6888      3840.7412      0.99696119
   2574000  -1268.8498      219.50312     -1488.353       288.77941     -184.72946      3840.7412      0.99696119
   2575000  -1259.8892      233.85991     -1493.7492      307.66727     -65.83148       3840.7412      0.99696119
   2576000  -1275.5088      229.12068     -1504.6295      301.43231     -233.56708      3840.7412      0.99696119
   2577000  -1304.2259      220.78071     -1525.0066      290.46021      1884.5149      3840.7412      0.99696119
   2578000  -1287.1285      232.9764      -1520.1049      306.50491     -94.009855      3840.7412      0.99696119
   2579000  -1272.5331      218.83772     -1491.3708      287.904        1251.7291      3840.7412      0.99696119
   2580000  -1253.361       231.0923      -1484.4533      304.02619      668.27025      3840.7412      0.99696119
   2581000  -1295.4444      243.76212     -1539.2065      320.69466     -95.796335      3840.7412      0.99696119
   2582000  -1282.6075      240.61003     -1523.2175      316.54776     -629.66516      3840.7412      0.99696119
   2583000  -1316.0145      217.8523      -1533.8668      286.60758     -1036.1296      3840.7412      0.99696119
   2584000  -1287.1647      216.70224     -1503.8669      285.09456     -491.58461      3840.7412      0.99696119
   2585000  -1318.3926      218.38279     -1536.7753      287.30549     -45.44985       3840.7412      0.99696119
   2586000  -1276.2716      247.47715     -1523.7487      325.58218      117.43755      3840.7412      0.99696119
   2587000  -1316.7929      237.53978     -1554.3327      312.50853      1656.7254      3840.7412      0.99696119
   2588000  -1347.1071      200.90132     -1548.0085      264.30679      301.70496      3840.7412      0.99696119
   2589000  -1297.7878      230.18747     -1527.9753      302.83579      1423.3979      3840.7412      0.99696119
   2590000  -1355.918       210.68075     -1566.5988      277.17266     -2157.3289      3840.7412      0.99696119
   2591000  -1283.5632      225.7617      -1509.3249      297.01323     -1930.8458      3840.7412      0.99696119
   2592000  -1301.4936      214.2728      -1515.7664      281.89837     -109.2733       3840.7412      0.99696119
   2593000  -1294.2185      230.29955     -1524.5181      302.98324     -497.86445      3840.7412      0.99696119
   2594000  -1278.2073      244.63242     -1522.8397      321.83963      128.27879      3840.7412      0.99696119
   2595000  -1275.0532      253.01678     -1528.07        332.87014      50.584544      3840.7412      0.99696119
   2596000  -1282.7938      221.43988     -1504.2337      291.32741      174.89523      3840.7412      0.99696119
   2597000  -1264.8971      239.61248     -1504.5095      315.23538     -304.96321      3840.7412      0.99696119
   2598000  -1281.3537      247.61095     -1528.9647      325.7582      -1350.8918      3840.7412      0.99696119
   2599000  -1307.0411      218.27079     -1525.3119      287.15814     -1041.6378      3840.7412      0.99696119
   2600000  -1275.7586      228.37255     -1504.1312      300.44807     -91.608489      3840.7412      0.99696119
   2601000  -1304.9361      239.13408     -1544.0702      314.60599      866.12951      3840.7412      0.99696119
   2602000  -1279.7104      230.42611     -1510.1365      303.14974      685.60113      3840.7412      0.99696119
   2603000  -1266.38        242.80339     -1509.1834      319.43335      1045.7408      3840.7412      0.99696119
   2604000  -1289.3938      240.69025     -1530.0841      316.6533      -1806.9851      3840.7412      0.99696119
   2605000  -1270.8163      246.38698     -1517.2033      324.14795     -1341.2435      3840.7412      0.99696119
   2606000  -1309.2932      205.22589     -1514.5191      269.9962      -942.97665      3840.7412      0.99696119
   2607000  -1306.9116      231.20316     -1538.1147      304.17203      222.42824      3840.7412      0.99696119
   2608000  -1345.311       211.80493     -1557.1159      278.65163     -310.06899      3840.7412      0.99696119
   2609000  -1287.9443      242.88555     -1530.8299      319.54145      79.147125      3840.7412      0.99696119
   2610000  -1290.6821      243.90562     -1534.5878      320.88346     -645.16864      3840.7412      0.99696119
   2611000  -1261.6239      224.33386     -1485.9578      295.13475     -584.64089      3840.7412      0.99696119
   2612000  -1245.0107      245.26166     -1490.2724      322.66746     -375.93223      3840.7412      0.99696119
   2613000  -1307.7833      213.20447     -1520.9878      280.49287     -1209.3188      3840.7412      0.99696119
   2614000  -1287.3048      241.07356     -1528.3784      317.15758     -2102.8754      3840.7412      0.99696119
   2615000  -1272.2599      246.12957     -1518.3895      323.80929      1909.2853      3840.7412      0.99696119
   2616000  -1327.6749      193.41132     -1521.0862      254.4529      -532.45592      3840.7412      0.99696119
   2617000  -1272.481       240.14274     -1512.6237      315.93298      1224.7561      3840.7412      0.99696119
   2618000  -1297.7163      226.31085     -1524.0271      297.73568      991.79725      3840.7412      0.99696119
   2619000  -1310.6387      242.08072     -1552.7194      318.4826      -742.03471      3840.7412      0.99696119
   2620000  -1296.9742      231.45932     -1528.4335      304.50904      412.65023      3840.7412      0.99696119
   2621000  -1318.0421      222.86571     -1540.9078      293.20325     -397.43311      3840.7412      0.99696119
   2622000  -1260.4224      241.45822     -1501.8807      317.66364      2536.346       3840.7412      0.99696119
   2623000  -1281.6641      237.3146      -1518.9787      312.21228     -1866.6681      3840.7412      0.99696119
   2624000  -1251.327       234.41105     -1485.7381      308.39236     -1522.1024      3840.7412      0.99696119
   2625000  -1276.9141      231.94986     -1508.8639      305.1544       129.48271      3840.7412      0.99696119
   2626000  -1224.2945      225.71262     -1450.0071      296.94865     -1149.3628      3840.7412      0.99696119
   2627000  -1254.1002      215.40595     -1469.5061      283.38914      590.38314      3840.7412      0.99696119
   2628000  -1261.0833      227.5686      -1488.6519      299.3904       218.96994      3840.7412      0.99696119
   2629000  -1273.3183      237.0518      -1510.3701      311.86654     -1500.0553      3840.7412      0.99696119
   2630000  -1268.3216      222.72346     -1491.0451      293.0161       2417.6304      3840.7412      0.99696119
   2631000  -1333.4189      210.3128      -1543.7317      276.68858      2642.8176      3840.7412      0.99696119
   2632000  -1285.9106      216.13269     -1502.0433      284.34525     -1111.8683      3840.7412      0.99696119
   2633000  -1266.1255      235.36142     -1501.4869      309.64266     -1222.9714      3840.7412      0.99696119
   2634000  -1296.1645      214.27247     -1510.4369      281.89794     -393.56128      3840.7412      0.99696119
   2635000  -1291.9833      235.65267     -1527.636       310.02583      1316.8897      3840.7412      0.99696119
   2636000  -1285.1679      225.40991     -1510.5778      296.5504       390.75808      3840.7412      0.99696119
   2637000  -1310.6877      227.45952     -1538.1473      299.24689     -978.36251      3840.7412      0.99696119
   2638000  -1309.2543      221.37662     -1530.6309      291.24419      598.66308      3840.7412      0.99696119
   2639000  -1312.158       230.21505     -1542.373       302.87208      389.46749      3840.7412      0.99696119
   2640000  -1303.241       210.42514     -1513.6661      276.83637     -1014.073       3840.7412      0.99696119
   2641000  -1243.4117      247.12416     -1490.5358      325.11778     -240.20568      3840.7412      0.99696119
   2642000  -1298.3995      227.4816      -1525.8811      299.27594     -390.43456      3840.7412      0.99696119
   2643000  -1285.4606      221.68832     -1507.1489      291.65427      629.17374      3840.7412      0.99696119
   2644000  -1340.9706      214.50276     -1555.4733      282.2009      -627.3371       3840.7412      0.99696119
   2645000  -1283.8329      237.08836     -1520.9212      311.91464     -1494.2178      3840.7412      0.99696119
   2646000  -1296.9272      214.51135     -1511.4385      282.21221     -1242.0378      3840.7412      0.99696119
   2647000  -1260.1982      229.4462      -1489.6444      301.86058      568.34805      3840.7412      0.99696119
   2648000  -1324.1982      221.39615     -1545.5943      291.26988     -178.07794      3840.7412      0.99696119
   2649000  -1325.4817      207.14268     -1532.6244      272.51794     -1885.679       3840.7412      0.99696119
   2650000  -1325.1741      231.8708      -1557.0449      305.05039      1479.8742      3840.7412      0.99696119
   2651000  -1339.5406      207.93883     -1547.4794      273.56536      78.717541      3840.7412      0.99696119
   2652000  -1296.6339      222.76971     -1519.4036      293.07695     -1430.9024      3840.7412      0.99696119
   2653000  -1297.5089      207.64438     -1505.1533      273.17799     -789.75847      3840.7412      0.99696119
   2654000  -1334.1503      217.25883     -1551.4091      285.8268       646.04827      3840.7412      0.99696119
   2655000  -1300.0873      211.85178     -1511.9391      278.71327     -1975.8834      3840.7412      0.99696119
   2656000  -1260.4195      239.32145     -1499.741       314.8525      -1396.4288      3840.7412      0.99696119
   2657000  -1276.5224      239.41495     -1515.9373      314.9755       1165.1498      3840.7412      0.99696119
   2658000  -1292.1082      236.64697     -1528.7552      311.33394     -212.69363      3840.7412      0.99696119
   2659000  -1305.7107      224.75604     -1530.4667      295.69017      1271.438       3840.7412      0.99696119
   2660000  -1279.5646      222.82258     -1502.3872      293.14651     -1859.4344      3840.7412      0.99696119
   2661000  -1314.2032      210.2052      -1524.4084      276.54702     -353.73208      3840.7412      0.99696119
   2662000  -1302.4287      222.91345     -1525.3421      293.26605     -3390.3847      3840.7412      0.99696119
   2663000  -1331.0991      222.98692     -1554.086       293.36271     -24.968093      3840.7412      0.99696119
   2664000  -1312.5796      234.99328     -1547.5728      309.15834      969.30173      3840.7412      0.99696119
   2665000  -1320.3687      221.81594     -1542.1846      291.82216      1491.2768      3840.7412      0.99696119
   2666000  -1313.6076      238.77122     -1552.3789      314.12862     -955.70576      3840.7412      0.99696119
   2667000  -1269.0067      230.05008     -1499.0568      302.65504     -484.96696      3840.7412      0.99696119
   2668000  -1304.2485      222.94783     -1527.1963      293.31129     -841.40658      3840.7412      0.99696119
   2669000  -1322.4906      222.20406     -1544.6947      292.33278     -479.87172      3840.7412      0.99696119
   2670000  -1286.7264      231.9674      -1518.6938      305.17747     -1072.2901      3840.7412      0.99696119
   2671000  -1280.2958      245.31799     -1525.6137      322.74157     -2040.6246      3840.7412      0.99696119
   2672000  -1326.9941      225.12823     -1552.1223      296.17983     -434.45861      3840.7412      0.99696119
   2673000  -1290.0849      224.8757      -1514.9605      295.84759     -249.48845      3840.7412      0.99696119
   2674000  -1301.9583      218.54295     -1520.5013      287.5162      -1644.6313      3840.7412      0.99696119
   2675000  -1309.9061      220.85959     -1530.7657      290.56398      416.00021      3840.7412      0.99696119
   2676000  -1295.4419      215.26975     -1510.7116      283.20996      804.57136      3840.7412      0.99696119
   2677000  -1262.4782      222.0925      -1484.5707      292.186       -319.08214      3840.7412      0.99696119
   2678000  -1269.7917      217.41719     -1487.2089      286.03514      849.57942      3840.7412      0.99696119
   2679000  -1267.3404      232.2763      -1499.6168      305.58387     -347.98905      3840.7412      0.99696119
   2680000  -1292.7929      243.65553     -1536.4485      320.55443     -1359.0497      3840.7412      0.99696119
   2681000  -1305.9576      225.19022     -1531.1479      296.26139      2538.7896      3840.7412      0.99696119
   2682000  -1306.2245      248.11717     -1554.3417      326.42419      2627.1444      3840.7412      0.99696119
   2683000  -1297.803       233.19922     -1531.0022      306.79807      1064.2314      3840.7412      0.99696119
   2684000  -1345.0221      216.24462     -1561.2667      284.4925      -1310.8624      3840.7412      0.99696119
   2685000  -1288.7805      238.72753     -1527.508       314.07114      487.45197      3840.7412      0.99696119
   2686000  -1303.4615      222.02347     -1525.485       292.0952      -760.61856      3840.7412      0.99696119
   2687000  -1298.8058      223.0107      -1521.8165      293.39399     -1535.2404      3840.7412      0.99696119
   2688000  -1305.3928      226.18317     -1531.5759      297.56771      1388.5451      3840.7412      0.99696119
   2689000  -1245.5251      241.07688     -1486.6019      317.16195      598.47111      3840.7412      0.99696119
   2690000  -1286.1304      218.23203     -1504.3625      287.10715      949.98807      3840.7412      0.99696119
   2691000  -1322.2746      217.03161     -1539.3063      285.52787      1318.4497      3840.7412      0.99696119
   2692000  -1263.7163      234.21979     -1497.936       308.14072     -458.71927      3840.7412      0.99696119
   2693000  -1271.1994      221.78683     -1492.9863      291.78387      247.37975      3840.7412      0.99696119
   2694000  -1313.7203      209.21419     -1522.9344      275.24323     -988.78319      3840.7412      0.99696119
   2695000  -1342.3014      207.31937     -1549.6208      272.7504       35.41101       3840.7412      0.99696119
   2696000  -1264.4269      240.20878     -1504.6357      316.01988      185.33189      3840.7412      0.99696119
   2697000  -1298.7157      218.73717     -1517.4529      287.77172      661.46337      3840.7412      0.99696119
   2698000  -1324.3783      207.22047     -1531.5988      272.62029     -696.30891      3840.7412      0.99696119
   2699000  -1310.2034      217.19838     -1527.4018      285.74728     -1175.933       3840.7412      0.99696119
   2700000  -1276.7705      248.84792     -1525.6185      327.38557     -2132.5026      3840.7412      0.99696119
   2701000  -1308.949       210.93002     -1519.8791      277.50059     -746.97194      3840.7412      0.99696119
   2702000  -1322.2653      224.66198     -1546.9273      295.56642      299.59467      3840.7412      0.99696119
   2703000  -1350.9035      200.8383      -1551.7418      264.22387      1454.2912      3840.7412      0.99696119
   2704000  -1274.3697      229.97182     -1504.3415      302.55207      1425.7129      3840.7412      0.99696119
   2705000  -1297.2894      223.85464     -1521.144       294.50429     -143.11885      3840.7412      0.99696119
   2706000  -1307.2513      220.2006      -1527.4519      289.69701     -1420.7904      3840.7412      0.99696119
   2707000  -1301.103       234.19954     -1535.3026      308.11409     -602.37885      3840.7412      0.99696119
   2708000  -1324.4178      213.46908     -1537.8868      280.84099      1081.9872      3840.7412      0.99696119
   2709000  -1287.6882      232.88646     -1520.5746      306.38659     -29.999331      3840.7412      0.99696119
   2710000  -1286.5195      243.5842      -1530.1037      320.46059     -210.04656      3840.7412      0.99696119
   2711000  -1305.529       212.6638      -1518.1928      279.78155      1309.3248      3840.7412      0.99696119
   2712000  -1286.8576      244.11885     -1530.9764      321.16399      1780.68        3840.7412      0.99696119
   2713000  -1320.6797      227.49887     -1548.1786      299.29865     -904.37152      3840.7412      0.99696119
   2714000  -1290.7965      224.75831     -1515.5548      295.69316     -917.2598       3840.7412      0.99696119
   2715000  -1272.5064      223.91205     -1496.4184      294.57982      1822.4036      3840.7412      0.99696119
   2716000  -1308.1326      221.95073     -1530.0833      291.9995      -908.20696      3840.7412      0.99696119
   2717000  -1286.5885      242.64666     -1529.2352      319.22717     -693.15905      3840.7412      0.99696119
   2718000  -1258.4385      217.1638      -1475.6023      285.70179     -826.96974      3840.7412      0.99696119
   2719000  -1306.3612      227.8973      -1534.2585      299.82282     -656.20243      3840.7412      0.99696119
   2720000  -1315.9492      218.21911     -1534.1683      287.09016      66.117141      3840.7412      0.99696119
   2721000  -1320.304       218.83771     -1539.1417      287.90399      195.57981      3840.7412      0.99696119
   2722000  -1318.9662      218.9682      -1537.9344      288.07567     -326.70692      3840.7412      0.99696119
   2723000  -1310.5467      225.79614     -1536.3429      297.05854     -167.02024      3840.7412      0.99696119
   2724000  -1238.1186      255.66523     -1493.7838      336.35446      645.63571      3840.7412      0.99696119
   2725000  -1286.8106      218.86903     -1505.6796      287.94519     -1211.794       3840.7412      0.99696119
   2726000  -1295.6037      228.72342     -1524.3272      300.90967      617.43815      3840.7412      0.99696119
   2727000  -1308.2938      218.37822     -1526.672       287.29947      1229.0793      3840.7412      0.99696119
   2728000  -1282.0701      227.13311     -1509.2032      298.81746      130.78667      3840.7412      0.99696119
   2729000  -1322.118       210.60468     -1532.7226      277.07257      761.88092      3840.7412      0.99696119
   2730000  -1331.1366      220.76023     -1551.8968      290.43326      2428.8603      3840.7412      0.99696119
   2731000  -1276.7115      238.95082     -1515.6623      314.3649       132.16403      3840.7412      0.99696119
   2732000  -1323.167       224.75752     -1547.9245      295.69212      2707.0491      3840.7412      0.99696119
   2733000  -1308.1953      232.03844     -1540.2337      305.27093      47.086616      3840.7412      0.99696119
   2734000  -1268.7873      238.55452     -1507.3418      313.84352      318.40348      3840.7412      0.99696119
   2735000  -1300.3409      238.95251     -1539.2934      314.36712     -916.62144      3840.7412      0.99696119
   2736000  -1277.8445      251.29566     -1529.1402      330.60583      552.28355      3840.7412      0.99696119
   2737000  -1266.4973      220.59934     -1487.0966      290.2216      -854.21429      3840.7412      0.99696119
   2738000  -1275.2738      237.7816      -1513.0554      312.82667     -2950.8197      3840.7412      0.99696119
   2739000  -1305.5252      210.04679     -1515.572       276.33861     -954.73884      3840.7412      0.99696119
   2740000  -1293.3975      233.17074     -1526.5682      306.7606       1014.8324      3840.7412      0.99696119
   2741000  -1291.0097      212.89169     -1503.9014      280.08137     -1044.6695      3840.7412      0.99696119
   2742000  -1306.0566      230.08558     -1536.1422      302.70174     -634.22759      3840.7412      0.99696119
   2743000  -1288.1717      234.49081     -1522.6625      308.49728      1667.4769      3840.7412      0.99696119
   2744000  -1290.7735      220.89505     -1511.6685      290.61063      1029.7224      3840.7412      0.99696119
   2745000  -1303.6604      224.70563     -1528.366       295.62385      86.839675      3840.7412      0.99696119
   2746000  -1266.0746      238.76758     -1504.8421      314.12383      855.131        3840.7412      0.99696119
   2747000  -1300.7928      223.00809     -1523.8009      293.39055      1408.7194      3840.7412      0.99696119
   2748000  -1281.0948      227.07701     -1508.1718      298.74365      693.46342      3840.7412      0.99696119
   2749000  -1239.9025      248.78693     -1488.6895      327.30533      312.54913      3840.7412      0.99696119
   2750000  -1253.7877      218.89001     -1472.6777      287.9728      -2665.2259      3840.7412      0.99696119
   2751000  -1294.2311      216.25951     -1510.4906      284.51209     -1325.934       3840.7412      0.99696119
   2752000  -1267.866       248.39725     -1516.2633      326.79267     -586.44673      3840.7412      0.99696119
   2753000  -1326.0441      230.68024     -1556.7243      303.48407     -1702.9156      3840.7412      0.99696119
   2754000  -1292.9643      235.1241      -1528.0884      309.33045     -772.20081      3840.7412      0.99696119
   2755000  -1277.8517      230.68044     -1508.5322      303.48435     -233.51173      3840.7412      0.99696119
   2756000  -1277.6453      234.2377      -1511.883       308.16429     -370.04212      3840.7412      0.99696119
   2757000  -1289.2635      215.0451      -1504.3086      282.91442     -15.058337      3840.7412      0.99696119
   2758000  -1276.1689      236.88966     -1513.0585      311.65322      894.64177      3840.7412      0.99696119
   2759000  -1315.4535      223.80596     -1539.2595      294.44024     -1823.5188      3840.7412      0.99696119
   2760000  -1275.5738      236.37688     -1511.9507      310.97861      2099.9909      3840.7412      0.99696119
   2761000  -1263.7664      241.79876     -1505.5652      318.11166      1920.3858      3840.7412      0.99696119
   2762000  -1304.8616      233.19979     -1538.0613      306.79881      651.95757      3840.7412      0.99696119
   2763000  -1309.6123      223.13368     -1532.746       293.55578     -555.42714      3840.7412      0.99696119
   2764000  -1253.5009      217.92828     -1471.4292      286.70754     -282.78921      3840.7412      0.99696119
   2765000  -1291.3457      209.16178     -1500.5075      275.17428      998.09642      3840.7412      0.99696119
   2766000  -1257.729       242.61778     -1500.3468      319.18917      2420.6644      3840.7412      0.99696119
   2767000  -1287.2867      219.71984     -1507.0066      289.06452      29.350181      3840.7412      0.99696119
   2768000  -1295.5646      236.44605     -1532.0106      311.0696      -328.24535      3840.7412      0.99696119
   2769000  -1286.9487      224.33443     -1511.2832      295.1355       1062.8627      3840.7412      0.99696119
   2770000  -1270.7533      211.97951     -1482.7328      278.8813       774.51699      3840.7412      0.99696119
   2771000  -1314.039       222.3444      -1536.3834      292.5174      -162.89036      3840.7412      0.99696119
   2772000  -1274.0451      238.30404     -1512.3491      313.51399     -761.3066       3840.7412      0.99696119
   2773000  -1259.9166      227.06274     -1486.9793      298.72488     -1856.9929      3840.7412      0.99696119
   2774000  -1296.0409      227.09635     -1523.1373      298.7691       329.35981      3840.7412      0.99696119
   2775000  -1308.6068      212.14927     -1520.756       279.10464     -436.51705      3840.7412      0.99696119
   2776000  -1287.1008      234.48037     -1521.5811      308.48355     -466.67891      3840.7412      0.99696119
   2777000  -1298.0461      217.13273     -1515.1788      285.66091     -709.7919       3840.7412      0.99696119
   2778000  -1316.3346      209.1138      -1525.4484      275.11116     -448.32762      3840.7412      0.99696119
   2779000  -1297.7173      217.29396     -1515.0112      285.87302     -1368.1544      3840.7412      0.99696119
   2780000  -1303.3787      227.27588     -1530.6546      299.00529     -616.46928      3840.7412      0.99696119
   2781000  -1295.8114      230.80424     -1526.6156      303.64721     -1395.152       3840.7412      0.99696119
   2782000  -1310.1515      219.88711     -1530.0387      289.28458      1043.1054      3840.7412      0.99696119
   2783000  -1289.7444      229.36494     -1519.1093      301.75366     -1122.0716      3840.7412      0.99696119
   2784000  -1281.1365      223.6852      -1504.8217      294.28136     -1472.0889      3840.7412      0.99696119
   2785000  -1310.838       217.76168     -1528.5996      286.48836     -1227.4319      3840.7412      0.99696119
   2786000  -1304.5193      222.98347     -1527.5028      293.35817     -177.60572      3840.7412      0.99696119
   2787000  -1338.2459      211.95669     -1550.2026      278.85128      608.38786      3840.7412      0.99696119
   2788000  -1330.0167      209.07564     -1539.0923      275.06096     -1108.8875      3840.7412      0.99696119
   2789000  -1307.9862      231.22491     -1539.2111      304.20065     -913.8491       3840.7412      0.99696119
   2790000  -1297.3475      243.64498     -1540.9925      320.54055     -1420.016       3840.7412      0.99696119
   2791000  -1289.9836      227.4093      -1517.3929      299.18081      473.80737      3840.7412      0.99696119
   2792000  -1276.4418      236.19847     -1512.6403      310.74389      462.98396      3840.7412      0.99696119
   2793000  -1309.4361      234.62517     -1544.0613      308.67405      526.70239      3840.7412      0.99696119
   2794000  -1311.1086      220.58501     -1531.6936      290.20275      1821.3016      3840.7412      0.99696119
   2795000  -1299.012       227.40628     -1526.4182      299.17684     -3056.5975      3840.7412      0.99696119
   2796000  -1284.6643      233.54201     -1518.2063      307.24904      698.27099      3840.7412      0.99696119
   2797000  -1308.9402      242.02495     -1550.9652      318.40924     -520.09107      3840.7412      0.99696119
   2798000  -1283.6787      244.99163     -1528.6703      322.31222     -1227.5381      3840.7412      0.99696119
   2799000  -1272.5104      229.98641     -1502.4969      302.57127      323.82146      3840.7412      0.99696119
   2800000  -1290.6488      231.011       -1521.6598      303.91923     -1059.6844      3840.7412      0.99696119
   2801000  -1336.476       218.93448     -1555.4104      288.0313       512.97708      3840.7412      0.99696119
   2802000  -1297.6704      227.25211     -1524.9225      298.97401     -564.14054      3840.7412      0.99696119
   2803000  -1326.7732      201.18342     -1527.9566      264.67791     -1841.7317      3840.7412      0.99696119
   2804000  -1277.3357      226.60876     -1503.9445      298.12762      413.79293      3840.7412      0.99696119
   2805000  -1277.453       230.2693      -1507.7223      302.94345      364.94929      3840.7412      0.99696119
   2806000  -1317.3941      217.68209     -1535.0762      286.38364     -1367.3687      3840.7412      0.99696119
   2807000  -1286.133       232.73302     -1518.866       306.18473      2275.0925      3840.7412      0.99696119
   2808000  -1304.6296      220.82636     -1525.456       290.52027     -2165.8135      3840.7412      0.99696119
   2809000  -1316.2002      224.55246     -1540.7526      295.42235     -252.77065      3840.7412      0.99696119
   2810000  -1305.9845      233.00551     -1538.99        306.54321      507.23062      3840.7412      0.99696119
   2811000  -1305.379       223.02393     -1528.4029      293.4114       964.05143      3840.7412      0.99696119
   2812000  -1311.1567      219.11026     -1530.267       288.26256     -622.395        3840.7412      0.99696119
   2813000  -1297.275       218.05389     -1515.3289      286.87278     -26.336949      3840.7412      0.99696119
   2814000  -1306.9791      224.97698     -1531.9561      295.98084      80.74578       3840.7412      0.99696119
   2815000  -1292.3529      225.09001     -1517.4429      296.12955      905.02322      3840.7412      0.99696119
   2816000  -1311.4724      221.86079     -1533.3332      291.88117      98.630454      3840.7412      0.99696119
   2817000  -1301.6653      212.84185     -1514.5071      280.0158       578.281        3840.7412      0.99696119
   2818000  -1305.8627      221.61384     -1527.4766      291.55628     -1599.7016      3840.7412      0.99696119
   2819000  -1282.3857      238.33221     -1520.7179      313.55105      535.27296      3840.7412      0.99696119
   2820000  -1278.9873      222.76989     -1501.7572      293.07718      130.72256      3840.7412      0.99696119
   2821000  -1295.2157      217.20811     -1512.4238      285.76008     -1056.4862      3840.7412      0.99696119
   2822000  -1291.4898      248.30677     -1539.7966      326.67364     -1384.4874      3840.7412      0.99696119
   2823000  -1254.9083      242.15221     -1497.0605      318.57665     -1268.0243      3840.7412      0.99696119
   2824000  -1256.1501      228.34047     -1484.4906      300.40587      855.06229      3840.7412      0.99696119
   2825000  -1279.5858      223.26808     -1502.8538      293.7326      -1196.4656      3840.7412      0.99696119
   2826000  -1287.5847      231.84119     -1519.4259      305.01143     -146.97072      3840.7412      0.99696119
   2827000  -1267.196       235.39222     -1502.5883      309.68318      793.05041      3840.7412      0.99696119
   2828000  -1292.4372      234.53462     -1526.9718      308.55492     -1445.4281      3840.7412      0.99696119
   2829000  -1287.8454      226.68219     -1514.5276      298.22422     -1834.8915      3840.7412      0.99696119
   2830000  -1278.4098      220.94023     -1499.35        290.67008     -1206.6821      3840.7412      0.99696119
   2831000  -1305.9459      212.9189      -1518.8648      280.11717     -599.76173      3840.7412      0.99696119
   2832000  -1262.5704      241.06929     -1503.6397      317.15197     -253.85241      3840.7412      0.99696119
   2833000  -1297.1919      234.05303     -1531.2449      307.92133      66.777115      3840.7412      0.99696119
   2834000  -1265.7942      234.73971     -1500.534       308.82474     -474.05954      3840.7412      0.99696119
   2835000  -1317.4149      207.67097     -1525.0858      273.21296     -1309.8189      3840.7412      0.99696119
   2836000  -1338.713       217.10832     -1555.8213      285.6288      -1212.8632      3840.7412      0.99696119
   2837000  -1276.2116      235.89779     -1512.1094      310.34832     -589.29928      3840.7412      0.99696119
   2838000  -1324.796       208.22654     -1533.0225      273.94388     -575.94133      3840.7412      0.99696119
   2839000  -1300.2606      236.09795     -1536.3585      310.61164      39.467744      3840.7412      0.99696119
   2840000  -1303.6947      222.53192     -1526.2266      292.76411     -1262.3674      3840.7412      0.99696119
   2841000  -1320.5895      223.10813     -1543.6977      293.52218      254.05366      3840.7412      0.99696119
   2842000  -1278.5148      231.39103     -1509.9058      304.4192      -464.33693      3840.7412      0.99696119
   2843000  -1294.9717      226.0681      -1521.0398      297.41633      1399.4352      3840.7412      0.99696119
   2844000  -1318.0782      199.23764     -1517.3158      262.11804     -600.76227      3840.7412      0.99696119
   2845000  -1327.7169      231.19713     -1558.9141      304.1641      -1204.9055      3840.7412      0.99696119
   2846000  -1284.3997      244.56195     -1528.9617      321.74693      1168.7839      3840.7412      0.99696119
   2847000  -1294.6445      222.4284      -1517.0729      292.62792     -161.3593       3840.7412      0.99696119
   2848000  -1298.5731      234.16478     -1532.7379      308.06836     -1668.9854      3840.7412      0.99696119
   2849000  -1259.5364      227.32766     -1486.8641      299.07341     -707.23292      3840.7412      0.99696119
   2850000  -1271.2898      228.97193     -1500.2617      301.23662      1325.5718      3840.7412      0.99696119
   2851000  -1304.7806      221.56053     -1526.3412      291.48614     -364.37428      3840.7412      0.99696119
   2852000  -1305.3334      214.25006     -1519.5835      281.86845     -104.81171      3840.7412      0.99696119
   2853000  -1303.3151      222.37464     -1525.6897      292.55718      172.24019      3840.7412      0.99696119
   2854000  -1349.2368      205.91332     -1555.1501      270.90059     -2508.002       3840.7412      0.99696119
   2855000  -1269.1115      231.9166      -1501.0281      305.11064     -523.13227      3840.7412      0.99696119
   2856000  -1311.3341      198.11642     -1509.4505      260.64296     -808.5743       3840.7412      0.99696119
   2857000  -1296.7948      222.2096      -1519.0044      292.34007     -1596.2062      3840.7412      0.99696119
   2858000  -1265.8676      232.23604     -1498.1036      305.5309      -28.377215      3840.7412      0.99696119
   2859000  -1320.9341      212.58707     -1533.5212      279.68062     -8.6989179      3840.7412      0.99696119
   2860000  -1293.12        211.4714      -1504.5914      278.21283     -1536.5022      3840.7412      0.99696119
   2861000  -1275.2804      235.74612     -1511.0265      310.14878      325.95361      3840.7412      0.99696119
   2862000  -1289.5125      221.83711     -1511.3496      291.85001      502.67508      3840.7412      0.99696119
   2863000  -1311.4507      219.16319     -1530.6139      288.33218     -1234.6073      3840.7412      0.99696119
   2864000  -1327.2927      225.12085     -1552.4135      296.17012     -1326.9008      3840.7412      0.99696119
   2865000  -1302.709       229.26701     -1531.976       301.62483     -707.07832      3840.7412      0.99696119
   2866000  -1292.1807      216.37828     -1508.5589      284.66835     -156.28212      3840.7412      0.99696119
   2867000  -1261.7799      223.76884     -1485.5488      294.39141      1544.5459      3840.7412      0.99696119
   2868000  -1305.7617      216.9012      -1522.6629      285.35631     -472.26741      3840.7412      0.99696119
   2869000  -1306.4679      240.36126     -1546.8292      316.22048      129.83793      3840.7412      0.99696119
   2870000  -1311.9452      225.98253     -1537.9278      297.30375      1200.7728      3840.7412      0.99696119
   2871000  -1326.983       223.54927     -1550.5323      294.10254     -1321.9016      3840.7412      0.99696119
   2872000  -1292.0488      250.98676     -1543.0356      330.19944      294.61703      3840.7412      0.99696119
   2873000  -1285.4397      221.36491     -1506.8046      291.22878      1448.1226      3840.7412      0.99696119
   2874000  -1278.8727      229.07042     -1507.9431      301.36619     -903.57619      3840.7412      0.99696119
   2875000  -1300.4974      211.98953     -1512.4869      278.89449      299.44528      3840.7412      0.99696119
   2876000  -1295.9312      244.68881     -1540.62        321.91383      303.00884      3840.7412      0.99696119
   2877000  -1304.9184      218.60304     -1523.5214      287.59526     -873.35843      3840.7412      0.99696119
   2878000  -1321.9316      197.31593     -1519.2475      259.58982     -454.28324      3840.7412      0.99696119
   2879000  -1282.8271      254.26237     -1537.0895      334.50884      697.0907       3840.7412      0.99696119
   2880000  -1309.5583      212.08835     -1521.6467      279.02449      79.891932      3840.7412      0.99696119
   2881000  -1309.0094      200.65439     -1509.6638      263.98192     -60.030369      3840.7412      0.99696119
   2882000  -1292.9756      226.98048     -1519.9561      298.61666      153.12903      3840.7412      0.99696119
   2883000  -1302.8863      208.59964     -1511.486       274.43473     -1791.4536      3840.7412      0.99696119
   2884000  -1258.5921      242.02008     -1500.6122      318.40282     -2354.5738      3840.7412      0.99696119
   2885000  -1300.6228      245.62525     -1546.2481      323.1458      -120.45324      3840.7412      0.99696119
   2886000  -1289.3501      228.15629     -1517.5064      300.16356     -722.76288      3840.7412      0.99696119
   2887000  -1328.0088      193.47119     -1521.48        254.53167      582.2412       3840.7412      0.99696119
   2888000  -1282.0116      224.85103     -1506.8626      295.81513      2507.2286      3840.7412      0.99696119
   2889000  -1332.4104      211.22362     -1543.634       277.88686     -1663.8937      3840.7412      0.99696119
   2890000  -1279.9606      232.28963     -1512.2503      305.60141     -1169.2263      3840.7412      0.99696119
   2891000  -1272.6971      218.27604     -1490.9731      287.16505     -261.13011      3840.7412      0.99696119
   2892000  -1325.2847      213.92856     -1539.2133      281.44549      216.50351      3840.7412      0.99696119
   2893000  -1281.6388      247.1048      -1528.7436      325.09232     -935.58537      3840.7412      0.99696119
   2894000  -1302.1173      223.58194     -1525.6992      294.14553      1402.57        3840.7412      0.99696119
   2895000  -1283.3739      231.02262     -1514.3965      303.93452     -52.61566       3840.7412      0.99696119
   2896000  -1237.3544      245.59038     -1482.9447      323.09993      184.726        3840.7412      0.99696119
   2897000  -1276.2228      231.7681      -1507.9909      304.91527      76.06498       3840.7412      0.99696119
   2898000  -1321.129       199.57114     -1520.7002      262.5568      -1422.8393      3840.7412      0.99696119
   2899000  -1318.5982      222.39878     -1540.997       292.58895      258.32168      3840.7412      0.99696119
   2900000  -1284.2402      220.47674     -1504.717       290.06031      646.71283      3840.7412      0.99696119
   2901000  -1312.71        216.60469     -1529.3147      284.96622     -1274.1859      3840.7412      0.99696119
   2902000  -1262.1983      250.48591     -1512.6842      329.54051     -105.11767      3840.7412      0.99696119
   2903000  -1310.612       209.14148     -1519.7535      275.14758     -536.21624      3840.7412      0.99696119
   2904000  -1302.6968      226.75855     -1529.4553      298.32469     -1342.9899      3840.7412      0.99696119
   2905000  -1266.2177      226.36101     -1492.5788      297.80168      1760.0106      3840.7412      0.99696119
   2906000  -1298.0415      240.22079     -1538.2623      316.03567     -823.55253      3840.7412      0.99696119
   2907000  -1261.9187      247.25916     -1509.1778      325.29538     -1418.8096      3840.7412      0.99696119
   2908000  -1298.8367      221.60074     -1520.4374      291.53904     -1444.9316      3840.7412      0.99696119
   2909000  -1310.0707      214.99872     -1525.0694      282.85339      934.16447      3840.7412      0.99696119
   2910000  -1290.4083      221.15405     -1511.5623      290.95137     -964.22453      3840.7412      0.99696119
   2911000  -1283.4425      242.17618     -1525.6187      318.6082      -527.12125      3840.7412      0.99696119
   2912000  -1280.7704      227.3008      -1508.0712      299.03807     -1965.5646      3840.7412      0.99696119
   2913000  -1342.6146      223.80536     -1566.42        294.43945      94.496628      3840.7412      0.99696119
   2914000  -1338.0342      206.12755     -1544.1617      271.18243      247.79969      3840.7412      0.99696119
   2915000  -1295.2783      216.83068     -1512.109       285.26353      501.06164      3840.7412      0.99696119
   2916000  -1303.5749      202.90296     -1506.4779      266.94015      403.47858      3840.7412      0.99696119
   2917000  -1354.4404      207.09799     -1561.5384      272.45916      905.12026      3840.7412      0.99696119
   2918000  -1303.4585      215.0561      -1518.5146      282.92889     -1411.6413      3840.7412      0.99696119
   2919000  -1276.3257      223.12504     -1499.4508      293.54442      839.9344       3840.7412      0.99696119
   2920000  -1315.61        222.04594     -1537.6559      292.12475      563.45074      3840.7412      0.99696119
   2921000  -1284.402       229.25482     -1513.6568      301.60878     -88.854954      3840.7412      0.99696119
   2922000  -1343.9294      228.94541     -1572.8748      301.20173     -236.87513      3840.7412      0.99696119
   2923000  -1303.9949      220.11588     -1524.1108      289.58555     -265.12538      3840.7412      0.99696119
   2924000  -1289.5251      216.59441     -1506.1195      284.9527      -2.2286659      3840.7412      0.99696119
   2925000  -1324.5352      226.63893     -1551.1742      298.16731      101.87649      3840.7412      0.99696119
   2926000  -1293.1247      238.90508     -1532.0298      314.30473      305.12346      3840.7412      0.99696119
   2927000  -1304.8041      223.33891     -1528.143       293.82578     -105.35659      3840.7412      0.99696119
   2928000  -1277.6958      240.23376     -1517.9295      316.05274     -1560.5478      3840.7412      0.99696119
   2929000  -1282.0234      255.66928     -1537.6927      336.35979     -872.02616      3840.7412      0.99696119
   2930000  -1313.9456      215.50105     -1529.4467      283.51426      1440.4662      3840.7412      0.99696119
   2931000  -1284.4162      237.07146     -1521.4877      311.8924      -1734.6269      3840.7412      0.99696119
   2932000  -1279.7009      234.35386     -1514.0547      308.31712      981.57369      3840.7412      0.99696119
   2933000  -1306.9769      229.69634     -1536.6733      302.18966     -1886.4958      3840.7412      0.99696119
   2934000  -1274.9279      235.29896     -1510.2268      309.56049      137.21847      3840.7412      0.99696119
   2935000  -1316.0006      222.41104     -1538.4117      292.60508     -736.67037      3840.7412      0.99696119
   2936000  -1309.6746      217.67121     -1527.3458      286.36933      1328.0455      3840.7412      0.99696119
   2937000  -1296.194       217.35273     -1513.5467      285.95035      561.18431      3840.7412      0.99696119
   2938000  -1275.8555      214.89585     -1490.7514      282.71805      802.56391      3840.7412      0.99696119
   2939000  -1295.4807      225.08398     -1520.5647      296.12161     -619.03038      3840.7412      0.99696119
   2940000  -1280.261       219.60358     -1499.8646      288.91157     -695.76407      3840.7412      0.99696119
   2941000  -1270.9242      228.93092     -1499.8551      301.18266      3275.5783      3840.7412      0.99696119
   2942000  -1261.1427      227.04208     -1488.1848      298.6977       295.19937      3840.7412      0.99696119
   2943000  -1282.0318      226.2562      -1508.288       297.6638      -1371.9271      3840.7412      0.99696119
   2944000  -1313.8159      221.35193     -1535.1679      291.21171      1029.2156      3840.7412      0.99696119
   2945000  -1273.025       245.35877     -1518.3837      322.79522      70.829577      3840.7412      0.99696119
   2946000  -1318.8016      218.45416     -1537.2558      287.39939     -1117.306       3840.7412      0.99696119
   2947000  -1326.3223      230.98638     -1557.3087      303.88684     -1100.7323      3840.7412      0.99696119
   2948000  -1277.1299      231.78376     -1508.9137      304.93587     -820.67927      3840.7412      0.99696119
   2949000  -1274.4731      234.84869     -1509.3218      308.96811     -765.8208       3840.7412      0.99696119
   2950000  -1282.8263      226.58221     -1509.4085      298.09269      162.21004      3840.7412      0.99696119
   2951000  -1293.2928      226.93763     -1520.2304      298.56029     -766.05328      3840.7412      0.99696119
   2952000  -1303.658       233.35519     -1537.0132      307.00325     -205.12534      3840.7412      0.99696119
   2953000  -1330.6438      208.18717     -1538.831       273.89208      988.13754      3840.7412      0.99696119
   2954000  -1324.9774      231.31209     -1556.2895      304.31534     -2547.7956      3840.7412      0.99696119
   2955000  -1251.6992      240.45842     -1492.1576      316.3483       353.83246      3840.7412      0.99696119
   2956000  -1296.3055      247.63138     -1543.9369      325.78508     -2305.7499      3840.7412      0.99696119
   2957000  -1307.3658      226.38152     -1533.7473      297.82866     -1332.7776      3840.7412      0.99696119
   2958000  -1290.2583      224.35939     -1514.6177      295.16834      737.95978      3840.7412      0.99696119
   2959000  -1315.6282      229.78183     -1545.41        302.30213     -1223.8776      3840.7412      0.99696119
   2960000  -1301.704       216.07897     -1517.7829      284.27457     -1202.372       3840.7412      0.99696119
   2961000  -1321.1199      254.36354     -1575.4835      334.64195      686.3877       3840.7412      0.99696119
   2962000  -1311.0182      231.71039     -1542.7286      304.83935      710.68319      3840.7412      0.99696119
   2963000  -1321.7493      231.94427     -1553.6936      305.14705      215.1433       3840.7412      0.99696119
   2964000  -1317.7688      198.39198     -1516.1608      261.00548     -202.36327      3840.7412      0.99696119
   2965000  -1298.3537      244.84798     -1543.2017      322.12323     -979.23464      3840.7412      0.99696119
   2966000  -1305.0322      236.39292     -1541.4252      310.99971      61.379993      3840.7412      0.99696119
   2967000  -1303.2709      228.57687     -1531.8478      300.71688      200.63328      3840.7412      0.99696119
   2968000  -1301.0589      216.97768     -1518.0366      285.45693      491.82647      3840.7412      0.99696119
   2969000  -1278.8862      226.25262     -1505.1388      297.65907      584.42514      3840.7412      0.99696119
   2970000  -1304.3873      203.77765     -1508.1649      268.0909      -593.17666      3840.7412      0.99696119
   2971000  -1316.3144      238.85716     -1555.1715      314.24168      1482.3518      3840.7412      0.99696119
   2972000  -1309.1233      230.53066     -1539.6539      303.28729      792.60614      3840.7412      0.99696119
   2973000  -1273.776       242.99624     -1516.7723      319.68708     -633.73642      3840.7412      0.99696119
   2974000  -1280.6157      220.80263     -1501.4183      290.48905      918.00526      3840.7412      0.99696119
   2975000  -1276.2508      230.53139     -1506.7822      303.28825      274.00237      3840.7412      0.99696119
   2976000  -1292.3579      233.1679      -1525.5258      306.75686     -188.54665      3840.7412      0.99696119
   2977000  -1264.4578      241.34161     -1505.7994      317.51022      129.00181      3840.7412      0.99696119
   2978000  -1304.7829      217.60574     -1522.3887      286.2832       4.4775903      3840.7412      0.99696119
   2979000  -1272.1832      245.29453     -1517.4777      322.71071     -361.10857      3840.7412      0.99696119
   2980000  -1304.4964      197.22939     -1501.7257      259.47598     -564.51766      3840.7412      0.99696119
   2981000  -1288.7955      229.9079      -1518.7034      302.46798      1254.3515      3840.7412      0.99696119
   2982000  -1308.6849      229.71282     -1538.3977      302.21134      1480.8956      3840.7412      0.99696119
   2983000  -1312.681       239.2924      -1551.9734      314.81429     -166.82424      3840.7412      0.99696119
   2984000  -1288.0327      213.5675      -1501.6002      280.97047     -675.40228      3840.7412      0.99696119
   2985000  -1276.9149      223.29468     -1500.2096      293.7676      -1773.7657      3840.7412      0.99696119
   2986000  -1289.3817      220.50052     -1509.8822      290.09159     -1972.3239      3840.7412      0.99696119
   2987000  -1334.2656      213.55816     -1547.8237      280.95818     -111.39216      3840.7412      0.99696119
   2988000  -1284.1017      247.36827     -1531.47        325.43893     -1385.7794      3840.7412      0.99696119
   2989000  -1255.7539      257.92674     -1513.6807      339.32971      293.37058      3840.7412      0.99696119
   2990000  -1299.3556      213.17057     -1512.5262      280.44827      889.81494      3840.7412      0.99696119
   2991000  -1268.0807      240.56076     -1508.6414      316.48294      25.359946      3840.7412      0.99696119
   2992000  -1296.9787      237.93562     -1534.9143      313.02929     -2225.3652      3840.7412      0.99696119
   2993000  -1310.0616      220.0133      -1530.0749      289.45059     -931.47301      3840.7412      0.99696119
   2994000  -1276.5446      220.0368      -1496.5814      289.48152      380.39362      3840.7412      0.99696119
   2995000  -1278.1437      233.43674     -1511.5804      307.11055     -840.21637      3840.7412      0.99696119
   2996000  -1239.0603      269.00866     -1508.0689      353.90914     -1335.6602      3840.7412      0.99696119
   2997000  -1277.133       216.99243     -1494.1255      285.47633     -644.0656       3840.7412      0.99696119
   2998000  -1266.9262      228.17718     -1495.1034      300.19104     -1500.9667      3840.7412      0.99696119
   2999000  -1305.9066      214.53894     -1520.4455      282.24851     -1035.2668      3840.7412      0.99696119
   3000000  -1288.446       234.32424     -1522.7702      308.27814      1339.9204      3840.7412      0.99696119
Loop time of 2324.58 on 2 procs for 2000000 steps with 384 atoms

Performance: 74.336 ns/day, 0.323 hours/ns, 860.371 timesteps/s
99.7% CPU use with 2 MPI tasks x 1 OpenMP threads

MPI task timing breakdown:
Section |  min time  |  avg time  |  max time  |%varavg| %total
---------------------------------------------------------------
Pair    | 1511.4     | 1513.2     | 1515.1     |   4.8 | 65.10
Bond    | 0.16698    | 0.17934    | 0.19171    |   2.9 |  0.01
Kspace  | 436.23     | 437.44     | 438.65     |   5.8 | 18.82
Neigh   | 107.07     | 107.07     | 107.08     |   0.0 |  4.61
Comm    | 154.35     | 155.02     | 155.68     |   5.4 |  6.67
Output  | 0.52205    | 0.52697    | 0.53189    |   0.7 |  0.02
Modify  | 104.83     | 105.02     | 105.2      |   1.8 |  4.52
Other   |            | 6.083      |            |       |  0.26

Nlocal:            192 ave         196 max         188 min
Histogram: 1 0 0 0 0 0 0 0 0 1
Nghost:         4903.5 ave        4918 max        4889 min
Histogram: 1 0 0 0 0 0 0 0 0 1
Neighs:          69279 ave       70410 max       68148 min
Histogram: 1 0 0 0 0 0 0 0 0 1

Total # of neighbors = 138558
Ave neighs/atom = 360.82812
Ave special neighs/atom = 2
Neighbor list builds = 66736
Dangerous builds = 0

# write data file
write_data data.after_prod.lmp
System init for write_data ...
PPPM initialization ...
  using 12-bit tables for long-range coulomb (src/kspace.cpp:342)
  G vector (1/distance) = 0.31203871
  grid = 15 15 15
  stencil order = 5
  estimated absolute RMS force accuracy = 0.0022228175
  estimated relative force accuracy = 6.6939488e-06
  using double precision FFTW3
  3d grid and FFT values/proc = 6776 1800
Generated 1 of 1 mixed pair_coeff terms from geometric mixing rule

# clean up
undump dPROD
unfix fTHERMO
unfix fMOM
unfix fSHAKE
Total wall time: 0:58:06
