LAMMPS (23 Jun 2022 - Update 4)
  using 1 OpenMP thread(s) per MPI task
# created by fftool

# System settings
units real
boundary p p p  # Periodic boundary conditions

# definition of atoms, bonds, angles
atom_style full
bond_style harmonic
angle_style harmonic

# definition of pair potentials
special_bonds lj/coul 0.0 0.0 0.5
pair_style lj/cut/coul/long 10.0 10.0
pair_modify mix geometric tail yes
kspace_style pppm 1.0e-5

# read data file
read_data data.lmp
Reading data file ...
  orthogonal box = (0 0 0) to (12.42973 12.42973 12.42973)
  1 by 1 by 1 MPI processor grid
  reading atoms ...
  192 atoms
  scanning bonds ...
  1 = max bonds/atom
  scanning angles ...
  1 = max angles/atom
  reading bonds ...
  128 bonds
  reading angles ...
  64 angles
Finding 1-2 1-3 1-4 neighbors ...
  special bond factors lj:    0        0        0.5
  special bond factors coul:  0        0        0.5
     2 = max # of 1-2 neighbors
     1 = max # of 1-3 neighbors
     1 = max # of 1-4 neighbors
     2 = max # of special neighbors
  special bonds CPU = 0.000 seconds
  read_data CPU = 0.005 seconds

# definition of LJ parameters
pair_coeff    1    1     0.000000     0.000000  # Hw Hw
pair_coeff    2    2     0.163785     3.164813  # Ow-Ow

############################################

# remove energy hotspots
minimize 1.0e-4 1.0e-6 100 1000
WARNING: Using 'neigh_modify every 1 delay 0 check yes' setting during minimization (src/min.cpp:187)
PPPM initialization ...
  using 12-bit tables for long-range coulomb (src/kspace.cpp:342)
  G vector (1/distance) = 0.31260513
  grid = 12 12 12
  stencil order = 5
  estimated absolute RMS force accuracy = 0.0021455329
  estimated relative force accuracy = 6.4612085e-06
  using double precision FFTW3
  3d grid and FFT values/proc = 6859 1728
Generated 1 of 1 mixed pair_coeff terms from geometric mixing rule
Neighbor list info ...
  update every 1 steps, delay 0 steps, check yes
  max neighbors/atom: 2000, page size: 100000
  master list distance cutoff = 12
  ghost atom cutoff = 12
  binsize = 6, bins = 3 3 3
  1 neighbor lists, perpetual/occasional/extra = 1 0 0
  (1) pair lj/cut/coul/long, perpetual
      attributes: half, newton on
      pair build: half/bin/newton
      stencil: half/bin/3d
      bin: standard
Per MPI rank memory allocation (min/avg/max) = 8.742 | 8.742 | 8.742 Mbytes
   Step          Temp          E_pair         E_mol          TotEng         Press
         0   0              4979.5933      2.315326e-07   4979.5933      734869.85
       100   0             -983.37584      82.011802     -901.36404     -7396.1736
Loop time of 0.216308 on 1 procs for 100 steps with 192 atoms

99.6% CPU use with 1 MPI tasks x 1 OpenMP threads

Minimization stats:
  Stopping criterion = max iterations
  Energy initial, next-to-last, final =
      4979.59333636473   -899.92245525249  -901.364042402309
  Force two-norm initial, final = 26027.048 27.646008
  Force max component initial, final = 16462.539 5.2202275
  Final line search alpha, max atom move = 0.0038995988 0.020356793
  Iterations, force evaluations = 100 179

MPI task timing breakdown:
Section |  min time  |  avg time  |  max time  |%varavg| %total
---------------------------------------------------------------
Pair    | 0.18628    | 0.18628    | 0.18628    |   0.0 | 86.12
Bond    | 0.00069054 | 0.00069054 | 0.00069054 |   0.0 |  0.32
Kspace  | 0.021021   | 0.021021   | 0.021021   |   0.0 |  9.72
Neigh   | 0.0049268  | 0.0049268  | 0.0049268  |   0.0 |  2.28
Comm    | 0.002453   | 0.002453   | 0.002453   |   0.0 |  1.13
Output  | 1.2035e-05 | 1.2035e-05 | 1.2035e-05 |   0.0 |  0.01
Modify  | 0          | 0          | 0          |   0.0 |  0.00
Other   |            | 0.0009222  |            |       |  0.43

Nlocal:            192 ave         192 max         192 min
Histogram: 1 0 0 0 0 0 0 0 0 0
Nghost:           4698 ave        4698 max        4698 min
Histogram: 1 0 0 0 0 0 0 0 0 0
Neighs:          69109 ave       69109 max       69109 min
Histogram: 1 0 0 0 0 0 0 0 0 0

Total # of neighbors = 69109
Ave neighs/atom = 359.94271
Ave special neighs/atom = 2
Neighbor list builds = 4
Dangerous builds = 0
reset_timestep 0

# constrain water bonds and angles
fix fSHAKE all shake 0.0001 20 0 b 1 a 1
       0 = # of size 2 clusters
       0 = # of size 3 clusters
       0 = # of size 4 clusters
      64 = # of frozen angles
  find clusters CPU = 0.000 seconds

# remove Center of Mass movement every 100 steps
fix fMOM all momentum 100 linear 1 1 1

# define the neighbor list
neighbor 2.0 bin

# IMPORTANT: timestep and temperature and pressure
timestep 1.0
variable vTK equal 298.15
variable vPBAR equal 1.0

# randomize velocities
velocity all create ${vTK} 94711
velocity all create 298.15 94711

# thermostat (solving the ODE)
fix fTHERMO all nvt temp ${vTK} ${vTK} 100
fix fTHERMO all nvt temp 298.15 ${vTK} 100
fix fTHERMO all nvt temp 298.15 298.15 100

# print settings
thermo 1000
thermo_style custom step etotal ke pe temp press vol density
# trajectory output
dump dEQUI all custom 1000 equi.lammpstrj id element xu yu zu
dump_modify dEQUI element H O sort id

# equilibration
# 1 ns
run 1000000
PPPM initialization ...
  using 12-bit tables for long-range coulomb (src/kspace.cpp:342)
  G vector (1/distance) = 0.31260513
  grid = 12 12 12
  stencil order = 5
  estimated absolute RMS force accuracy = 0.0021455329
  estimated relative force accuracy = 6.4612085e-06
  using double precision FFTW3
  3d grid and FFT values/proc = 6859 1728
Generated 1 of 1 mixed pair_coeff terms from geometric mixing rule
Per MPI rank memory allocation (min/avg/max) = 9.759 | 9.759 | 9.759 Mbytes
   Step         TotEng         KinEng         PotEng          Temp          Press          Volume        Density
         0  -870.50732      112.86852     -983.37584      298.15         2311.0743      1920.3708      0.9969611
      1000  -638.17354      117.97096     -756.1445       311.62844      304.8247       1920.3708      0.9969611
      2000  -661.05391      113.62085     -774.67476      300.13734      649.02413      1920.3708      0.9969611
      3000  -645.11863      110.76317     -755.8818       292.58856      787.2814       1920.3708      0.9969611
      4000  -665.29322      103.60324     -768.89647      273.67513      578.71863      1920.3708      0.9969611
      5000  -633.69377      117.54728     -751.24105      310.50927      4489.0334      1920.3708      0.9969611
      6000  -664.79732      104.84857     -769.64589      276.96474      2439.5335      1920.3708      0.9969611
      7000  -653.13153      114.38886     -767.5204       302.16609     -1400.2349      1920.3708      0.9969611
      8000  -618.40835      135.52956     -753.93791      358.01069     -2076.2574      1920.3708      0.9969611
      9000  -645.2434       109.72161     -754.96502      289.83723     -64.812763      1920.3708      0.9969611
     10000  -635.01457      121.90192     -756.91648      322.01234     -2411.9647      1920.3708      0.9969611
     11000  -637.19659      140.87127     -778.06786      372.1212       478.66396      1920.3708      0.9969611
     12000  -650.61914      107.15849     -757.77763      283.06656      169.90358      1920.3708      0.9969611
     13000  -651.52622      107.47966     -759.00588      283.91495     -448.60268      1920.3708      0.9969611
     14000  -651.20068      120.88281     -772.08349      319.32029     -844.21922      1920.3708      0.9969611
     15000  -673.91575      112.89881     -786.81457      298.23001      3726.3431      1920.3708      0.9969611
     16000  -643.41734      113.78155     -757.1989       300.56183      111.90725      1920.3708      0.9969611
     17000  -666.44927      100.12195     -766.57122      264.47906     -2160.5759      1920.3708      0.9969611
     18000  -631.13185      118.13866     -749.27051      312.07144     -493.57873      1920.3708      0.9969611
     19000  -646.63238      114.12559     -760.75797      301.47063      1029.4373      1920.3708      0.9969611
     20000  -648.24164      102.80834     -751.04998      271.57532      2041.0483      1920.3708      0.9969611
     21000  -650.29931      118.42259     -768.7219       312.82147      150.65371      1920.3708      0.9969611
     22000  -648.92037      122.64742     -771.56779      323.98164      1580.5001      1920.3708      0.9969611
     23000  -658.06974      114.86007     -772.92981      303.4108       162.424        1920.3708      0.9969611
     24000  -678.71687      110.79868     -789.51554      292.68237      1608.5774      1920.3708      0.9969611
     25000  -656.33728      122.2542      -778.59148      322.94293     -101.89521      1920.3708      0.9969611
     26000  -669.67388      123.12745     -792.80133      325.24968     -2724.9679      1920.3708      0.9969611
     27000  -662.11334      119.21332     -781.32666      314.91022      1616.3768      1920.3708      0.9969611
     28000  -646.91768      115.60798     -762.52567      305.38648      742.76635      1920.3708      0.9969611
     29000  -678.09263      105.35414     -783.44676      278.30023     -3866.7633      1920.3708      0.9969611
     30000  -655.42145      116.0538      -771.47526      306.56415      2142.6963      1920.3708      0.9969611
     31000  -669.37982      110.99621     -780.37602      293.20415     -1138.5555      1920.3708      0.9969611
     32000  -648.5364       105.89304     -754.42944      279.72378     -232.89827      1920.3708      0.9969611
     33000  -628.73709      111.63151     -740.3686       294.88235      837.11163      1920.3708      0.9969611
     34000  -626.61392      120.61809     -747.23201      318.62102     -1868.812       1920.3708      0.9969611
     35000  -635.48925      116.21525     -751.7045       306.99062     -957.65709      1920.3708      0.9969611
     36000  -659.3554       104.84305     -764.19845      276.95016     -4519.9608      1920.3708      0.9969611
     37000  -631.239        119.4276      -750.6666       315.47627     -2844.7232      1920.3708      0.9969611
     38000  -651.9276       98.733351     -750.66095      260.81097     -714.49058      1920.3708      0.9969611
     39000  -636.36702      113.01296     -749.37998      298.53154     -3.4761786      1920.3708      0.9969611
     40000  -652.45493      119.97861     -772.43354      316.93178      277.0022       1920.3708      0.9969611
     41000  -637.53103      109.50767     -747.03869      289.27207      1843.7636      1920.3708      0.9969611
     42000  -662.57911      108.82664     -771.40575      287.47309      640.40637      1920.3708      0.9969611
     43000  -659.73655      107.70529     -767.44184      284.51096     -755.05801      1920.3708      0.9969611
     44000  -669.69234      99.653955     -769.3463       263.24281     -503.10378      1920.3708      0.9969611
     45000  -640.05234      128.5711      -768.62344      339.62945      1561.2037      1920.3708      0.9969611
     46000  -669.38273      116.99998     -786.38271      309.06353     -1626.0996      1920.3708      0.9969611
     47000  -652.80487      111.23176     -764.03663      293.82638      94.148725      1920.3708      0.9969611
     48000  -632.759        119.83771     -752.59671      316.5596      -1583.4895      1920.3708      0.9969611
     49000  -652.77633      113.33142     -766.10775      299.37279      3436.4436      1920.3708      0.9969611
     50000  -638.21614      122.92385     -761.13999      324.71184     -1107.642       1920.3708      0.9969611
     51000  -642.77813      123.6497      -766.42783      326.62923     -30.214116      1920.3708      0.9969611
     52000  -647.99546      120.20682     -768.20228      317.53463     -2989.9531      1920.3708      0.9969611
     53000  -655.29706      110.06901     -765.36607      290.75489     -3401.1008      1920.3708      0.9969611
     54000  -645.65321      129.53257     -775.18577      342.16923     -2339.7947      1920.3708      0.9969611
     55000  -663.23614      112.52719     -775.76333      297.24835      341.56911      1920.3708      0.9969611
     56000  -646.29141      113.18621     -759.47761      298.98919     -1694.8774      1920.3708      0.9969611
     57000  -643.55149      109.41251     -752.964        289.02071      1608.4966      1920.3708      0.9969611
     58000  -638.38068      104.75286     -743.13355      276.71192      1012.2006      1920.3708      0.9969611
     59000  -653.61254      108.32466     -761.93721      286.14708     -393.65901      1920.3708      0.9969611
     60000  -644.79232      125.27437     -770.06669      330.9209      -1539.2737      1920.3708      0.9969611
     61000  -648.07167      108.15888     -756.23056      285.70917     -470.11014      1920.3708      0.9969611
     62000  -635.88802      114.67187     -750.55988      302.91366     -1044.0445      1920.3708      0.9969611
     63000  -653.39151      106.78634     -760.17785      282.08351      144.88771      1920.3708      0.9969611
     64000  -643.71693      99.462501     -743.17943      262.73707     -814.69502      1920.3708      0.9969611
     65000  -629.70975      120.56747     -750.27722      318.48731      387.77407      1920.3708      0.9969611
     66000  -619.07323      123.14535     -742.21859      325.29696      1262.0016      1920.3708      0.9969611
     67000  -652.36709      118.93441     -771.3015       314.17347     -2637.478       1920.3708      0.9969611
     68000  -647.49962      114.05404     -761.55366      301.28162     -1333.7453      1920.3708      0.9969611
     69000  -691.15524      101.52282     -792.67805      268.17953     -1198.2271      1920.3708      0.9969611
     70000  -658.74375      126.63802     -785.38177      334.52308     -52.670688      1920.3708      0.9969611
     71000  -643.79262      104.7402      -748.53282      276.67847     -2180.6353      1920.3708      0.9969611
     72000  -658.57417      105.89129     -764.46546      279.71917     -145.06151      1920.3708      0.9969611
     73000  -653.21826      113.08447     -766.30273      298.72045      473.44306      1920.3708      0.9969611
     74000  -641.52344      114.00968     -755.53312      301.16444      1929.6415      1920.3708      0.9969611
     75000  -643.83149      108.44086     -752.27235      286.45402      499.01204      1920.3708      0.9969611
     76000  -656.73827      104.10805     -760.84632      275.00862      709.04527      1920.3708      0.9969611
     77000  -641.95719      115.88881     -757.846        306.12829      279.74572      1920.3708      0.9969611
     78000  -644.41615      119.82593     -764.24208      316.52847     -1744.5477      1920.3708      0.9969611
     79000  -654.89841      108.83232     -763.73072      287.48809     -1678.6102      1920.3708      0.9969611
     80000  -672.90515      104.46132     -777.36647      275.9418       1387.833       1920.3708      0.9969611
     81000  -645.3355       116.22947     -761.56497      307.02817     -1869.1652      1920.3708      0.9969611
     82000  -623.85507      127.09889     -750.95396      335.7405       2376.0945      1920.3708      0.9969611
     83000  -642.899        116.08439     -758.98338      306.64493      609.48231      1920.3708      0.9969611
     84000  -667.35527      105.8547      -773.20996      279.62249      1889.3053      1920.3708      0.9969611
     85000  -638.56832      108.60386     -747.17217      286.88459     -444.33642      1920.3708      0.9969611
     86000  -626.18619      121.4364      -747.62259      320.78265     -1165.0329      1920.3708      0.9969611
     87000  -643.85057      95.023098     -738.87367      251.01008     -1439.4005      1920.3708      0.9969611
     88000  -629.81196      105.74754     -735.5595       279.33943     -503.94325      1920.3708      0.9969611
     89000  -630.43675      111.69411     -742.13086      295.04771      1233.9423      1920.3708      0.9969611
     90000  -658.27761      106.44627     -764.72388      281.18517     -112.48468      1920.3708      0.9969611
     91000  -658.97433      117.13452     -776.10885      309.41893     -2276.2913      1920.3708      0.9969611
     92000  -633.60947      114.61689     -748.22636      302.76845      3279.4263      1920.3708      0.9969611
     93000  -631.8435       121.51578     -753.35928      320.99233     -940.05111      1920.3708      0.9969611
     94000  -645.58675      112.37484     -757.9616       296.84591     -1704.8929      1920.3708      0.9969611
     95000  -650.79478      109.14722     -759.94201      288.31994      757.95154      1920.3708      0.9969611
     96000  -666.85759      115.07041     -781.928        303.96644     -801.55028      1920.3708      0.9969611
     97000  -653.30683      121.02058     -774.32741      319.68422      1824.3153      1920.3708      0.9969611
     98000  -659.80252      114.92832     -774.73084      303.5911      -1145.1131      1920.3708      0.9969611
     99000  -667.4537       101.76576     -769.21946      268.82129     -2107.6821      1920.3708      0.9969611
    100000  -682.95662      102.44494     -785.40156      270.61538      1519.5582      1920.3708      0.9969611
    101000  -646.94656      116.02915     -762.97571      306.49901     -608.20759      1920.3708      0.9969611
    102000  -647.76272      107.92148     -755.6842       285.08204     -2261.1997      1920.3708      0.9969611
    103000  -644.9622       109.84113     -754.80334      290.15294     -1128.2767      1920.3708      0.9969611
    104000  -661.21703      112.04607     -773.2631       295.97743     -2166.7227      1920.3708      0.9969611
    105000  -641.61847      113.15309     -754.77156      298.90171      4162.5666      1920.3708      0.9969611
    106000  -615.07881      126.13905     -741.21786      333.20503     -2562.7124      1920.3708      0.9969611
    107000  -645.29726      127.18673     -772.48399      335.97253      1215.0544      1920.3708      0.9969611
    108000  -650.33037      99.866423     -750.19679      263.80406     -3608.3078      1920.3708      0.9969611
    109000  -658.27536      107.82753     -766.10288      284.83387     -543.49229      1920.3708      0.9969611
    110000  -638.18984      134.81193     -773.00177      356.11503     -856.77108      1920.3708      0.9969611
    111000  -666.52407      113.8407      -780.36477      300.71807     -264.11325      1920.3708      0.9969611
    112000  -646.61351      108.75223     -755.36574      287.27652      1337.3185      1920.3708      0.9969611
    113000  -668.23472      92.514513     -760.74923      244.38348      403.01463      1920.3708      0.9969611
    114000  -637.03781      113.11136     -750.14916      298.79147     -1194.6085      1920.3708      0.9969611
    115000  -659.37144      109.27562     -768.64706      288.6591      -1082.0957      1920.3708      0.9969611
    116000  -649.27645      111.25889     -760.53534      293.89804      360.16734      1920.3708      0.9969611
    117000  -634.86689      119.52808     -754.39497      315.74168      1911.7389      1920.3708      0.9969611
    118000  -654.27492      102.15726     -756.43218      269.85545     -260.45436      1920.3708      0.9969611
    119000  -622.28686      125.53912     -747.82598      331.62027     -2793.3137      1920.3708      0.9969611
    120000  -648.28693      119.5594      -767.84633      315.82441      1333.0132      1920.3708      0.9969611
    121000  -638.68697      127.02321     -765.71019      335.5406      -269.12569      1920.3708      0.9969611
    122000  -643.78489      125.26355     -769.04844      330.89232     -1492.4389      1920.3708      0.9969611
    123000  -651.45183      113.28399     -764.73581      299.24748     -607.29669      1920.3708      0.9969611
    124000  -671.36798      99.505032     -770.87301      262.84942     -2561.8115      1920.3708      0.9969611
    125000  -631.49567      124.062       -755.55767      327.71834      1549.1825      1920.3708      0.9969611
    126000  -667.37786      109.53959     -776.91745      289.35639     -2262.6353      1920.3708      0.9969611
    127000  -641.1952       122.07699     -763.27219      322.47479      1376.9573      1920.3708      0.9969611
    128000  -649.68294      118.9719      -768.65483      314.27249      690.33719      1920.3708      0.9969611
    129000  -651.46093      109.79747     -761.25841      290.03761     -529.77925      1920.3708      0.9969611
    130000  -622.09728      112.58804     -734.68532      297.40909     -721.73887      1920.3708      0.9969611
    131000  -621.50675      115.30005     -736.8068       304.57304      125.61486      1920.3708      0.9969611
    132000  -646.09606      112.18042     -758.27648      296.33234      2078.7866      1920.3708      0.9969611
    133000  -647.69733      111.94231     -759.63964      295.70335     -854.917        1920.3708      0.9969611
    134000  -649.25635      121.39488     -770.65123      320.67297     -423.10804      1920.3708      0.9969611
    135000  -644.359        121.28172     -765.64071      320.37404      1109.7749      1920.3708      0.9969611
    136000  -644.94835      108.34337     -753.29171      286.19649      1300.2278      1920.3708      0.9969611
    137000  -651.88404      114.76852     -766.65256      303.16897      1578.4318      1920.3708      0.9969611
    138000  -658.80696      110.12976     -768.93672      290.91537      903.87212      1920.3708      0.9969611
    139000  -643.47393      123.91008     -767.38401      327.31704      968.5917       1920.3708      0.9969611
    140000  -663.46013      100.73119     -764.19132      266.08841     -2063.8492      1920.3708      0.9969611
    141000  -654.85231      109.11772     -763.97003      288.24199     -835.46746      1920.3708      0.9969611
    142000  -661.37027      118.21668     -779.58695      312.27754     -4023.3774      1920.3708      0.9969611
    143000  -657.59219      116.12373     -773.71593      306.74886     -440.06432      1920.3708      0.9969611
    144000  -658.14872      115.24248     -773.3912       304.42098     -1227.9062      1920.3708      0.9969611
    145000  -671.81699      114.72861     -786.5456       303.06355     -751.22227      1920.3708      0.9969611
    146000  -664.86478      107.5519      -772.41668      284.10578      803.76088      1920.3708      0.9969611
    147000  -644.11331      116.87827     -760.99157      308.74201     -2266.6651      1920.3708      0.9969611
    148000  -693.0388       100.96026     -793.99906      266.6935      -907.56772      1920.3708      0.9969611
    149000  -657.41016      105.2519      -762.66206      278.03017     -886.86268      1920.3708      0.9969611
    150000  -657.84107      117.17705     -775.01812      309.53127     -1274.6807      1920.3708      0.9969611
    151000  -653.86706      110.12358     -763.99064      290.89904      2920.2654      1920.3708      0.9969611
    152000  -663.74268      108.90337     -772.64605      287.67578     -2682.672       1920.3708      0.9969611
    153000  -651.45539      104.98921     -756.4446       277.33624     -2057.4347      1920.3708      0.9969611
    154000  -674.63302      99.369303     -774.00232      262.49088     -2200.1476      1920.3708      0.9969611
    155000  -647.61643      107.25257     -754.869        283.31507     -2936.1938      1920.3708      0.9969611
    156000  -667.6316       91.945027     -759.57662      242.87914      1249.7879      1920.3708      0.9969611
    157000  -662.6027       127.24031     -789.843        336.11407      763.93891      1920.3708      0.9969611
    158000  -629.36214      116.08371     -745.44585      306.64314     -2162.7697      1920.3708      0.9969611
    159000  -645.82931      106.69005     -752.51936      281.82914      2911.2571      1920.3708      0.9969611
    160000  -639.49126      121.8235      -761.31476      321.8052      -2929.2596      1920.3708      0.9969611
    161000  -660.79953      105.60719     -766.40672      278.96869     -2280.3231      1920.3708      0.9969611
    162000  -631.4371       113.03834     -744.47544      298.59859      1789.1312      1920.3708      0.9969611
    163000  -659.71415      118.62903     -778.34317      313.36678      2604.4585      1920.3708      0.9969611
    164000  -665.49488      103.10122     -768.5961       272.349       -104.73131      1920.3708      0.9969611
    165000  -643.15762      131.39869     -774.55631      347.09871      2895.8917      1920.3708      0.9969611
    166000  -626.9733       108.59572     -735.56902      286.86309      598.7604       1920.3708      0.9969611
    167000  -652.68274      109.43989     -762.12262      289.09302     -2418.762       1920.3708      0.9969611
    168000  -675.05107      90.922508     -765.97358      240.17809     -889.19007      1920.3708      0.9969611
    169000  -641.68981      120.4106      -762.10042      318.07293     -358.06968      1920.3708      0.9969611
    170000  -670.2603       99.357672     -769.61798      262.46016      250.51979      1920.3708      0.9969611
    171000  -658.96493      132.26553     -791.23045      349.38853     -2899.2171      1920.3708      0.9969611
    172000  -660.29887      115.18706     -775.48593      304.27458     -1807.0337      1920.3708      0.9969611
    173000  -654.43986      108.53129     -762.97116      286.69291     -1415.8141      1920.3708      0.9969611
    174000  -645.32019      108.41856     -753.73876      286.39513      624.68014      1920.3708      0.9969611
    175000  -660.47984      112.00651     -772.48635      295.87294      183.54628      1920.3708      0.9969611
    176000  -639.24157      114.86716     -754.10873      303.42954     -722.40701      1920.3708      0.9969611
    177000  -674.04232      113.28416     -787.32648      299.24794      1139.49        1920.3708      0.9969611
    178000  -650.89557      115.50349     -766.39906      305.11044     -815.8343       1920.3708      0.9969611
    179000  -651.95638      106.36315     -758.31953      280.96561     -1550.4597      1920.3708      0.9969611
    180000  -631.29796      131.0879      -762.38587      346.27776      496.28656      1920.3708      0.9969611
    181000  -662.96506      104.32581     -767.29087      275.58383     -939.01477      1920.3708      0.9969611
    182000  -649.95795      118.14276     -768.10071      312.08226      272.74655      1920.3708      0.9969611
    183000  -647.54569      117.93386     -765.47955      311.53044      1956.9274      1920.3708      0.9969611
    184000  -655.6225       110.64139     -766.26389      292.26689     -996.56606      1920.3708      0.9969611
    185000  -643.79647      124.21278     -768.00925      328.11664     -3448.797       1920.3708      0.9969611
    186000  -639.95748      115.5706      -755.52808      305.28773     -1868.6337      1920.3708      0.9969611
    187000  -639.77756      106.79618     -746.57374      282.1095      -2235.5183      1920.3708      0.9969611
    188000  -649.42275      105.21564     -754.63839      277.93439     -4069.1236      1920.3708      0.9969611
    189000  -628.42681      120.74079     -749.16761      318.94515      104.8533       1920.3708      0.9969611
    190000  -657.45502      129.71148     -787.1665       342.64185      2653.0734      1920.3708      0.9969611
    191000  -639.32972      116.10101     -755.43074      306.68885      1368.457       1920.3708      0.9969611
    192000  -632.9654       124.51212     -757.47752      328.90737     -2152.641       1920.3708      0.9969611
    193000  -652.23011      106.33717     -758.56728      280.89699     -314.80273      1920.3708      0.9969611
    194000  -648.02217      116.95332     -764.97549      308.94027     -989.82831      1920.3708      0.9969611
    195000  -658.23935      102.85197     -761.09132      271.69059     -2143.6809      1920.3708      0.9969611
    196000  -649.38495      118.41734     -767.80229      312.80758      2720.5955      1920.3708      0.9969611
    197000  -641.83016      118.33433     -760.16449      312.58832     -1430.3168      1920.3708      0.9969611
    198000  -643.16971      107.11099     -750.2807       282.94108     -899.1376       1920.3708      0.9969611
    199000  -647.71511      109.39136     -757.10648      288.96485      689.49869      1920.3708      0.9969611
    200000  -623.95845      129.10783     -753.06629      341.04726     -2672.9427      1920.3708      0.9969611
    201000  -648.66462      101.86024     -750.52486      269.07087     -1301.7972      1920.3708      0.9969611
    202000  -624.40733      117.91744     -742.32477      311.48707     -1475.029       1920.3708      0.9969611
    203000  -650.66859      109.34557     -760.01416      288.84388      2110.0729      1920.3708      0.9969611
    204000  -661.21423      108.57133     -769.78556      286.79868      849.28716      1920.3708      0.9969611
    205000  -639.73009      112.31863     -752.04872      296.69742      2267.0688      1920.3708      0.9969611
    206000  -670.71119      103.63544     -774.34664      273.76019      1448.1602      1920.3708      0.9969611
    207000  -656.13642      99.714407     -755.85082      263.4025      -2506.6209      1920.3708      0.9969611
    208000  -638.49505      123.24575     -761.7408       325.56217      443.96213      1920.3708      0.9969611
    209000  -658.64245      110.79334     -769.43579      292.66826     -873.86062      1920.3708      0.9969611
    210000  -662.34974      109.54958     -771.89932      289.38278      1924.3311      1920.3708      0.9969611
    211000  -653.24583      108.92593     -762.17175      287.73536      1289.7611      1920.3708      0.9969611
    212000  -651.53403      104.0758      -755.60982      274.92342     -3063.7776      1920.3708      0.9969611
    213000  -662.25298      106.72427     -768.97725      281.91953     -1425.0525      1920.3708      0.9969611
    214000  -658.1202       110.42753     -768.54773      291.70195      13.915338      1920.3708      0.9969611
    215000  -671.36975      100.53536     -771.90511      265.5711      -1006.3856      1920.3708      0.9969611
    216000  -658.53534      107.55174     -766.08707      284.10534     -2562.2083      1920.3708      0.9969611
    217000  -654.66701      102.57415     -757.24116      270.95671     -366.17529      1920.3708      0.9969611
    218000  -648.69133      115.26772     -763.95905      304.48766     -192.52205      1920.3708      0.9969611
    219000  -658.87243      109.98977     -768.8622       290.54557      1819.7162      1920.3708      0.9969611
    220000  -650.03892      120.41984     -770.45876      318.09733      4655.5033      1920.3708      0.9969611
    221000  -640.28437      115.40277     -755.68714      304.84439     -1673.5531      1920.3708      0.9969611
    222000  -645.83055      112.32447     -758.15502      296.71284     -720.38015      1920.3708      0.9969611
    223000  -657.57444      115.50197     -773.0764       305.10643     -11.25631       1920.3708      0.9969611
    224000  -645.20204      115.03731     -760.23935      303.87901     -201.48389      1920.3708      0.9969611
    225000  -660.52455      113.98646     -774.51101      301.10312     -809.12476      1920.3708      0.9969611
    226000  -663.39936      109.45544     -772.85479      289.1341      -1773.7081      1920.3708      0.9969611
    227000  -680.27527      114.89086     -795.16613      303.49215     -356.72166      1920.3708      0.9969611
    228000  -648.77572      107.97374     -756.74946      285.2201      -1452.164       1920.3708      0.9969611
    229000  -657.59539      109.9809      -767.57629      290.52214      83.476554      1920.3708      0.9969611
    230000  -653.04133      124.54034     -777.58166      328.98191      1316.4335      1920.3708      0.9969611
    231000  -652.39985      117.02467     -769.42452      309.12876     -1064.1203      1920.3708      0.9969611
    232000  -653.4529       123.68712     -777.14002      326.72809      2476.7357      1920.3708      0.9969611
    233000  -660.89102      128.44094     -789.33196      339.28562     -486.85467      1920.3708      0.9969611
    234000  -659.01074      120.53556     -779.5463       318.40302     -2514.0841      1920.3708      0.9969611
    235000  -641.4665       128.4114      -769.8779       339.20758      1876.6038      1920.3708      0.9969611
    236000  -657.22146      117.7455      -774.96696      311.03288      146.27138      1920.3708      0.9969611
    237000  -666.08966      95.578979     -761.66864      252.47848     -441.41764      1920.3708      0.9969611
    238000  -637.99011      119.64622     -757.63632      316.05375      3713.5736      1920.3708      0.9969611
    239000  -683.4348       102.8389      -786.27371      271.65607     -1395.457       1920.3708      0.9969611
    240000  -647.14311      123.05925     -770.20235      325.0695      -2929.1568      1920.3708      0.9969611
    241000  -679.14989      114.39711     -793.547        302.18787     -793.04999      1920.3708      0.9969611
    242000  -673.1543       96.40685      -769.56115      254.66536     -893.20872      1920.3708      0.9969611
    243000  -667.09156      106.24667     -773.33823      280.65791     -3311.6362      1920.3708      0.9969611
    244000  -642.24849      119.42154     -761.67003      315.46026     -1683.5407      1920.3708      0.9969611
    245000  -639.11178      124.28368     -763.39546      328.30393     -3074.7561      1920.3708      0.9969611
    246000  -639.56421      114.84492     -754.40913      303.37079     -1330.6809      1920.3708      0.9969611
    247000  -644.17831      114.60456     -758.78287      302.73586      335.86103      1920.3708      0.9969611
    248000  -630.2263       117.28114     -747.50743      309.80622     -463.37022      1920.3708      0.9969611
    249000  -638.14935      117.69618     -755.84553      310.90259     -987.25693      1920.3708      0.9969611
    250000  -665.31603      102.05358     -767.36961      269.58158     -2780.3964      1920.3708      0.9969611
    251000  -636.88311      115.68101     -752.56411      305.57938      163.47497      1920.3708      0.9969611
    252000  -681.89403      95.978258     -777.87229      253.5332      -2038.3674      1920.3708      0.9969611
    253000  -639.34518      102.25083     -741.59601      270.10264     -920.20944      1920.3708      0.9969611
    254000  -655.43162      99.100326     -754.53195      261.78036      2920.1215      1920.3708      0.9969611
    255000  -664.84669      104.6586      -769.50529      276.46293     -695.71495      1920.3708      0.9969611
    256000  -624.93314      129.77025     -754.70339      342.79708      1664.7313      1920.3708      0.9969611
    257000  -676.5948       109.08705     -785.68185      288.16097     -1430.0677      1920.3708      0.9969611
    258000  -654.40533      113.00842     -767.41376      298.51956     -1146.6968      1920.3708      0.9969611
    259000  -655.51433      119.15825     -774.67257      314.76474      1777.3126      1920.3708      0.9969611
    260000  -669.54827      102.24273     -771.791        270.08122      707.22541      1920.3708      0.9969611
    261000  -649.23259      122.6878      -771.92039      324.08829      2112.1834      1920.3708      0.9969611
    262000  -667.18792      108.13317     -775.32109      285.64125     -424.00935      1920.3708      0.9969611
    263000  -638.95336      128.67446     -767.62781      339.90247      1010.7872      1920.3708      0.9969611
    264000  -626.21953      118.17572     -744.39525      312.16932     -337.9519       1920.3708      0.9969611
    265000  -656.9456       106.38296     -763.32856      281.01793      349.7336       1920.3708      0.9969611
    266000  -634.99605      109.63271     -744.62877      289.60239     -487.26306      1920.3708      0.9969611
    267000  -653.18791      110.84427     -764.03219      292.80281      318.70606      1920.3708      0.9969611
    268000  -650.7415       118.31947     -769.06098      312.54907     -979.52246      1920.3708      0.9969611
    269000  -638.75807      125.85098     -764.60905      332.44406     -1402.1646      1920.3708      0.9969611
    270000  -665.10934      104.75478     -769.86412      276.71699      816.1206       1920.3708      0.9969611
    271000  -657.05366      107.88992     -764.94358      284.99867     -596.88864      1920.3708      0.9969611
    272000  -652.48556      113.64989     -766.13545      300.21405     -840.31106      1920.3708      0.9969611
    273000  -641.37234      110.38611     -751.75845      291.59255      1507.771       1920.3708      0.9969611
    274000  -635.93442      127.36142     -763.29584      336.43399     -1262.9193      1920.3708      0.9969611
    275000  -646.31007      112.13352     -758.44358      296.20844     -71.411662      1920.3708      0.9969611
    276000  -665.116        100.01762     -765.13362      264.20345      2558.8562      1920.3708      0.9969611
    277000  -664.45539      112.35803     -776.81342      296.80151     -1049.2732      1920.3708      0.9969611
    278000  -645.39975      118.67359     -764.07334      313.48448      850.7896       1920.3708      0.9969611
    279000  -643.13587      111.36748     -754.50335      294.1849      -622.51557      1920.3708      0.9969611
    280000  -657.8289       121.90013     -779.72903      322.00763     -2796.1618      1920.3708      0.9969611
    281000  -650.52378      112.99687     -763.52065      298.48904     -132.54656      1920.3708      0.9969611
    282000  -652.04443      103.69623     -755.74066      273.92076     -3087.3333      1920.3708      0.9969611
    283000  -656.65328      109.36493     -766.01822      288.89503     -1277.4587      1920.3708      0.9969611
    284000  -675.22524      108.61293     -783.83817      286.90857     -905.86217      1920.3708      0.9969611
    285000  -659.62528      107.78583     -767.41111      284.72372     -1678.6994      1920.3708      0.9969611
    286000  -670.5354       106.78446     -777.31987      282.07854     -1881.0329      1920.3708      0.9969611
    287000  -655.11726      119.92746     -775.04472      316.79667     -553.85115      1920.3708      0.9969611
    288000  -640.73095      114.019       -754.74995      301.18907     -1574.9372      1920.3708      0.9969611
    289000  -679.30232      96.678257     -775.98058      255.3823       2195.5499      1920.3708      0.9969611
    290000  -668.73507      113.76066     -782.49573      300.50666     -1766.3499      1920.3708      0.9969611
    291000  -672.20621      95.305349     -767.51156      251.75567     -1197.9608      1920.3708      0.9969611
    292000  -657.28851      108.67371     -765.96221      287.06911      488.26488      1920.3708      0.9969611
    293000  -666.62823      104.24084     -770.86907      275.35939     -87.996258      1920.3708      0.9969611
    294000  -661.4401       111.56865     -773.00875      294.71629      2251.8436      1920.3708      0.9969611
    295000  -654.96737      111.13566     -766.10304      293.57253     -1319.4219      1920.3708      0.9969611
    296000  -637.35011      134.80384     -772.15395      356.09366     -1117.3212      1920.3708      0.9969611
    297000  -652.79162      105.17987     -757.9715       277.83991     -606.82621      1920.3708      0.9969611
    298000  -644.12981      121.25889     -765.38869      320.31373     -965.48061      1920.3708      0.9969611
    299000  -658.04781      106.85689     -764.9047       282.26985     -1125.2467      1920.3708      0.9969611
    300000  -643.08785      121.17953     -764.26738      320.1041      -1635.3729      1920.3708      0.9969611
    301000  -653.06641      109.16552     -762.23193      288.36827      1082.3006      1920.3708      0.9969611
    302000  -674.34555      108.33493     -782.68048      286.1742      -322.34822      1920.3708      0.9969611
    303000  -666.9332       117.45379     -784.38699      310.26229      1312.9757      1920.3708      0.9969611
    304000  -662.43526      109.13308     -771.56834      288.28256      76.543137      1920.3708      0.9969611
    305000  -668.73932      111.51721     -780.25653      294.58041      229.33962      1920.3708      0.9969611
    306000  -659.49302      113.89881     -773.39183      300.87157     -1677.4791      1920.3708      0.9969611
    307000  -676.55137      114.09883     -790.6502       301.39994     -831.85312      1920.3708      0.9969611
    308000  -685.70532      100.71974     -786.42506      266.05817     -3670.8868      1920.3708      0.9969611
    309000  -664.11988      109.85101     -773.97088      290.17903     -2497.2092      1920.3708      0.9969611
    310000  -655.65113      125.51418     -781.1653       331.55437      626.63314      1920.3708      0.9969611
    311000  -631.00799      112.90079     -743.90877      298.23524     -2366.4605      1920.3708      0.9969611
    312000  -645.70338      117.96564     -763.66902      311.61439     -236.98462      1920.3708      0.9969611
    313000  -661.22162      116.49051     -777.71213      307.71774      2063.8043      1920.3708      0.9969611
    314000  -662.8147       109.63291     -772.44761      289.60291      253.91757      1920.3708      0.9969611
    315000  -683.39513      106.27509     -789.67022      280.73298      269.56567      1920.3708      0.9969611
    316000  -683.39912      106.96927     -790.36839      282.56672     -1640.2935      1920.3708      0.9969611
    317000  -669.67447      113.06567     -782.74013      298.67077      868.33615      1920.3708      0.9969611
    318000  -666.36127      102.03276     -768.39403      269.52658     -2176.2743      1920.3708      0.9969611
    319000  -658.23615      109.55317     -767.78932      289.39228      1524.3521      1920.3708      0.9969611
    320000  -666.49802      103.0811      -769.57912      272.29586     -1561.2305      1920.3708      0.9969611
    321000  -657.60723      102.43602     -760.04324      270.59182      737.92322      1920.3708      0.9969611
    322000  -670.63158      111.15906     -781.79064      293.63434     -734.74106      1920.3708      0.9969611
    323000  -645.40117      111.91477     -757.31594      295.63061      562.44817      1920.3708      0.9969611
    324000  -661.20038      109.36652     -770.5669       288.89923     -2520.2389      1920.3708      0.9969611
    325000  -636.97598      117.39889     -754.37487      310.11729      190.36582      1920.3708      0.9969611
    326000  -672.57496      112.75236     -785.32732      297.84314     -466.21662      1920.3708      0.9969611
    327000  -646.99126      113.37826     -760.36952      299.4965       383.63581      1920.3708      0.9969611
    328000  -623.79862      132.70785     -756.50647      350.55694      524.99207      1920.3708      0.9969611
    329000  -666.7779       107.43529     -774.2132       283.79775     -612.06565      1920.3708      0.9969611
    330000  -649.25496      128.29272     -777.54768      338.89409      281.34909      1920.3708      0.9969611
    331000  -655.10513      112.18157     -767.2867       296.33538     -1742.7841      1920.3708      0.9969611
    332000  -664.43699      118.97035     -783.40734      314.2684       1174.0425      1920.3708      0.9969611
    333000  -666.76768      109.58459     -776.35227      289.47528     -265.71541      1920.3708      0.9969611
    334000  -670.6639       115.56985     -786.23375      305.28574     -1.4183713      1920.3708      0.9969611
    335000  -659.95482      120.39102     -780.34585      318.02121     -458.08051      1920.3708      0.9969611
    336000  -646.85397      129.2703      -776.12427      341.47643     -2150.8892      1920.3708      0.9969611
    337000  -620.61241      121.94836     -742.56077      322.13501      1115.7618      1920.3708      0.9969611
    338000  -661.52955      114.5077      -776.03725      302.48001      1696.8669      1920.3708      0.9969611
    339000  -641.4762       117.54118     -759.01738      310.49315      1812.0129      1920.3708      0.9969611
    340000  -646.04666      109.92983     -755.9765       290.38725     -2534.9726      1920.3708      0.9969611
    341000  -634.68767      114.68263     -749.3703       302.94208     -2241.1739      1920.3708      0.9969611
    342000  -650.03047      122.48791     -772.51839      323.56029      250.4536       1920.3708      0.9969611
    343000  -633.13591      110.85165     -743.98756      292.8223       934.77409      1920.3708      0.9969611
    344000  -641.35848      115.87549     -757.23397      306.09312     -174.76897      1920.3708      0.9969611
    345000  -655.3903       112.11394     -767.50424      296.15673      403.95482      1920.3708      0.9969611
    346000  -616.46645      112.67021     -729.13666      297.62616      2229.4624      1920.3708      0.9969611
    347000  -646.54657      118.21219     -764.75876      312.26567     -156.28797      1920.3708      0.9969611
    348000  -684.87221      94.349346     -779.22156      249.23032     -1885.1371      1920.3708      0.9969611
    349000  -654.54528      107.84628     -762.39156      284.8834      -1164.0691      1920.3708      0.9969611
    350000  -634.18602      119.30655     -753.49257      315.1565       2300.0275      1920.3708      0.9969611
    351000  -634.44425      111.91586     -746.36011      295.63349     -12.556346      1920.3708      0.9969611
    352000  -650.03444      114.44837     -764.48281      302.32329      1104.4275      1920.3708      0.9969611
    353000  -654.87405      111.50087     -766.37492      294.53725      137.55857      1920.3708      0.9969611
    354000  -666.53272      109.44298     -775.9757       289.10118      303.66331      1920.3708      0.9969611
    355000  -641.10879      119.74065     -760.84944      316.3032       643.89423      1920.3708      0.9969611
    356000  -659.264        114.932       -774.196        303.60081     -55.383441      1920.3708      0.9969611
    357000  -638.07434      129.45729     -767.53163      341.97037     -1673.4088      1920.3708      0.9969611
    358000  -671.66943      105.89357     -777.563        279.72519     -762.26487      1920.3708      0.9969611
    359000  -654.45436      119.95374     -774.40811      316.8661      -3003.5038      1920.3708      0.9969611
    360000  -653.99375      110.8082      -764.80195      292.70751      1306.9216      1920.3708      0.9969611
    361000  -628.11422      127.81567     -755.92989      337.63393     -659.90108      1920.3708      0.9969611
    362000  -671.12806      107.51519     -778.64325      284.00881     -626.82716      1920.3708      0.9969611
    363000  -641.66053      118.25048     -759.91101      312.36681      1047.1451      1920.3708      0.9969611
    364000  -652.22642      106.18831     -758.41473      280.50375     -1129.0304      1920.3708      0.9969611
    365000  -649.27369      108.80331     -758.077        287.41147      48.953038      1920.3708      0.9969611
    366000  -678.05407      114.63585     -792.68992      302.81852     -933.91676      1920.3708      0.9969611
    367000  -696.00441      101.09568     -797.10009      267.05123     -1202.1815      1920.3708      0.9969611
    368000  -660.77502      109.03758     -769.8126       288.0303      -854.34179      1920.3708      0.9969611
    369000  -667.2371       99.373757     -766.61086      262.50265     -194.53922      1920.3708      0.9969611
    370000  -660.02067      107.96515     -767.98582      285.19742     -1094.872       1920.3708      0.9969611
    371000  -663.56321      103.33397     -766.89717      272.96382      1392.4203      1920.3708      0.9969611
    372000  -621.92739      139.46397     -761.39135      368.40371      59.085742      1920.3708      0.9969611
    373000  -660.78568      118.69919     -779.48487      313.55211     -394.00459      1920.3708      0.9969611
    374000  -677.64262      110.48185     -788.12447      291.84543     -1485.159       1920.3708      0.9969611
    375000  -665.72996      107.56002     -773.28998      284.12723     -3296.3722      1920.3708      0.9969611
    376000  -673.2163       121.63169     -794.84799      321.29851      1609.7335      1920.3708      0.9969611
    377000  -621.36037      121.83731     -743.19768      321.84167     -116.66683      1920.3708      0.9969611
    378000  -650.75521      116.20522     -766.96042      306.96411     -932.47799      1920.3708      0.9969611
    379000  -646.72997      113.08263     -759.8126       298.71557      2341.2762      1920.3708      0.9969611
    380000  -667.4427       114.0182      -781.4609       301.18696     -892.21091      1920.3708      0.9969611
    381000  -658.31287      120.93686     -779.24973      319.46307     -199.43598      1920.3708      0.9969611
    382000  -647.64524      126.37326     -774.01851      333.82371      0.203716       1920.3708      0.9969611
    383000  -676.27304      108.95457     -785.22761      287.81104     -1124.2124      1920.3708      0.9969611
    384000  -638.43951      109.77484     -748.21434      289.97782     -955.38016      1920.3708      0.9969611
    385000  -652.85162      118.09535     -770.94697      311.95704     -1096.3074      1920.3708      0.9969611
    386000  -636.31217      107.69465     -744.00682      284.48285      1667.2303      1920.3708      0.9969611
    387000  -651.87246      110.25616     -762.12862      291.24927     -1500.3865      1920.3708      0.9969611
    388000  -636.68623      107.98686     -744.67309      285.25476     -791.49398      1920.3708      0.9969611
    389000  -651.46827      107.56401     -759.03228      284.13777      1666.4601      1920.3708      0.9969611
    390000  -631.12504      108.73252     -739.85756      287.22446      813.33225      1920.3708      0.9969611
    391000  -649.41883      100.24997     -749.6688       264.81723     -168.12808      1920.3708      0.9969611
    392000  -665.11101      106.7065      -771.81751      281.87259      1128.2577      1920.3708      0.9969611
    393000  -636.65226      118.81845     -755.47071      313.86713      1014.1884      1920.3708      0.9969611
    394000  -660.98149      101.34958     -762.33107      267.72192     -48.981252      1920.3708      0.9969611
    395000  -663.67511      111.03427     -774.70938      293.30471     -1774.5834      1920.3708      0.9969611
    396000  -652.03563      117.20676     -769.24239      309.60976      1757.8121      1920.3708      0.9969611
    397000  -659.29456      113.14905     -772.44361      298.89104     -423.32938      1920.3708      0.9969611
    398000  -648.93141      114.82832     -763.75973      303.32693      1239.3255      1920.3708      0.9969611
    399000  -646.14989      125.87068     -772.02057      332.49609      2953.2105      1920.3708      0.9969611
    400000  -651.20492      114.8466      -766.05153      303.37524      231.1606       1920.3708      0.9969611
    401000  -618.31834      131.88019     -750.19852      348.37063     -156.73944      1920.3708      0.9969611
    402000  -652.14543      119.56781     -771.71324      315.84665      3042.717       1920.3708      0.9969611
    403000  -646.01873      104.01537     -750.03409      274.76378     -749.39459      1920.3708      0.9969611
    404000  -622.99617      135.5959      -758.59207      358.18594      2192.939       1920.3708      0.9969611
    405000  -665.36128      99.789819     -765.1511       263.6017      -1118.2818      1920.3708      0.9969611
    406000  -637.52291      113.99384     -751.51675      301.12261     -5158.1726      1920.3708      0.9969611
    407000  -650.64546      104.45168     -755.09714      275.91633     -511.04142      1920.3708      0.9969611
    408000  -670.77002      111.25586     -782.02588      293.89005     -1686.7935      1920.3708      0.9969611
    409000  -646.63437      111.1988      -757.83316      293.73931      256.89703      1920.3708      0.9969611
    410000  -663.43351      113.50491     -776.93842      299.83106     -2320.2171      1920.3708      0.9969611
    411000  -683.76767      117.2992      -801.06686      309.85393     -80.210666      1920.3708      0.9969611
    412000  -669.03423      109.90368     -778.9379       290.31816      247.90464      1920.3708      0.9969611
    413000  -686.88253      107.19281     -794.07534      283.15723     -135.88061      1920.3708      0.9969611
    414000  -689.99939      104.90202     -794.90141      277.10592      550.12482      1920.3708      0.9969611
    415000  -647.25952      113.37678     -760.6363       299.49259     -1158.0675      1920.3708      0.9969611
    416000  -651.25631      121.07788     -772.33418      319.83558     -353.87389      1920.3708      0.9969611
    417000  -655.05352      119.99752     -775.05104      316.98175      954.03409      1920.3708      0.9969611
    418000  -656.11444      108.31649     -764.43093      286.12549      3060.8742      1920.3708      0.9969611
    419000  -669.68403      114.68022     -784.36425      302.93572      1391.402       1920.3708      0.9969611
    420000  -645.02158      109.40993     -754.4315       289.01388     -2408.1162      1920.3708      0.9969611
    421000  -631.73986      117.67772     -749.41758      310.85384     -2785.1577      1920.3708      0.9969611
    422000  -651.97808      114.91819     -766.89627      303.56434     -3459.4872      1920.3708      0.9969611
    423000  -660.34804      114.19081     -774.53885      301.64291      1858.0289      1920.3708      0.9969611
    424000  -640.91594      118.12437     -759.04031      312.03369     -3994.6095      1920.3708      0.9969611
    425000  -662.30966      106.79199     -769.10164      282.09841     -3214.6077      1920.3708      0.9969611
    426000  -673.57093      112.98745     -786.55838      298.46417     -2916.3911      1920.3708      0.9969611
    427000  -664.69719      103.80665     -768.50384      274.21244      190.46277      1920.3708      0.9969611
    428000  -665.71259      109.38809     -775.10068      288.9562       1648.2475      1920.3708      0.9969611
    429000  -658.16004      121.94006     -780.1001       322.1131      -2595.856       1920.3708      0.9969611
    430000  -639.09378      128.78409     -767.87787      340.19208      3396.0756      1920.3708      0.9969611
    431000  -670.34213      99.913868     -770.256        263.92939     -1241.8162      1920.3708      0.9969611
    432000  -648.28608      116.00809     -764.29417      306.4434       2945.5042      1920.3708      0.9969611
    433000  -629.58713      113.77739     -743.36453      300.55084      301.74762      1920.3708      0.9969611
    434000  -643.30513      102.24193     -745.54706      270.07912     -3339.8461      1920.3708      0.9969611
    435000  -640.06096      117.24704     -757.308        309.71617      912.05621      1920.3708      0.9969611
    436000  -649.20857      113.17347     -762.38204      298.95555      957.55853      1920.3708      0.9969611
    437000  -666.54575      99.709185     -766.25493      263.3887       1779.8938      1920.3708      0.9969611
    438000  -642.48542      120.82811     -763.31353      319.1758       1207.2971      1920.3708      0.9969611
    439000  -670.5542       104.36641     -774.92061      275.69109     -3458.7226      1920.3708      0.9969611
    440000  -657.29123      118.42913     -775.72036      312.83872     -60.505653      1920.3708      0.9969611
    441000  -645.69996      107.0998      -752.79976      282.91152      653.3317       1920.3708      0.9969611
    442000  -652.50416      112.48389     -764.98805      297.13398     -494.87906      1920.3708      0.9969611
    443000  -662.5387       114.64018     -777.17888      302.82995     -971.04287      1920.3708      0.9969611
    444000  -675.75229      116.32867     -792.08096      307.29022     -1683.1307      1920.3708      0.9969611
    445000  -665.30233      109.68546     -774.9878       289.74173      1754.8115      1920.3708      0.9969611
    446000  -664.23036      108.72        -772.95037      287.1914      -885.61686      1920.3708      0.9969611
    447000  -656.92301      107.0999      -764.02291      282.91178     -1451.6797      1920.3708      0.9969611
    448000  -616.71489      117.14169     -733.85657      309.43787      302.25674      1920.3708      0.9969611
    449000  -628.23023      121.60542     -749.83564      321.22911      596.02657      1920.3708      0.9969611
    450000  -644.17233      101.59676     -745.76909      268.37486     -2409.3256      1920.3708      0.9969611
    451000  -635.63956      105.93227     -741.57183      279.82741      2397.6055      1920.3708      0.9969611
    452000  -641.50629      112.11261     -753.6189       296.15322     -565.43294      1920.3708      0.9969611
    453000  -660.93509      109.27697     -770.21207      288.66268      9.6626546      1920.3708      0.9969611
    454000  -669.55322      111.86701     -781.42023      295.50443      288.67001      1920.3708      0.9969611
    455000  -670.51891      100.6796      -771.1985       265.95211     -55.157554      1920.3708      0.9969611
    456000  -665.9456       110.24897     -776.19457      291.23028     -1300.4755      1920.3708      0.9969611
    457000  -643.35355      114.24431     -757.59786      301.78424      2319.5414      1920.3708      0.9969611
    458000  -637.60174      120.27209     -757.87383      317.70704     -140.09555      1920.3708      0.9969611
    459000  -663.55906      116.5771      -780.13616      307.94645     -1535.9072      1920.3708      0.9969611
    460000  -671.52172      112.74534     -784.26706      297.82462     -1683.77        1920.3708      0.9969611
    461000  -658.86599      103.42985     -762.29584      273.21709     -2191.1555      1920.3708      0.9969611
    462000  -652.26552      107.15232     -759.41784      283.05026      2158.0073      1920.3708      0.9969611
    463000  -657.84988      105.1215      -762.97138      277.68571     -2408.5735      1920.3708      0.9969611
    464000  -626.99075      111.96691     -738.95766      295.76832      1698.1454      1920.3708      0.9969611
    465000  -661.88741      119.93159     -781.819        316.80758     -2223.63        1920.3708      0.9969611
    466000  -648.67645      121.4941      -770.17055      320.93505     -2637.3795      1920.3708      0.9969611
    467000  -673.95189      112.11894     -786.07083      296.16993     -2514.8753      1920.3708      0.9969611
    468000  -651.83752      120.87013     -772.70765      319.28679     -2000.9251      1920.3708      0.9969611
    469000  -667.51384      112.1421      -779.65594      296.23111     -39.364596      1920.3708      0.9969611
    470000  -661.49269      107.67343     -769.16612      284.4268       728.54147      1920.3708      0.9969611
    471000  -639.72452      124.68352     -764.40804      329.36014      777.2682       1920.3708      0.9969611
    472000  -658.98969      115.68324     -774.67292      305.58526     -268.17395      1920.3708      0.9969611
    473000  -616.58055      130.55008     -747.13063      344.85707      1082.7502      1920.3708      0.9969611
    474000  -633.36167      115.60613     -748.9678       305.38159      816.53378      1920.3708      0.9969611
    475000  -645.56234      121.11481     -766.67715      319.93313     -1662.4712      1920.3708      0.9969611
    476000  -631.33729      111.58186     -742.91915      294.7512       1585.0792      1920.3708      0.9969611
    477000  -647.62833      109.33613     -756.96446      288.81893     -2140.7654      1920.3708      0.9969611
    478000  -629.37403      133.42435     -762.79838      352.44964     -1787.695       1920.3708      0.9969611
    479000  -635.63797      115.18356     -750.82154      304.26534     -1022.6358      1920.3708      0.9969611
    480000  -642.36984      116.90126     -759.27111      308.80277      803.16566      1920.3708      0.9969611
    481000  -646.57003      112.00756     -758.57758      295.87571     -1064.0653      1920.3708      0.9969611
    482000  -665.50765      104.2506      -769.75825      275.38516     -1747.1802      1920.3708      0.9969611
    483000  -653.93136      113.31474     -767.2461       299.32872     -331.36131      1920.3708      0.9969611
    484000  -653.59756      109.99242     -763.58998      290.55257      1575.2562      1920.3708      0.9969611
    485000  -657.6147       110.86406     -768.47875      292.85506     -939.14395      1920.3708      0.9969611
    486000  -667.61226      107.31767     -774.92993      283.48704      219.16924      1920.3708      0.9969611
    487000  -659.99493      100.36622     -760.36115      265.1243       3041.6345      1920.3708      0.9969611
    488000  -650.59408      112.25025     -762.84434      296.5168       945.33486      1920.3708      0.9969611
    489000  -666.62461      110.08363     -776.70823      290.79351     -114.13966      1920.3708      0.9969611
    490000  -654.19504      108.54056     -762.7356       286.71739     -1773.3812      1920.3708      0.9969611
    491000  -638.51804      109.46939     -747.98743      289.17095     -2905.7429      1920.3708      0.9969611
    492000  -660.16725      104.91126     -765.07851      277.13033     -1029.4768      1920.3708      0.9969611
    493000  -642.98513      123.40001     -766.38513      325.96965     -1013.3962      1920.3708      0.9969611
    494000  -648.34476      111.50492     -759.84968      294.54794     -674.01714      1920.3708      0.9969611
    495000  -656.35116      110.4965      -766.84766      291.88414     -474.01263      1920.3708      0.9969611
    496000  -656.78125      105.86288     -762.64412      279.6441      -767.89062      1920.3708      0.9969611
    497000  -647.00375      119.7228      -766.72655      316.25604      1903.3993      1920.3708      0.9969611
    498000  -650.45376      123.8785      -774.33225      327.23361     -1460.7956      1920.3708      0.9969611
    499000  -653.26399      114.18353     -767.44752      301.62367      16.009187      1920.3708      0.9969611
    500000  -618.92429      116.7377      -735.66198      308.3707       1588.6813      1920.3708      0.9969611
    501000  -662.46424      111.87289     -774.33713      295.51997      1736.77        1920.3708      0.9969611
    502000  -641.31302      111.79785     -753.11087      295.32175     -437.86535      1920.3708      0.9969611
    503000  -648.62129      112.61437     -761.23565      297.47864     -529.11322      1920.3708      0.9969611
    504000  -626.64604      133.64101     -760.28705      353.02197      543.60871      1920.3708      0.9969611
    505000  -637.67857      121.94915     -759.62772      322.13711     -2875.7242      1920.3708      0.9969611
    506000  -663.18981      98.445362     -761.63517      260.05023     -727.9478       1920.3708      0.9969611
    507000  -644.48224      111.96895     -756.45119      295.77372     -2272.9255      1920.3708      0.9969611
    508000  -638.87572      126.44378     -765.3195       334.00998      2298.8175      1920.3708      0.9969611
    509000  -660.90844      103.10058     -764.00902      272.34731      479.37436      1920.3708      0.9969611
    510000  -629.06709      125.79572     -754.86281      332.29809     -1276.5944      1920.3708      0.9969611
    511000  -629.79557      110.01554     -739.81111      290.61366      208.0209       1920.3708      0.9969611
    512000  -648.77358      103.77281     -752.54639      274.12305      2265.1943      1920.3708      0.9969611
    513000  -682.31176      99.613189     -781.92495      263.13512      453.58738      1920.3708      0.9969611
    514000  -694.54392      94.365983     -788.90991      249.27427     -1597.7654      1920.3708      0.9969611
    515000  -638.12202      129.32171     -767.44373      341.61223      1726.7469      1920.3708      0.9969611
    516000  -661.94485      112.58833     -774.53318      297.40985      833.10666      1920.3708      0.9969611
    517000  -665.59977      113.6014      -779.20117      300.08595     -23.483653      1920.3708      0.9969611
    518000  -687.78436      111.45201     -799.23637      294.40818     -1939.2977      1920.3708      0.9969611
    519000  -651.60229      99.448001     -751.0503       262.69877     -1942.0726      1920.3708      0.9969611
    520000  -630.78038      124.73423     -755.51461      329.49409     -571.18501      1920.3708      0.9969611
    521000  -617.09987      129.44678     -746.54665      341.94261     -224.90323      1920.3708      0.9969611
    522000  -667.23352      109.95698     -777.1905       290.45895      424.67509      1920.3708      0.9969611
    523000  -634.64201      127.89741     -762.53941      337.84984      532.76807      1920.3708      0.9969611
    524000  -663.23867      112.01817     -775.25684      295.90373     -2116.3042      1920.3708      0.9969611
    525000  -646.60259      127.45213     -774.05472      336.67362     -219.3316       1920.3708      0.9969611
    526000  -625.51215      129.4994      -755.01155      342.08162      297.89435      1920.3708      0.9969611
    527000  -662.28634      102.8092      -765.09554      271.5776      -1120.3615      1920.3708      0.9969611
    528000  -655.71514      108.31096     -764.0261       286.11089     -216.88081      1920.3708      0.9969611
    529000  -648.87725      100.44774     -749.32499      265.33964     -2399.6708      1920.3708      0.9969611
    530000  -645.94456      104.26173     -750.20629      275.41457     -2834.7675      1920.3708      0.9969611
    531000  -643.78097      133.12323     -776.9042       351.65421     -1030.66        1920.3708      0.9969611
    532000  -658.32866      124.7071      -783.03577      329.42243     -844.54327      1920.3708      0.9969611
    533000  -657.17417      115.20315     -772.37733      304.31709     -180.03488      1920.3708      0.9969611
    534000  -672.45292      108.13857     -780.59149      285.65551      891.73542      1920.3708      0.9969611
    535000  -647.68469      115.78377     -763.46847      305.85084      559.46165      1920.3708      0.9969611
    536000  -654.73803      129.22152     -783.95955      341.34757      272.03788      1920.3708      0.9969611
    537000  -682.14549      103.45032     -785.59581      273.27117      1118.6057      1920.3708      0.9969611
    538000  -668.52364      110.04413     -778.56777      290.68916      268.72532      1920.3708      0.9969611
    539000  -675.34812      103.08083     -778.42895      272.29514     -40.88898       1920.3708      0.9969611
    540000  -666.65645      121.44396     -788.10041      320.80261      2739.224       1920.3708      0.9969611
    541000  -652.99962      114.93304     -767.93267      303.60358      2090.2938      1920.3708      0.9969611
    542000  -653.36537      116.38157     -769.74694      307.42997     -683.22655      1920.3708      0.9969611
    543000  -651.68391      111.32529     -763.0092       294.07345     -68.624464      1920.3708      0.9969611
    544000  -632.31568      115.85586     -748.17154      306.04125      4092.6624      1920.3708      0.9969611
    545000  -644.75793      109.85764     -754.61558      290.19656      4706.9063      1920.3708      0.9969611
    546000  -637.80702      110.69195     -748.49897      292.40045      2789.1716      1920.3708      0.9969611
    547000  -652.25587      101.0496      -753.30547      266.92949      1085.8245      1920.3708      0.9969611
    548000  -657.13547      113.93426     -771.06973      300.96523     -1150.0754      1920.3708      0.9969611
    549000  -663.64912      100.27106     -763.92018      264.87295     -3244.3951      1920.3708      0.9969611
    550000  -655.8951       111.66419     -767.55929      294.96869     -2142.6137      1920.3708      0.9969611
    551000  -638.68509      108.5964      -747.2815       286.8649       942.27848      1920.3708      0.9969611
    552000  -622.16671      137.18798     -759.35469      362.39152      157.20486      1920.3708      0.9969611
    553000  -651.32137      120.32435     -771.64573      317.8451      -2485.6171      1920.3708      0.9969611
    554000  -654.5618       119.25393     -773.81574      315.0175       2154.5363      1920.3708      0.9969611
    555000  -678.62454      99.201539     -777.82608      262.04772     -1993.6033      1920.3708      0.9969611
    556000  -655.42859      109.72119     -765.14977      289.8361      -322.04684      1920.3708      0.9969611
    557000  -653.90907      100.81748     -754.72655      266.31633     -3506.7832      1920.3708      0.9969611
    558000  -641.50374      115.75968     -757.26342      305.7872      -889.69864      1920.3708      0.9969611
    559000  -647.06322      113.34398     -760.4072       299.40596      3667.8063      1920.3708      0.9969611
    560000  -642.27585      118.92877     -761.20462      314.15855      1163.062       1920.3708      0.9969611
    561000  -653.23185      104.9185      -758.15035      277.14946     -3679.1454      1920.3708      0.9969611
    562000  -650.64397      105.2287      -755.87267      277.96888     -123.07669      1920.3708      0.9969611
    563000  -664.55418      110.87138     -775.42556      292.87443      590.84048      1920.3708      0.9969611
    564000  -647.59589      102.80417     -750.40007      271.56433     -1288.2308      1920.3708      0.9969611
    565000  -658.10339      117.6312      -775.73459      310.73095     -612.57693      1920.3708      0.9969611
    566000  -671.09532      118.97669     -790.07202      314.28516     -126.93131      1920.3708      0.9969611
    567000  -671.97974      104.34091     -776.32065      275.62372      671.58141      1920.3708      0.9969611
    568000  -657.72513      124.58141     -782.30654      329.09041     -1410.4148      1920.3708      0.9969611
    569000  -652.38624      112.60933     -764.99557      297.46533      1813.4814      1920.3708      0.9969611
    570000  -673.32829      107.41075     -780.73903      283.73292      364.16378      1920.3708      0.9969611
    571000  -675.67949      105.69952     -781.379        279.21258     -966.39498      1920.3708      0.9969611
    572000  -667.29832      118.45826     -785.75658      312.91569      420.2705       1920.3708      0.9969611
    573000  -675.49492      106.05515     -781.55007      280.152       -1114.6992      1920.3708      0.9969611
    574000  -631.10613      128.75607     -759.8622       340.11805     -1309.4776      1920.3708      0.9969611
    575000  -635.02294      110.20483     -745.22777      291.11368      3692.6753      1920.3708      0.9969611
    576000  -675.60043      100.07182     -775.67225      264.34662      222.62037      1920.3708      0.9969611
    577000  -647.28916      118.64557     -765.93473      313.41046      1573.1291      1920.3708      0.9969611
    578000  -653.71998      122.8349      -776.55488      324.47688     -1606.7559      1920.3708      0.9969611
    579000  -659.61833      109.9693      -769.58763      290.4915      -831.60986      1920.3708      0.9969611
    580000  -672.91997      110.87348     -783.79345      292.87996      1550.2533      1920.3708      0.9969611
    581000  -666.6655       110.82457     -777.49008      292.75077      76.600628      1920.3708      0.9969611
    582000  -660.6806       114.3211      -775.0017       301.98709     -3873.3614      1920.3708      0.9969611
    583000  -664.70979      111.0124      -775.72219      293.24693     -397.16388      1920.3708      0.9969611
    584000  -648.69354      117.64102     -766.33456      310.75688     -23.985624      1920.3708      0.9969611
    585000  -670.50753      109.00011     -779.50764      287.93131     -1628.0175      1920.3708      0.9969611
    586000  -664.88707      111.7382      -776.62527      295.16419     -409.82604      1920.3708      0.9969611
    587000  -671.75721      93.29826      -765.05547      246.4538       2601.735       1920.3708      0.9969611
    588000  -650.72045      111.69682     -762.41727      295.05488      3406.0841      1920.3708      0.9969611
    589000  -634.71134      106.37649     -741.08784      281.00086      656.58477      1920.3708      0.9969611
    590000  -674.80355      113.6301      -788.43365      300.16177     -462.01621      1920.3708      0.9969611
    591000  -664.29908      102.13423     -766.43332      269.79464      182.18428      1920.3708      0.9969611
    592000  -684.94763      97.727957     -782.67559      258.15515      184.82615      1920.3708      0.9969611
    593000  -648.17203      106.65471     -754.82673      281.73578     -17.419193      1920.3708      0.9969611
    594000  -656.51161      113.16327     -769.67487      298.92859     -2383.5489      1920.3708      0.9969611
    595000  -672.74636      107.06457     -779.81093      282.81845     -3465.9963      1920.3708      0.9969611
    596000  -658.17319      113.25839     -771.43158      299.17987     -1746.7835      1920.3708      0.9969611
    597000  -658.09732      123.58259     -781.6799       326.45194      2217.8897      1920.3708      0.9969611
    598000  -647.69738      125.77994     -773.47732      332.25641     -296.09871      1920.3708      0.9969611
    599000  -652.66223      125.02096     -777.68319      330.25152      2643.6205      1920.3708      0.9969611
    600000  -665.95334      103.55313     -769.50647      273.54274     -158.8896       1920.3708      0.9969611
    601000  -650.38847      119.16915     -769.55762      314.79354     -987.58115      1920.3708      0.9969611
    602000  -673.96563      109.64929     -783.61492      289.64618      1002.7308      1920.3708      0.9969611
    603000  -672.70149      101.82568     -774.52717      268.97957      362.36585      1920.3708      0.9969611
    604000  -659.12872      105.73052     -764.85924      279.29447      973.14988      1920.3708      0.9969611
    605000  -646.11893      122.46625     -768.58518      323.50305     -3303.9011      1920.3708      0.9969611
    606000  -639.51946      111.97871     -751.49818      295.79951      1907.2387      1920.3708      0.9969611
    607000  -651.36342      118.14142     -769.50484      312.07873     -3612.9544      1920.3708      0.9969611
    608000  -634.71109      123.82065     -758.53175      327.08081      1811.8402      1920.3708      0.9969611
    609000  -633.60081      117.8184      -751.41921      311.22545     -250.33354      1920.3708      0.9969611
    610000  -676.77343      105.28186     -782.05529      278.10931     -2050.0572      1920.3708      0.9969611
    611000  -648.14972      119.4341      -767.58382      315.49342     -1919.7931      1920.3708      0.9969611
    612000  -644.39708      108.61461     -753.01169      286.913       -2214.1703      1920.3708      0.9969611
    613000  -636.96776      128.65403     -765.62179      339.84852      2431.5678      1920.3708      0.9969611
    614000  -684.96414      101.39621     -786.36035      267.8451      -1701.6087      1920.3708      0.9969611
    615000  -654.21129      101.07521     -755.2865       266.99714      623.72511      1920.3708      0.9969611
    616000  -635.96794      107.06574     -743.03368      282.82156     -29.751673      1920.3708      0.9969611
    617000  -650.94938      115.71924     -766.66862      305.68036      1663.2695      1920.3708      0.9969611
    618000  -652.5665       113.41641     -765.98291      299.59729     -3101.8929      1920.3708      0.9969611
    619000  -685.85894      107.68146     -793.5404       284.44802      277.34518      1920.3708      0.9969611
    620000  -660.40748      110.64434     -771.05182      292.27467      337.93786      1920.3708      0.9969611
    621000  -665.15981      93.973606     -759.13342      248.23778     -1360.7432      1920.3708      0.9969611
    622000  -658.35466      118.00423     -776.35889      311.71633      764.93635      1920.3708      0.9969611
    623000  -667.25816      106.44324     -773.7014       281.17719      1587.0936      1920.3708      0.9969611
    624000  -658.2524       131.85215     -790.10455      348.29656      2075.2079      1920.3708      0.9969611
    625000  -679.2851       92.790312     -772.07542      245.11202      2498.8795      1920.3708      0.9969611
    626000  -660.84452      101.93608     -762.78059      269.27119      990.64495      1920.3708      0.9969611
    627000  -662.58459      104.57463     -767.15922      276.24111      125.14249      1920.3708      0.9969611
    628000  -639.03027      133.15107     -772.18133      351.72775     -1054.2201      1920.3708      0.9969611
    629000  -648.5098       115.4421      -763.95191      304.94829     -1214.4082      1920.3708      0.9969611
    630000  -671.46046      105.77221     -777.23267      279.4046      -449.13364      1920.3708      0.9969611
    631000  -632.90278      110.68462     -743.5874       292.38107     -689.06956      1920.3708      0.9969611
    632000  -650.69339      109.84575     -760.53914      290.16515     -3601.2136      1920.3708      0.9969611
    633000  -630.53945      126.95087     -757.49032      335.3495       2543.7389      1920.3708      0.9969611
    634000  -661.71883      115.58816     -777.30699      305.33411      218.21328      1920.3708      0.9969611
    635000  -679.56611      105.5351      -785.1012       278.77825     -1894.1305      1920.3708      0.9969611
    636000  -661.69603      112.10967     -773.80569      296.14543      471.68018      1920.3708      0.9969611
    637000  -655.76078      124.38743     -780.14821      328.57799      1482.4962      1920.3708      0.9969611
    638000  -700.52004      97.659794     -798.17983      257.9751       1957.5478      1920.3708      0.9969611
    639000  -654.93083      113.95688     -768.88771      301.02498     -4730.8198      1920.3708      0.9969611
    640000  -668.48111      109.10734     -777.58846      288.21459      2009.4086      1920.3708      0.9969611
    641000  -667.82609      110.80769     -778.63378      292.70617     -679.74761      1920.3708      0.9969611
    642000  -640.64692      120.23025     -760.87717      317.59653      2413.9972      1920.3708      0.9969611
    643000  -658.76927      108.85878     -767.62805      287.55799     -1104.8978      1920.3708      0.9969611
    644000  -646.3926       109.2893      -755.6819       288.69525     -1990.5611      1920.3708      0.9969611
    645000  -673.85594      100.58178     -774.43772      265.69371      328.82062      1920.3708      0.9969611
    646000  -627.08847      123.39685     -750.48532      325.9613      -675.93214      1920.3708      0.9969611
    647000  -644.38691      110.81911     -755.20602      292.73634      83.25263       1920.3708      0.9969611
    648000  -634.95214      118.1639      -753.11604      312.13811     -414.40564      1920.3708      0.9969611
    649000  -652.22         113.39574     -765.61574      299.54268     -1789.7868      1920.3708      0.9969611
    650000  -669.12258      101.19702     -770.3196       267.31892     -380.64588      1920.3708      0.9969611
    651000  -657.61747      122.16768     -779.78515      322.71437     -2901.066       1920.3708      0.9969611
    652000  -666.69162      108.45158     -775.1432       286.48235     -3707.0796      1920.3708      0.9969611
    653000  -673.40276      109.8051      -783.20786      290.05776      910.342        1920.3708      0.9969611
    654000  -672.39284      106.41976     -778.8126       281.11514      514.05409      1920.3708      0.9969611
    655000  -672.81473      106.50451     -779.31924      281.33901     -3058.8781      1920.3708      0.9969611
    656000  -689.07708      110.78109     -799.85817      292.63589      609.05118      1920.3708      0.9969611
    657000  -686.4157       99.29016      -785.70586      262.28182     -293.954        1920.3708      0.9969611
    658000  -681.45982      113.85016     -795.30998      300.74307      1288.3386      1920.3708      0.9969611
    659000  -659.05023      108.94335     -767.99358      287.78139      25.955919      1920.3708      0.9969611
    660000  -620.989        122.21254     -743.20154      322.83287     -67.865778      1920.3708      0.9969611
    661000  -645.12177      119.03078     -764.15255      314.42804     -888.93699      1920.3708      0.9969611
    662000  -629.49088      111.89414     -741.38502      295.5761      -2028.2451      1920.3708      0.9969611
    663000  -615.41047      112.89496     -728.30542      298.21984     -311.07548      1920.3708      0.9969611
    664000  -646.46237      108.24727     -754.70964      285.94264     -464.24064      1920.3708      0.9969611
    665000  -641.90294      111.40373     -753.30667      294.28064      986.25105      1920.3708      0.9969611
    666000  -645.6007       112.54749     -758.14819      297.30197     -298.67228      1920.3708      0.9969611
    667000  -660.28664      119.57319     -779.85984      315.86085     -1288.7372      1920.3708      0.9969611
    668000  -653.13461      120.27004     -773.40466      317.70163      1987.2931      1920.3708      0.9969611
    669000  -634.84933      131.70078     -766.55011      347.89671      2268.2272      1920.3708      0.9969611
    670000  -648.07218      102.62362     -750.69579      271.08737      344.96869      1920.3708      0.9969611
    671000  -669.89097      100.81841     -770.70939      266.31881     -1592.0931      1920.3708      0.9969611
    672000  -649.40242      116.79403     -766.19645      308.5195      -455.39547      1920.3708      0.9969611
    673000  -665.63328      106.74919     -772.38247      281.98537     -410.44399      1920.3708      0.9969611
    674000  -637.07986      120.89573     -757.97559      319.35443     -629.4587       1920.3708      0.9969611
    675000  -625.16518      119.07845     -744.24363      314.55396     -656.40148      1920.3708      0.9969611
    676000  -650.33859      97.034757     -747.37335      256.32402     -975.39655      1920.3708      0.9969611
    677000  -638.29321      125.48498     -763.77819      331.47726     -2732.0557      1920.3708      0.9969611
    678000  -664.2495       103.782       -768.0315       274.14733      691.5577       1920.3708      0.9969611
    679000  -651.32594      108.01065     -759.33659      285.31759      274.73944      1920.3708      0.9969611
    680000  -656.41879      111.71468     -768.13347      295.10205      2216.22        1920.3708      0.9969611
    681000  -641.36984      107.99569     -749.36553      285.27809     -375.21389      1920.3708      0.9969611
    682000  -647.04551      108.73948     -755.78499      287.24285      558.59292      1920.3708      0.9969611
    683000  -646.89706      114.69095     -761.58801      302.96408      4404.7851      1920.3708      0.9969611
    684000  -653.01935      101.81231     -754.83167      268.94426     -1027.3522      1920.3708      0.9969611
    685000  -692.38957      99.316284     -791.70586      262.35083     -2718.3732      1920.3708      0.9969611
    686000  -659.58931      114.41018     -773.99949      302.22239      1538.3062      1920.3708      0.9969611
    687000  -653.2755       106.46235     -759.73784      281.22765      924.04428      1920.3708      0.9969611
    688000  -644.81172      127.08832     -771.90004      335.71259      3009.55        1920.3708      0.9969611
    689000  -624.48958      129.43721     -753.92679      341.91733     -3103.3909      1920.3708      0.9969611
    690000  -636.63313      121.99801     -758.63114      322.26617      2334.2964      1920.3708      0.9969611
    691000  -634.07835      115.582       -749.66034      305.31783      988.11895      1920.3708      0.9969611
    692000  -655.08782      117.16631     -772.25414      309.50291     -706.66039      1920.3708      0.9969611
    693000  -649.12011      127.97092     -777.09102      338.04402     -2068.5154      1920.3708      0.9969611
    694000  -670.39152      96.753839     -767.14536      255.58195      411.75925      1920.3708      0.9969611
    695000  -642.33136      120.63795     -762.96931      318.67349     -1810.5154      1920.3708      0.9969611
    696000  -667.54373      113.07261     -780.61634      298.68911      193.26888      1920.3708      0.9969611
    697000  -647.18788      109.25993     -756.44781      288.61765      853.51621      1920.3708      0.9969611
    698000  -674.84837      110.27712     -785.12549      291.30464     -2220.1467      1920.3708      0.9969611
    699000  -645.84586      114.92122     -760.76708      303.57235     -1460.5625      1920.3708      0.9969611
    700000  -663.95522      107.72745     -771.68267      284.56952      1512.845       1920.3708      0.9969611
    701000  -671.14685      112.19848     -783.34533      296.38004     -529.49327      1920.3708      0.9969611
    702000  -643.07639      128.45617     -771.53256      339.32584      313.82465      1920.3708      0.9969611
    703000  -640.90272      109.65521     -750.55793      289.66181     -1835.4753      1920.3708      0.9969611
    704000  -660.34874      94.185435     -754.53417      248.79733     -3664.8119      1920.3708      0.9969611
    705000  -638.74887      117.12633     -755.87519      309.39728     -1327.4327      1920.3708      0.9969611
    706000  -674.87501      111.00477     -785.87978      293.22676     -2058.4249      1920.3708      0.9969611
    707000  -646.49368      101.14112     -747.6348       267.17125     -44.125155      1920.3708      0.9969611
    708000  -625.89117      117.51947     -743.41064      310.43579      248.93968      1920.3708      0.9969611
    709000  -643.4081       111.79543     -755.20353      295.31534      126.82835      1920.3708      0.9969611
    710000  -669.37177      101.67052     -771.04229      268.56972      356.80959      1920.3708      0.9969611
    711000  -669.46499      102.61257     -772.07756      271.05821     -2163.1432      1920.3708      0.9969611
    712000  -693.17881      118.45383     -811.63263      312.90397     -2926.425       1920.3708      0.9969611
    713000  -662.324        116.16321     -778.48721      306.85314      1406.2444      1920.3708      0.9969611
    714000  -659.18864      113.81352     -773.00216      300.64627     -1659.9258      1920.3708      0.9969611
    715000  -640.04917      130.68241     -770.73158      345.20662      925.62125      1920.3708      0.9969611
    716000  -655.85263      103.33589     -759.18853      272.9689       153.59125      1920.3708      0.9969611
    717000  -671.75774      97.736909     -769.49465      258.1788      -953.48226      1920.3708      0.9969611
    718000  -665.88656      118.56125     -784.4478       313.18772     -511.63519      1920.3708      0.9969611
    719000  -688.65012      116.62544     -805.27557      308.07417     -628.84126      1920.3708      0.9969611
    720000  -664.53561      114.05026     -778.58587      301.27163      641.21142      1920.3708      0.9969611
    721000  -674.931        104.4195      -779.3505       275.83133     -1090.3202      1920.3708      0.9969611
    722000  -639.75096      116.57779     -756.32876      307.94829     -501.2459       1920.3708      0.9969611
    723000  -657.26132      114.98013     -772.24144      303.72795     -2927.4443      1920.3708      0.9969611
    724000  -669.09368      115.59531     -784.68898      305.35299     -2891.8116      1920.3708      0.9969611
    725000  -644.74917      112.1201      -756.86928      296.173        2987.1583      1920.3708      0.9969611
    726000  -649.56766      116.44929     -766.01695      307.60884     -2659.0694      1920.3708      0.9969611
    727000  -611.40614      131.61186     -743.01799      347.66182      412.51259      1920.3708      0.9969611
    728000  -655.13925      115.11296     -770.25222      304.07885     -162.91194      1920.3708      0.9969611
    729000  -659.14539      113.3103      -772.45569      299.31699      897.77965      1920.3708      0.9969611
    730000  -668.54211      112.18964     -780.73176      296.3567      -4814.1987      1920.3708      0.9969611
    731000  -649.1573       118.79024     -767.94754      313.79263      2942.921       1920.3708      0.9969611
    732000  -650.26056      114.80599     -765.06655      303.26795      1076.5144      1920.3708      0.9969611
    733000  -653.76035      96.463508     -750.22386      254.81502      551.33333      1920.3708      0.9969611
    734000  -651.83817      113.30698     -765.14515      299.30821     -1887.9279      1920.3708      0.9969611
    735000  -666.67062      117.31829     -783.98891      309.90436     -1833.5286      1920.3708      0.9969611
    736000  -679.03472      111.79606     -790.83078      295.31702      1536.4264      1920.3708      0.9969611
    737000  -652.64657      118.26752     -770.91409      312.41182     -880.50361      1920.3708      0.9969611
    738000  -649.5832       102.85705     -752.44024      271.70399      409.92032      1920.3708      0.9969611
    739000  -656.51428      117.46221     -773.97649      310.28455      2091.0656      1920.3708      0.9969611
    740000  -664.75126      115.39335     -780.14461      304.81951     -3139.799       1920.3708      0.9969611
    741000  -668.70682      104.52861     -773.23544      276.11955     -1661.3652      1920.3708      0.9969611
    742000  -637.89633      111.04561     -748.94194      293.33465      1838.6665      1920.3708      0.9969611
    743000  -632.73462      132.44963     -765.18425      349.87485     -1666.4757      1920.3708      0.9969611
    744000  -644.61442      123.9735      -768.58792      327.48456     -419.85995      1920.3708      0.9969611
    745000  -659.24156      116.28774     -775.5293       307.1821      -1428.8879      1920.3708      0.9969611
    746000  -657.6453       102.74577     -760.39107      271.41004     -2367.6419      1920.3708      0.9969611
    747000  -649.98129      108.78829     -758.76958      287.37178      217.97886      1920.3708      0.9969611
    748000  -664.91359      99.825016     -764.73861      263.69468     -1004.8143      1920.3708      0.9969611
    749000  -654.20035      127.00776     -781.20811      335.49977      249.18951      1920.3708      0.9969611
    750000  -691.97112      99.429513     -791.40064      262.64993     -1605.9656      1920.3708      0.9969611
    751000  -651.15278      106.41972     -757.5725       281.11505      1909.1081      1920.3708      0.9969611
    752000  -648.21959      108.94825     -757.16784      287.79433     -456.66298      1920.3708      0.9969611
    753000  -668.41966      104.91202     -773.33167      277.13234     -352.45689      1920.3708      0.9969611
    754000  -638.42513      118.759       -757.18413      313.7101      -59.094098      1920.3708      0.9969611
    755000  -623.28837      118.06662     -741.35499      311.88113      397.14435      1920.3708      0.9969611
    756000  -655.42702      111.22271     -766.64973      293.80247     -291.79277      1920.3708      0.9969611
    757000  -638.41094      116.08186     -754.4928       306.63825     -1719.3906      1920.3708      0.9969611
    758000  -651.72675      120.8753      -772.60204      319.30045     -41.821649      1920.3708      0.9969611
    759000  -690.28848      110.05825     -800.34673      290.72647      1430.5226      1920.3708      0.9969611
    760000  -647.6596       118.75076     -766.41036      313.68834      472.96606      1920.3708      0.9969611
    761000  -649.20867      100.1886      -749.39727      264.65511      1325.3735      1920.3708      0.9969611
    762000  -655.08647      121.08836     -776.17483      319.86327      377.03838      1920.3708      0.9969611
    763000  -651.5597       106.42908     -757.98878      281.13978     -1558.4487      1920.3708      0.9969611
    764000  -650.71143      125.58929     -776.30072      331.75279     -126.85153      1920.3708      0.9969611
    765000  -670.14815      113.03382     -783.18196      298.58664      570.3142       1920.3708      0.9969611
    766000  -648.52891      112.15633     -760.68524      296.26871      3356.5932      1920.3708      0.9969611
    767000  -648.89204      116.0604      -764.95245      306.58157     -1076.1727      1920.3708      0.9969611
    768000  -689.6618       108.46015     -798.12195      286.50498      1150.6293      1920.3708      0.9969611
    769000  -661.24353      108.50363     -769.74716      286.61983      118.15515      1920.3708      0.9969611
    770000  -661.7296       107.1941      -768.92371      283.16063      2482.7884      1920.3708      0.9969611
    771000  -694.6476       99.067596     -793.7152       261.6939      -2432.2498      1920.3708      0.9969611
    772000  -651.45166      108.99392     -760.44558      287.91498     -1632.946       1920.3708      0.9969611
    773000  -671.5372       120.78505     -792.32225      319.06207      1489.8402      1920.3708      0.9969611
    774000  -673.07652      115.21401     -788.29052      304.34576      1153.8424      1920.3708      0.9969611
    775000  -679.76971      105.02423     -784.79394      277.42875      498.19387      1920.3708      0.9969611
    776000  -637.62493      120.13294     -757.75788      317.33947      2017.6607      1920.3708      0.9969611
    777000  -652.38492      119.67325     -772.05817      316.12515      1432.1493      1920.3708      0.9969611
    778000  -659.58125      110.70519     -770.28644      292.43541     -1935.7513      1920.3708      0.9969611
    779000  -648.5914       111.20934     -759.80074      293.76715     -52.210178      1920.3708      0.9969611
    780000  -652.74168      109.03122     -761.77291      288.01351      2024.4328      1920.3708      0.9969611
    781000  -636.04531      127.99823     -764.04354      338.11617     -1762.9146      1920.3708      0.9969611
    782000  -657.10003      107.99213     -765.09216      285.26868     -828.41421      1920.3708      0.9969611
    783000  -669.15838      103.28537     -772.44375      272.83544     -1986.0444      1920.3708      0.9969611
    784000  -656.38443      114.54617     -770.9306       302.58162     -757.90196      1920.3708      0.9969611
    785000  -674.98509      106.58586     -781.57095      281.55392      713.44673      1920.3708      0.9969611
    786000  -670.71624      109.92268     -780.63893      290.36836     -703.77289      1920.3708      0.9969611
    787000  -634.2271       114.49475     -748.72185      302.44579      223.1429       1920.3708      0.9969611
    788000  -654.63849      104.51256     -759.15104      276.07714      4324.9945      1920.3708      0.9969611
    789000  -658.13619      120.18763     -778.32382      317.48394     -174.32376      1920.3708      0.9969611
    790000  -682.12077      121.15398     -803.27475      320.03662      1705.9483      1920.3708      0.9969611
    791000  -657.78394      108.12209     -765.90602      285.61196      2508.923       1920.3708      0.9969611
    792000  -662.50574      117.76537     -780.27112      311.08537      38.646295      1920.3708      0.9969611
    793000  -665.68659      106.8357      -772.52229      282.21388     -4084.902       1920.3708      0.9969611
    794000  -663.49816      103.89291     -767.39107      274.4403       842.41095      1920.3708      0.9969611
    795000  -675.01491      105.75917     -780.77408      279.37016     -2065.5923      1920.3708      0.9969611
    796000  -649.2061       118.5646      -767.77069      313.19657      2351.6797      1920.3708      0.9969611
    797000  -670.1373       113.35909     -783.49639      299.44586     -1948.7206      1920.3708      0.9969611
    798000  -637.51556      109.84146     -747.35702      290.15381     -1086.9676      1920.3708      0.9969611
    799000  -640.00416      130.27735     -770.28151      344.13661     -838.83408      1920.3708      0.9969611
    800000  -688.70925      103.26191     -791.97117      272.77348     -889.64431      1920.3708      0.9969611
    801000  -676.12949      111.82943     -787.95891      295.40516      2065.1922      1920.3708      0.9969611
    802000  -666.27461      116.37824     -782.65285      307.42117      1664.7724      1920.3708      0.9969611
    803000  -662.72177      111.09519     -773.81695      293.46562     -1621.0702      1920.3708      0.9969611
    804000  -646.6783       109.44114     -756.11944      289.09633      1022.319       1920.3708      0.9969611
    805000  -631.36805      115.15616     -746.52422      304.19297     -439.04987      1920.3708      0.9969611
    806000  -650.63361      116.92917     -767.56278      308.87649      250.86355      1920.3708      0.9969611
    807000  -634.16254      111.86173     -746.02427      295.49049      1433.3605      1920.3708      0.9969611
    808000  -629.52759      116.01215     -745.53974      306.4541       1060.1585      1920.3708      0.9969611
    809000  -639.96853      118.35268     -758.32121      312.63677      568.5634       1920.3708      0.9969611
    810000  -670.00051      106.43297     -776.43348      281.15004     -3325.0435      1920.3708      0.9969611
    811000  -654.70663      125.41835     -780.12498      331.30124     -23.825007      1920.3708      0.9969611
    812000  -676.90651      121.95438     -798.86089      322.15092      657.35094      1920.3708      0.9969611
    813000  -651.78844      120.68115     -772.4696       318.78761      1196.4692      1920.3708      0.9969611
    814000  -666.03636      105.13175     -771.16811      277.71278      659.75717      1920.3708      0.9969611
    815000  -658.04543      109.69677     -767.74219      289.77159      1755.7347      1920.3708      0.9969611
    816000  -647.2415       112.95905     -760.20055      298.38914     -798.82246      1920.3708      0.9969611
    817000  -667.16264      109.19086     -776.3535       288.4352      -2186.2164      1920.3708      0.9969611
    818000  -649.95438      106.67359     -756.62797      281.78566     -1833.5658      1920.3708      0.9969611
    819000  -647.31648      123.32457     -770.64105      325.77037     -2860.655       1920.3708      0.9969611
    820000  -624.32871      135.60998     -759.93869      358.22314     -433.02347      1920.3708      0.9969611
    821000  -641.91673      122.60519     -764.52193      323.87009     -1914.3119      1920.3708      0.9969611
    822000  -680.00745      96.832029     -776.83948      255.7885      -1784.8033      1920.3708      0.9969611
    823000  -651.35898      113.91139     -765.27037      300.90481     -3052.0138      1920.3708      0.9969611
    824000  -637.69572      120.66778     -758.3635       318.75227      850.93418      1920.3708      0.9969611
    825000  -654.21317      117.08301     -771.29619      309.28288      312.24687      1920.3708      0.9969611
    826000  -644.76426      114.68914     -759.4534       302.9593      -640.50514      1920.3708      0.9969611
    827000  -643.85479      102.42914     -746.28393      270.57365      745.38591      1920.3708      0.9969611
    828000  -622.29831      134.87682     -757.17513      356.28644     -155.48938      1920.3708      0.9969611
    829000  -641.5113       119.75134     -761.26263      316.33143     -880.49851      1920.3708      0.9969611
    830000  -635.18822      116.63405     -751.82226      308.09689     -2308.1296      1920.3708      0.9969611
    831000  -656.65613      100.98716     -757.64328      266.76456      836.66536      1920.3708      0.9969611
    832000  -659.50501      103.76856     -763.27357      274.11183      2490.9019      1920.3708      0.9969611
    833000  -664.09829      105.44595     -769.54424      278.54277      1839.5653      1920.3708      0.9969611
    834000  -638.62441      126.43593     -765.06035      333.98925      1847.1522      1920.3708      0.9969611
    835000  -642.5803       109.61658     -752.19688      289.55978      1108.2219      1920.3708      0.9969611
    836000  -667.41518      105.23847     -772.65365      277.99469     -142.65273      1920.3708      0.9969611
    837000  -658.63422      107.50439     -766.13862      283.98029      753.76795      1920.3708      0.9969611
    838000  -651.18981      118.29103     -769.48084      312.47394     -165.49867      1920.3708      0.9969611
    839000  -639.75251      121.36504     -761.11755      320.59414      974.40374      1920.3708      0.9969611
    840000  -645.83489      107.85612     -753.69101      284.9094      -1686.0609      1920.3708      0.9969611
    841000  -660.32738      96.850731     -757.17811      255.8379       140.07666      1920.3708      0.9969611
    842000  -639.18325      118.18957     -757.37282      312.20591     -624.28762      1920.3708      0.9969611
    843000  -634.91914      121.13171     -756.05085      319.97777      2228.5061      1920.3708      0.9969611
    844000  -664.78742      93.576959     -758.36438      247.19        -184.43398      1920.3708      0.9969611
    845000  -644.40852      121.0764      -765.48493      319.83169     -426.86751      1920.3708      0.9969611
    846000  -668.87761      112.26961     -781.14722      296.56793     -283.32559      1920.3708      0.9969611
    847000  -630.15261      115.59107     -745.74368      305.3418      -127.49728      1920.3708      0.9969611
    848000  -655.0993       97.266284     -752.36558      256.93561      103.32057      1920.3708      0.9969611
    849000  -636.80635      122.40199     -759.20834      323.33332      233.22365      1920.3708      0.9969611
    850000  -659.51989      101.94246     -761.46235      269.28806      540.6708       1920.3708      0.9969611
    851000  -648.17288      110.8791      -759.05198      292.89481     -217.24618      1920.3708      0.9969611
    852000  -643.44355      102.90389     -746.34744      271.82773      1749.3929      1920.3708      0.9969611
    853000  -673.4934       113.06395     -786.55735      298.66624     -2620.8665      1920.3708      0.9969611
    854000  -636.43523      98.806012     -735.24124      261.00291     -2294.0561      1920.3708      0.9969611
    855000  -642.55006      111.91033     -754.4604       295.61888     -267.56725      1920.3708      0.9969611
    856000  -623.17762      131.14397     -754.32158      346.42585      2599.4953      1920.3708      0.9969611
    857000  -644.99845      112.95567     -757.95411      298.3802       1889.8362      1920.3708      0.9969611
    858000  -623.8827       132.33643     -756.21913      349.57582     -1799.7065      1920.3708      0.9969611
    859000  -643.9135       116.99029     -760.90379      309.03793     -240.70352      1920.3708      0.9969611
    860000  -663.88229      117.91158     -781.79387      311.47157     -663.01215      1920.3708      0.9969611
    861000  -674.89823      109.76407     -784.66231      289.94939      99.016168      1920.3708      0.9969611
    862000  -664.88263      113.15638     -778.03901      298.91039     -1786.2825      1920.3708      0.9969611
    863000  -640.75472      118.5755      -759.33022      313.22537      1006.9212      1920.3708      0.9969611
    864000  -636.67856      122.71472     -759.39328      324.15942      601.21518      1920.3708      0.9969611
    865000  -644.22443      100.14633     -744.37076      264.54345     -1228.6399      1920.3708      0.9969611
    866000  -637.34841      126.9762      -764.32461      335.41641     -296.42859      1920.3708      0.9969611
    867000  -654.39485      106.8885      -761.28335      282.35336      36.070753      1920.3708      0.9969611
    868000  -679.9556       99.744486     -779.70008      263.48195      1677.8468      1920.3708      0.9969611
    869000  -664.9399       110.55998     -775.49987      292.05182     -449.58433      1920.3708      0.9969611
    870000  -645.12128      113.58487     -758.70615      300.04227      28.568799      1920.3708      0.9969611
    871000  -669.37005      107.09144     -776.46149      282.88944     -241.10947      1920.3708      0.9969611
    872000  -655.44943      121.19295     -776.64238      320.13955      308.5527       1920.3708      0.9969611
    873000  -664.99379      101.65535     -766.64914      268.52963     -2194.9632      1920.3708      0.9969611
    874000  -645.31104      104.95871     -750.26975      277.25569      1241.2702      1920.3708      0.9969611
    875000  -659.15267      110.43032     -769.58298      291.70932     -1564.3578      1920.3708      0.9969611
    876000  -650.54956      113.78259     -764.33215      300.56458     -500.95902      1920.3708      0.9969611
    877000  -642.08899      116.80559     -758.89458      308.55003     -1615.5198      1920.3708      0.9969611
    878000  -637.72564      108.48528     -746.21092      286.57137     -1380.6308      1920.3708      0.9969611
    879000  -657.00255      105.11777     -762.12031      277.67584     -2062.6047      1920.3708      0.9969611
    880000  -646.25089      114.24293     -760.49381      301.78059     -892.7187       1920.3708      0.9969611
    881000  -668.56034      106.38402     -774.94436      281.02073      885.87641      1920.3708      0.9969611
    882000  -643.35144      103.06533     -746.41677      272.25418      698.32312      1920.3708      0.9969611
    883000  -628.47266      121.74339     -750.21605      321.59357      192.59285      1920.3708      0.9969611
    884000  -646.07076      111.04672     -757.11748      293.3376      -2387.9331      1920.3708      0.9969611
    885000  -649.58149      111.81904     -761.40053      295.37772      1689.487       1920.3708      0.9969611
    886000  -650.98547      119.90736     -770.89283      316.74357      127.06567      1920.3708      0.9969611
    887000  -653.95895      115.53541     -769.49436      305.19477      1114.8544      1920.3708      0.9969611
    888000  -671.06969      106.72491     -777.7946       281.92122      568.32349      1920.3708      0.9969611
    889000  -643.20529      119.23855     -762.44384      314.97687      3552.4164      1920.3708      0.9969611
    890000  -633.59698      131.9688      -765.56578      348.60471     -190.506        1920.3708      0.9969611
    891000  -677.37713      110.79172     -788.16885      292.66399      1311.3066      1920.3708      0.9969611
    892000  -689.26663      95.605552     -784.87218      252.54867      1058.6974      1920.3708      0.9969611
    893000  -652.44185      125.46089     -777.90274      331.41361      2810.9942      1920.3708      0.9969611
    894000  -649.90612      117.40776     -767.31388      310.14072      567.68617      1920.3708      0.9969611
    895000  -641.57597      122.99716     -764.57313      324.9055      -1149.4005      1920.3708      0.9969611
    896000  -649.06321      120.46747     -769.53068      318.22314     -2773.507       1920.3708      0.9969611
    897000  -648.80848      119.30968     -768.11816      315.16476     -5.4361561      1920.3708      0.9969611
    898000  -680.3665       102.93008     -783.29658      271.89691     -1700.9945      1920.3708      0.9969611
    899000  -653.32839      117.33531     -770.66371      309.94934      344.73279      1920.3708      0.9969611
    900000  -657.55976      98.208648     -755.7684       259.42493     -1042.075       1920.3708      0.9969611
    901000  -634.90692      126.84116     -761.74808      335.05968      426.53164      1920.3708      0.9969611
    902000  -629.87157      115.64159     -745.51316      305.47525     -63.316792      1920.3708      0.9969611
    903000  -637.66869      103.9693      -741.63799      274.64208     -2127.0395      1920.3708      0.9969611
    904000  -661.37837      116.74216     -778.12054      308.38249     -1888.8194      1920.3708      0.9969611
    905000  -649.98647      115.71861     -765.70509      305.67871      958.24297      1920.3708      0.9969611
    906000  -655.95877      105.42932     -761.3881       278.49885     -365.70698      1920.3708      0.9969611
    907000  -689.07515      101.35703     -790.43218      267.74161     -2162.6723      1920.3708      0.9969611
    908000  -640.92992      120.49219     -761.42211      318.28844     -55.053131      1920.3708      0.9969611
    909000  -664.11289      105.44965     -769.56253      278.55253     -2461.6699      1920.3708      0.9969611
    910000  -646.88209      115.95929     -762.84138      306.31448      560.88518      1920.3708      0.9969611
    911000  -646.37672      118.39256     -764.76928      312.74213      1855.9512      1920.3708      0.9969611
    912000  -681.13082      100.75823     -781.88905      266.15984      1048.4846      1920.3708      0.9969611
    913000  -651.30269      103.56657     -754.86927      273.57826     -1173.0986      1920.3708      0.9969611
    914000  -629.44823      117.58831     -747.03654      310.61764     -3835.7975      1920.3708      0.9969611
    915000  -639.02719      117.11386     -756.14105      309.36436      2365.0981      1920.3708      0.9969611
    916000  -669.39212      101.87068     -771.2628       269.09843      1266.5468      1920.3708      0.9969611
    917000  -646.41869      97.458264     -743.87695      257.44274     -995.97446      1920.3708      0.9969611
    918000  -637.26708      123.6067      -760.87378      326.51565      1164.3143      1920.3708      0.9969611
    919000  -655.01804      115.60439     -770.62242      305.37698      420.41607      1920.3708      0.9969611
    920000  -621.26021      119.09796     -740.35817      314.60549      1246.9246      1920.3708      0.9969611
    921000  -644.12109      106.10354     -750.22463      280.27983     -696.62873      1920.3708      0.9969611
    922000  -657.71508      107.33997     -765.05506      283.54596      1059.9623      1920.3708      0.9969611
    923000  -663.9445       108.65147     -772.59598      287.01038      589.91676      1920.3708      0.9969611
    924000  -636.50253      122.93461     -759.43714      324.74026     -734.74203      1920.3708      0.9969611
    925000  -666.72929      106.52548     -773.25478      281.39443      596.09907      1920.3708      0.9969611
    926000  -639.13718      119.9535      -759.09068      316.86547      1589.5622      1920.3708      0.9969611
    927000  -665.06782      113.82597     -778.89379      300.67917      1778.0023      1920.3708      0.9969611
    928000  -653.7513       113.08536     -766.83666      298.72279      683.1357       1920.3708      0.9969611
    929000  -641.80484      120.27803     -762.08288      317.72274     -1463.9866      1920.3708      0.9969611
    930000  -658.04526      103.08345     -761.12871      272.30206     -2919.9839      1920.3708      0.9969611
    931000  -655.83661      105.62739     -761.464        279.02206     -1647.9574      1920.3708      0.9969611
    932000  -653.12872      119.98619     -773.11492      316.95182      71.057491      1920.3708      0.9969611
    933000  -691.72742      98.112993     -789.84041      259.17225     -1286.0515      1920.3708      0.9969611
    934000  -668.73956      102.65199     -771.39155      271.16232     -2100.8037      1920.3708      0.9969611
    935000  -647.23064      132.46848     -779.69912      349.92464     -431.20743      1920.3708      0.9969611
    936000  -671.12277      102.99162     -774.11439      272.05947      169.73441      1920.3708      0.9969611
    937000  -641.39246      123.91995     -765.31241      327.34311      2901.1358      1920.3708      0.9969611
    938000  -662.77252      118.95359     -781.72611      314.22412      1019.6947      1920.3708      0.9969611
    939000  -661.21194      114.72207     -775.93402      303.04629     -49.755956      1920.3708      0.9969611
    940000  -629.73069      127.48086     -757.21156      336.74951     -494.21841      1920.3708      0.9969611
    941000  -652.92861      105.30516     -758.23377      278.17086     -1527.7944      1920.3708      0.9969611
    942000  -647.05778      114.29202     -761.3498       301.91026      2519.3945      1920.3708      0.9969611
    943000  -634.90872      127.73678     -762.6455       337.42553     -2196.6174      1920.3708      0.9969611
    944000  -646.12647      116.00384     -762.13031      306.43215      1183.4979      1920.3708      0.9969611
    945000  -665.82527      115.65481     -781.48008      305.51018      321.03972      1920.3708      0.9969611
    946000  -680.91171      111.01436     -791.92607      293.25209     -358.98193      1920.3708      0.9969611
    947000  -658.17571      120.12649     -778.3022       317.32242     -585.64157      1920.3708      0.9969611
    948000  -679.81689      109.92539     -789.74228      290.37551      756.42332      1920.3708      0.9969611
    949000  -670.53328      105.57664     -776.10991      278.88798     -1624.7371      1920.3708      0.9969611
    950000  -666.8507       103.47438     -770.32508      273.33473      472.20052      1920.3708      0.9969611
    951000  -645.33741      125.64878     -770.98619      331.90994     -946.22127      1920.3708      0.9969611
    952000  -668.53329      103.04726     -771.58055      272.20645      1338.5781      1920.3708      0.9969611
    953000  -643.15024      116.1779      -759.32815      306.89196     -693.35592      1920.3708      0.9969611
    954000  -639.4527       127.27964     -766.73234      336.21797     -1243.0255      1920.3708      0.9969611
    955000  -668.96036      113.19034     -782.1507       299.00011     -1414.0538      1920.3708      0.9969611
    956000  -644.26203      117.63234     -761.89438      310.73397      461.86969      1920.3708      0.9969611
    957000  -641.8932       114.71077     -756.60397      303.01642     -2344.3673      1920.3708      0.9969611
    958000  -634.93119      127.53017     -762.46137      336.87977      3049.2059      1920.3708      0.9969611
    959000  -651.94387      108.94781     -760.89169      287.79318      768.11398      1920.3708      0.9969611
    960000  -656.42817      112.44275     -768.87092      297.0253       167.5635       1920.3708      0.9969611
    961000  -657.72029      107.69852     -765.41881      284.49308      709.85181      1920.3708      0.9969611
    962000  -625.08064      110.5373      -735.61794      291.9919      -1887.685       1920.3708      0.9969611
    963000  -667.12919      104.5401      -771.66928      276.14989     -1859.2064      1920.3708      0.9969611
    964000  -643.9321       127.35692     -771.28902      336.4221      -2492.0807      1920.3708      0.9969611
    965000  -682.92427      99.799291     -782.72356      263.62672      508.53255      1920.3708      0.9969611
    966000  -654.90122      123.78448     -778.6857       326.98527     -398.06274      1920.3708      0.9969611
    967000  -653.01607      127.38414     -780.40021      336.494       -680.92876      1920.3708      0.9969611
    968000  -663.45074      107.9261      -771.37684      285.09425     -32.406533      1920.3708      0.9969611
    969000  -650.26422      121.74369     -772.00791      321.59438      2574.2713      1920.3708      0.9969611
    970000  -668.07817      99.998125     -768.07629      264.15196      448.55926      1920.3708      0.9969611
    971000  -645.85277      101.96782     -747.82059      269.35504     -885.372        1920.3708      0.9969611
    972000  -660.03121      112.22543     -772.25664      296.45124      92.483173      1920.3708      0.9969611
    973000  -650.7822       129.71601     -780.49821      342.65381     -1349.3139      1920.3708      0.9969611
    974000  -646.28986      117.01235     -763.30221      309.09621     -907.62587      1920.3708      0.9969611
    975000  -636.08262      113.7868      -749.86941      300.57569     -403.22371      1920.3708      0.9969611
    976000  -660.92372      106.64951     -767.57322      281.72204      872.29261      1920.3708      0.9969611
    977000  -650.69024      114.81353     -765.50377      303.28788      2120.4492      1920.3708      0.9969611
    978000  -648.27779      115.38913     -763.66692      304.80836      1536.2664      1920.3708      0.9969611
    979000  -618.48896      109.86809     -728.35705      290.22414      4369.3105      1920.3708      0.9969611
    980000  -613.9555       132.7554      -746.7109       350.68257      2280.2789      1920.3708      0.9969611
    981000  -650.54656      113.58611     -764.13267      300.04556      846.64294      1920.3708      0.9969611
    982000  -666.97442      117.87594     -784.85036      311.37744      770.393        1920.3708      0.9969611
    983000  -657.44304      119.7972      -777.24024      316.45257     -94.430463      1920.3708      0.9969611
    984000  -643.80145      119.66078     -763.46223      316.09222     -856.78256      1920.3708      0.9969611
    985000  -647.11048      107.54472     -754.6552       284.08681     -2833.3443      1920.3708      0.9969611
    986000  -649.8477       116.17409     -766.02179      306.88188      1290.5758      1920.3708      0.9969611
    987000  -660.88141      113.59849     -774.4799       300.07827     -812.91016      1920.3708      0.9969611
    988000  -677.2374       103.12174     -780.35914      272.4032      -509.43418      1920.3708      0.9969611
    989000  -681.87264      113.80584     -795.67848      300.62599      1536.4042      1920.3708      0.9969611
    990000  -662.61016      119.65264     -782.26281      316.07073     -2890.1628      1920.3708      0.9969611
    991000  -636.9094       122.39476     -759.30415      323.31421      1150.9367      1920.3708      0.9969611
    992000  -650.12         120.674       -770.79399      318.7687      -446.07397      1920.3708      0.9969611
    993000  -664.14798      105.3432      -769.49118      278.27134     -994.83698      1920.3708      0.9969611
    994000  -684.23519      105.02416     -789.25935      277.42858      446.43745      1920.3708      0.9969611
    995000  -652.40454      119.09347     -771.49801      314.59363      1332.0631      1920.3708      0.9969611
    996000  -643.57961      120.71048     -764.29009      318.86507     -132.54267      1920.3708      0.9969611
    997000  -649.28522      129.03343     -778.31864      340.85072     -1467.2516      1920.3708      0.9969611
    998000  -665.26372      110.82259     -776.08631      292.74553     -978.85366      1920.3708      0.9969611
    999000  -675.46679      111.04701     -786.5138       293.33835     -2060.2961      1920.3708      0.9969611
   1000000  -630.6719       123.51435     -754.18626      326.2717       1016.8615      1920.3708      0.9969611
Loop time of 896.431 on 1 procs for 1000000 steps with 192 atoms

Performance: 96.382 ns/day, 0.249 hours/ns, 1115.534 timesteps/s
99.7% CPU use with 1 MPI tasks x 1 OpenMP threads

MPI task timing breakdown:
Section |  min time  |  avg time  |  max time  |%varavg| %total
---------------------------------------------------------------
Pair    | 719.11     | 719.11     | 719.11     |   0.0 | 80.22
Bond    | 0.055254   | 0.055254   | 0.055254   |   0.0 |  0.01
Kspace  | 115.13     | 115.13     | 115.13     |   0.0 | 12.84
Neigh   | 35.338     | 35.338     | 35.338     |   0.0 |  3.94
Comm    | 13.444     | 13.444     | 13.444     |   0.0 |  1.50
Output  | 0.25969    | 0.25969    | 0.25969    |   0.0 |  0.03
Modify  | 10.847     | 10.847     | 10.847     |   0.0 |  1.21
Other   |            | 2.244      |            |       |  0.25

Nlocal:            192 ave         192 max         192 min
Histogram: 1 0 0 0 0 0 0 0 0 0
Nghost:           4617 ave        4617 max        4617 min
Histogram: 1 0 0 0 0 0 0 0 0 0
Neighs:          69297 ave       69297 max       69297 min
Histogram: 1 0 0 0 0 0 0 0 0 0

Total # of neighbors = 69297
Ave neighs/atom = 360.92188
Ave special neighs/atom = 2
Neighbor list builds = 27609
Dangerous builds = 0
# write data file
write_data data.after_eq.lmp
System init for write_data ...
PPPM initialization ...
  using 12-bit tables for long-range coulomb (src/kspace.cpp:342)
  G vector (1/distance) = 0.31260513
  grid = 12 12 12
  stencil order = 5
  estimated absolute RMS force accuracy = 0.0021455329
  estimated relative force accuracy = 6.4612085e-06
  using double precision FFTW3
  3d grid and FFT values/proc = 6859 1728
Generated 1 of 1 mixed pair_coeff terms from geometric mixing rule

# clean up
undump dEQUI

# production
# 2 ns
dump dPROD all custom 1000 prod.lammpstrj id element xu yu zu
dump_modify dPROD element H O sort id
run 2000000
PPPM initialization ...
  using 12-bit tables for long-range coulomb (src/kspace.cpp:342)
  G vector (1/distance) = 0.31260513
  grid = 12 12 12
  stencil order = 5
  estimated absolute RMS force accuracy = 0.0021455329
  estimated relative force accuracy = 6.4612085e-06
  using double precision FFTW3
  3d grid and FFT values/proc = 6859 1728
Generated 1 of 1 mixed pair_coeff terms from geometric mixing rule
Per MPI rank memory allocation (min/avg/max) = 9.759 | 9.759 | 9.759 Mbytes
   Step         TotEng         KinEng         PotEng          Temp          Press          Volume        Density
   1000000  -630.6719       123.51435     -754.18626      326.2717       1018.7864      1920.3708      0.9969611
   1001000  -669.83838      114.91915     -784.75753      303.56688      401.56337      1920.3708      0.9969611
   1002000  -656.02217      105.12328     -761.14545      277.69041      4421.7191      1920.3708      0.9969611
   1003000  -679.30757      114.20892     -793.51649      301.69076      398.59473      1920.3708      0.9969611
   1004000  -654.01704      115.54539     -769.56242      305.22113      2491.5395      1920.3708      0.9969611
   1005000  -661.39684      116.81442     -778.21126      308.57336     -1911.8549      1920.3708      0.9969611
   1006000  -644.7618       117.19712     -761.95892      309.58429     -59.08247       1920.3708      0.9969611
   1007000  -657.69893      94.196492     -751.89542      248.82654     -499.68509      1920.3708      0.9969611
   1008000  -664.39309      96.136385     -760.52948      253.95091     -2367.2279      1920.3708      0.9969611
   1009000  -655.44914      107.78589     -763.23503      284.72387     -307.95948      1920.3708      0.9969611
   1010000  -682.2093       102.98742     -785.19672      272.04839      1258.4944      1920.3708      0.9969611
   1011000  -643.95415      121.46491     -765.41907      320.85796     -1757.4167      1920.3708      0.9969611
   1012000  -605.66604      134.43567     -740.10171      355.12111      189.75212      1920.3708      0.9969611
   1013000  -634.20567      118.03934     -752.24501      311.80908      487.49882      1920.3708      0.9969611
   1014000  -657.28815      121.7377      -779.02584      321.57854      2202.9558      1920.3708      0.9969611
   1015000  -667.97618      107.68833     -775.66451      284.46617      1257.2799      1920.3708      0.9969611
   1016000  -639.41596      108.73786     -748.15382      287.23858      1352.2677      1920.3708      0.9969611
   1017000  -650.13391      122.62075     -772.75466      323.91119      311.27775      1920.3708      0.9969611
   1018000  -661.77615      114.83978     -776.61593      303.35722     -1784.739       1920.3708      0.9969611
   1019000  -652.07383      113.19899     -765.27283      299.02297     -375.55619      1920.3708      0.9969611
   1020000  -654.01229      115.61752     -769.62981      305.41167      1587.2905      1920.3708      0.9969611
   1021000  -662.17437      113.26942     -775.44379      299.209       -16.919556      1920.3708      0.9969611
   1022000  -660.24926      113.71647     -773.96573      300.38991      1705.6793      1920.3708      0.9969611
   1023000  -661.96664      104.53139     -766.49802      276.12688      725.81533      1920.3708      0.9969611
   1024000  -657.33293      112.15956     -769.49249      296.27723     -3105.1741      1920.3708      0.9969611
   1025000  -670.87981      107.98795     -778.86776      285.25762      1053.4326      1920.3708      0.9969611
   1026000  -636.0595       126.32264     -762.38214      333.68998     -235.43629      1920.3708      0.9969611
   1027000  -658.47798      118.92206     -777.40004      314.14083     -129.60936      1920.3708      0.9969611
   1028000  -664.47157      114.9561      -779.42767      303.66449     -888.98933      1920.3708      0.9969611
   1029000  -642.64754      110.80072     -753.44826      292.68775     -322.23854      1920.3708      0.9969611
   1030000  -649.89816      121.79485     -771.69301      321.72951     -1624.7838      1920.3708      0.9969611
   1031000  -647.08858      109.81208     -756.90066      290.0762       2963.037       1920.3708      0.9969611
   1032000  -629.40082      119.58596     -748.98678      315.89457      564.90102      1920.3708      0.9969611
   1033000  -649.1532       118.84096     -767.99416      313.92661      315.48979      1920.3708      0.9969611
   1034000  -642.2152       112.4652      -754.68039      297.08459     -343.35294      1920.3708      0.9969611
   1035000  -628.05776      122.58616     -750.64392      323.81981      583.02244      1920.3708      0.9969611
   1036000  -642.59614      109.20933     -751.80547      288.48398      1610.9984      1920.3708      0.9969611
   1037000  -615.50328      135.32662     -750.8299       357.47462     -1025.306       1920.3708      0.9969611
   1038000  -646.95992      109.26934     -756.22926      288.64252      286.1291       1920.3708      0.9969611
   1039000  -673.80307      104.90508     -778.70815      277.11401     -1653.3163      1920.3708      0.9969611
   1040000  -664.91219      99.359956     -764.27215      262.46619     -1344.8975      1920.3708      0.9969611
   1041000  -675.53657      108.49762     -784.03419      286.60395     -3333.7177      1920.3708      0.9969611
   1042000  -659.27988      105.30242     -764.5823       278.16361     -1572.2722      1920.3708      0.9969611
   1043000  -675.85729      108.27193     -784.12922      286.00778     -1562.1017      1920.3708      0.9969611
   1044000  -653.88153      106.74924     -760.63078      281.9855       340.95924      1920.3708      0.9969611
   1045000  -639.84379      124.55083     -764.39462      329.00963     -1667.3204      1920.3708      0.9969611
   1046000  -655.81649      99.752444     -755.56893      263.50298     -1554.1431      1920.3708      0.9969611
   1047000  -638.40783      120.49039     -758.89822      318.2837      -2404.5222      1920.3708      0.9969611
   1048000  -662.08166      116.86309     -778.94475      308.70193     -4819.8758      1920.3708      0.9969611
   1049000  -636.7012       133.93042     -770.63161      353.78645     -780.66891      1920.3708      0.9969611
   1050000  -643.94278      126.97086     -770.91363      335.40229      1050.6686      1920.3708      0.9969611
   1051000  -661.82512      111.42522     -773.25034      294.33742     -1589.1488      1920.3708      0.9969611
   1052000  -653.00396      94.047253     -747.05121      248.43232     -416.11496      1920.3708      0.9969611
   1053000  -643.17063      117.37787     -760.5485       310.06176     -312.39834      1920.3708      0.9969611
   1054000  -648.99571      124.98029     -773.97601      330.14408     -1340.1571      1920.3708      0.9969611
   1055000  -669.40546      105.46156     -774.86702      278.58401      568.96512      1920.3708      0.9969611
   1056000  -669.6593       108.05824     -777.71755      285.44332     -1194.8955      1920.3708      0.9969611
   1057000  -665.2776       125.9376      -791.21521      332.67289      1571.7553      1920.3708      0.9969611
   1058000  -675.29448      118.0066      -793.30108      311.72259     -2800.8821      1920.3708      0.9969611
   1059000  -661.05195      102.65712     -763.70907      271.17589      46.324852      1920.3708      0.9969611
   1060000  -660.35564      119.72587     -780.0815       316.26415      596.28344      1920.3708      0.9969611
   1061000  -636.38634      121.96229     -758.34862      322.17181     -426.22488      1920.3708      0.9969611
   1062000  -625.98763      123.92333     -749.91096      327.35205     -4253.2136      1920.3708      0.9969611
   1063000  -650.30947      104.38908     -754.69856      275.75098     -2185.3953      1920.3708      0.9969611
   1064000  -635.07837      121.11702     -756.1954       319.93899     -1236.7554      1920.3708      0.9969611
   1065000  -673.44886      112.44339     -785.89225      297.02699     -1541.7121      1920.3708      0.9969611
   1066000  -635.18885      101.63312     -736.82198      268.47092      179.78135      1920.3708      0.9969611
   1067000  -646.88312      116.43462     -763.31774      307.57009      1689.7967      1920.3708      0.9969611
   1068000  -669.61467      100.7737      -770.38836      266.20068     -1110.0112      1920.3708      0.9969611
   1069000  -649.29501      110.5254      -759.82041      291.96047      812.39931      1920.3708      0.9969611
   1070000  -641.71931      119.32196     -761.04128      315.19721     -102.53565      1920.3708      0.9969611
   1071000  -638.61738      108.82575     -747.44313      287.47073      976.09374      1920.3708      0.9969611
   1072000  -654.91393      110.41623     -765.33016      291.6721      -1342.6033      1920.3708      0.9969611
   1073000  -649.50639      108.48879     -757.99518      286.58064     -2274.6919      1920.3708      0.9969611
   1074000  -662.02702      113.9778      -776.00481      301.08023     -686.69806      1920.3708      0.9969611
   1075000  -648.82457      114.87025     -763.69482      303.43771     -588.19705      1920.3708      0.9969611
   1076000  -639.61835      110.31576     -749.93411      291.40669     -1984.1547      1920.3708      0.9969611
   1077000  -658.2825       120.11472     -778.39721      317.29133     -928.43293      1920.3708      0.9969611
   1078000  -633.64202      121.41845     -755.06047      320.73524     -622.58743      1920.3708      0.9969611
   1079000  -664.36344      109.01664     -773.38008      287.97499     -1833.8892      1920.3708      0.9969611
   1080000  -626.08879      128.44138     -754.53017      339.28677     -545.46265      1920.3708      0.9969611
   1081000  -656.11329      113.46473     -769.57801      299.72492     -2167.5619      1920.3708      0.9969611
   1082000  -620.46486      122.06414     -742.529        322.44086      979.43795      1920.3708      0.9969611
   1083000  -644.29159      113.60518     -757.89677      300.09593     -1439.65        1920.3708      0.9969611
   1084000  -652.22632      121.5609      -773.78722      321.11152      781.70435      1920.3708      0.9969611
   1085000  -620.30856      130.10262     -750.41118      343.67506     -350.88782      1920.3708      0.9969611
   1086000  -631.33367      114.57135     -745.90503      302.64815      552.21646      1920.3708      0.9969611
   1087000  -653.84002      95.917894     -749.75791      253.37375      2.2181774      1920.3708      0.9969611
   1088000  -659.69324      109.36953     -769.06277      288.90717     -2255.6896      1920.3708      0.9969611
   1089000  -651.75019      118.27158     -770.02177      312.42254     -1537.9434      1920.3708      0.9969611
   1090000  -657.32383      107.08298     -764.40681      282.86709     -2172.3732      1920.3708      0.9969611
   1091000  -649.34462      116.6673      -766.01193      308.18474      442.37917      1920.3708      0.9969611
   1092000  -639.43647      127.29862     -766.73509      336.26812      3452.9944      1920.3708      0.9969611
   1093000  -646.49744      110.22423     -756.72167      291.16491      593.71055      1920.3708      0.9969611
   1094000  -646.85437      110.07738     -756.93175      290.77702     -3120.0263      1920.3708      0.9969611
   1095000  -663.90652      98.590405     -762.49693      260.43337      1296.0623      1920.3708      0.9969611
   1096000  -650.48719      109.09357     -759.58076      288.17819     -299.91201      1920.3708      0.9969611
   1097000  -659.97813      114.99156     -774.96968      303.75815     -2788.9369      1920.3708      0.9969611
   1098000  -665.80452      111.61266     -777.41718      294.83256      597.71457      1920.3708      0.9969611
   1099000  -629.38434      132.32264     -761.70697      349.53939     -409.48289      1920.3708      0.9969611
   1100000  -669.16449      108.74824     -777.91274      287.26599     -272.72805      1920.3708      0.9969611
   1101000  -658.99011      124.7691      -783.75921      329.58621      1601.9126      1920.3708      0.9969611
   1102000  -662.36792      104.51223     -766.88014      276.07627      1244.4689      1920.3708      0.9969611
   1103000  -648.39195      127.68943     -776.08138      337.30046      536.78894      1920.3708      0.9969611
   1104000  -667.71765      113.7083      -781.42595      300.36834     -3538.5685      1920.3708      0.9969611
   1105000  -675.17254      110.42635     -785.59889      291.69884     -26.389398      1920.3708      0.9969611
   1106000  -662.55752      113.32656     -775.88408      299.35994     -3183.9883      1920.3708      0.9969611
   1107000  -667.90134      105.94994     -773.85128      279.8741       1843.1492      1920.3708      0.9969611
   1108000  -662.67229      111.01107     -773.68336      293.24341     -812.85101      1920.3708      0.9969611
   1109000  -667.7922       110.48617     -778.27837      291.85684     -1013.2534      1920.3708      0.9969611
   1110000  -657.34127      112.75803     -770.09929      297.85812      1365.7928      1920.3708      0.9969611
   1111000  -670.34281      102.44413     -772.78694      270.61326      204.83399      1920.3708      0.9969611
   1112000  -661.77666      103.71315     -765.48981      273.96545     -1304.8126      1920.3708      0.9969611
   1113000  -677.10442      104.73318     -781.8376       276.65993      177.69351      1920.3708      0.9969611
   1114000  -651.6728       116.60692     -768.27972      308.02524     -4253.2215      1920.3708      0.9969611
   1115000  -666.01184      116.38359     -782.39543      307.43529     -156.89441      1920.3708      0.9969611
   1116000  -651.08241      111.98354     -763.06595      295.81225      1416.723       1920.3708      0.9969611
   1117000  -673.18673      118.37732     -791.56405      312.70188     -2200.3775      1920.3708      0.9969611
   1118000  -673.54069      99.790754     -773.33145      263.60417     -523.85239      1920.3708      0.9969611
   1119000  -648.54308      109.12333     -757.66641      288.25681      1422.9262      1920.3708      0.9969611
   1120000  -646.18185      120.3133      -766.49515      317.8159       1079.719       1920.3708      0.9969611
   1121000  -621.54252      124.86362     -746.40614      329.83588     -564.4338       1920.3708      0.9969611
   1122000  -683.40207      100.71949     -784.12156      266.05749     -2285.9492      1920.3708      0.9969611
   1123000  -656.45952      108.26204     -764.72155      285.98165     -1582.0773      1920.3708      0.9969611
   1124000  -644.58049      113.93296     -758.51345      300.96179     -508.79418      1920.3708      0.9969611
   1125000  -622.02563      124.93409     -746.95971      330.02202      1565.2932      1920.3708      0.9969611
   1126000  -659.61785      111.95002     -771.56787      295.72371     -272.78687      1920.3708      0.9969611
   1127000  -647.54972      120.33891     -767.88863      317.88353      28.689408      1920.3708      0.9969611
   1128000  -621.86894      127.99066     -749.8596       338.09617     -2829.7858      1920.3708      0.9969611
   1129000  -608.34598      127.49471     -735.84068      336.78608     -1421.7895      1920.3708      0.9969611
   1130000  -656.46342      104.45949     -760.92291      275.93696      50.557045      1920.3708      0.9969611
   1131000  -664.64366      97.987899     -762.63156      258.84181     -2411.5295      1920.3708      0.9969611
   1132000  -641.12996      107.57098     -748.70093      284.15617      392.83752      1920.3708      0.9969611
   1133000  -615.44134      118.57552     -734.01686      313.22542     -1528.946       1920.3708      0.9969611
   1134000  -651.15155      113.73996     -764.89152      300.45197     -1261.1823      1920.3708      0.9969611
   1135000  -614.5586       116.04382     -730.60242      306.53776     -823.00698      1920.3708      0.9969611
   1136000  -648.30506      111.44205     -759.7471       294.38186      124.13134      1920.3708      0.9969611
   1137000  -666.24967      105.07535     -771.32502      277.56381     -1381.8574      1920.3708      0.9969611
   1138000  -634.5824       115.90243     -750.48483      306.16427     -864.11827      1920.3708      0.9969611
   1139000  -642.44112      109.58796     -752.02908      289.48416      303.23022      1920.3708      0.9969611
   1140000  -660.78907      98.205627     -758.9947       259.41695     -1060.7717      1920.3708      0.9969611
   1141000  -661.48525      114.94811     -776.43336      303.64337      471.64842      1920.3708      0.9969611
   1142000  -630.28877      111.89114     -742.17991      295.56817     -364.86047      1920.3708      0.9969611
   1143000  -663.49677      108.34255     -771.83932      286.19434      839.11834      1920.3708      0.9969611
   1144000  -653.11536      111.22978     -764.34514      293.82115      863.86915      1920.3708      0.9969611
   1145000  -648.36792      124.73415     -773.10207      329.49388     -485.41792      1920.3708      0.9969611
   1146000  -647.76458      112.93169     -760.69627      298.31688      636.0156       1920.3708      0.9969611
   1147000  -655.8994       95.849442     -751.74884      253.19293     -52.730065      1920.3708      0.9969611
   1148000  -655.77462      107.61924     -763.39386      284.28367     -364.77826      1920.3708      0.9969611
   1149000  -633.44006      129.44454     -762.8846       341.9367      -1012.0182      1920.3708      0.9969611
   1150000  -644.57074      118.86716     -763.4379       313.99583     -682.86126      1920.3708      0.9969611
   1151000  -643.74806      102.95741     -746.70547      271.96912     -1107.017       1920.3708      0.9969611
   1152000  -649.64835      117.7668      -767.41515      311.08914      929.29413      1920.3708      0.9969611
   1153000  -659.30098      114.5195      -773.82048      302.51116      769.21957      1920.3708      0.9969611
   1154000  -667.81607      104.90911     -772.72518      277.12467      811.88933      1920.3708      0.9969611
   1155000  -624.61851      125.81702     -750.43553      332.35436      865.12337      1920.3708      0.9969611
   1156000  -645.89714      120.35014     -766.24728      317.91321      927.21692      1920.3708      0.9969611
   1157000  -627.43595      123.9566      -751.39255      327.43992     -2641.307       1920.3708      0.9969611
   1158000  -654.83175      114.5356      -769.36734      302.55369     -200.43762      1920.3708      0.9969611
   1159000  -648.03558      124.46345     -772.49903      328.7788       2267.4851      1920.3708      0.9969611
   1160000  -672.25601      105.92604     -778.18205      279.81096      157.02072      1920.3708      0.9969611
   1161000  -629.82197      130.07483     -759.8968       343.60165      2459.954       1920.3708      0.9969611
   1162000  -636.93714      115.5573      -752.49444      305.25259     -2792.3015      1920.3708      0.9969611
   1163000  -651.76488      104.84204     -756.60692      276.94749     -2041.4853      1920.3708      0.9969611
   1164000  -690.07147      104.55115     -794.62262      276.17908     -1122.1268      1920.3708      0.9969611
   1165000  -633.76896      123.98419     -757.75315      327.51282      2199.2611      1920.3708      0.9969611
   1166000  -624.90309      126.93604     -751.83914      335.31033     -177.67866      1920.3708      0.9969611
   1167000  -645.48052      126.80933     -772.28985      334.97561      2071.6716      1920.3708      0.9969611
   1168000  -624.46244      113.7986      -738.26105      300.60687      188.38213      1920.3708      0.9969611
   1169000  -664.0529       103.31961     -767.37251      272.92589     -1899.363       1920.3708      0.9969611
   1170000  -640.35789      120.76331     -761.12119      319.00462     -630.17643      1920.3708      0.9969611
   1171000  -652.69952      106.38775     -759.08727      281.0306      -720.80438      1920.3708      0.9969611
   1172000  -677.40311      96.325547     -773.72865      254.45059     -1110.7905      1920.3708      0.9969611
   1173000  -648.92977      101.22772     -750.15749      267.4         -580.43194      1920.3708      0.9969611
   1174000  -650.15139      112.2559      -762.4073       296.53172      1303.0139      1920.3708      0.9969611
   1175000  -661.41736      112.81463     -774.23199      298.00764      1340.0807      1920.3708      0.9969611
   1176000  -621.31817      118.73349     -740.05166      313.64272      1666.833       1920.3708      0.9969611
   1177000  -671.30329      108.32287     -779.62616      286.14236     -412.20961      1920.3708      0.9969611
   1178000  -672.55674      105.64197     -778.19871      279.06058     -306.23842      1920.3708      0.9969611
   1179000  -650.02673      99.551087     -749.57781      262.97108     -1061.682       1920.3708      0.9969611
   1180000  -624.50975      120.31403     -744.82378      317.81781      582.37449      1920.3708      0.9969611
   1181000  -657.8941       112.49245     -770.38655      297.15658      109.04702      1920.3708      0.9969611
   1182000  -650.30628      120.30603     -770.61231      317.79671      639.85369      1920.3708      0.9969611
   1183000  -656.07255      112.05075     -768.12331      295.9898      -607.08986      1920.3708      0.9969611
   1184000  -632.03143      116.61012     -748.64155      308.03369      336.90644      1920.3708      0.9969611
   1185000  -640.38483      104.33849     -744.72332      275.61732      2737.8446      1920.3708      0.9969611
   1186000  -658.07789      113.19136     -771.26925      299.0028      -559.588        1920.3708      0.9969611
   1187000  -632.95974      124.26031     -757.22005      328.24221     -2017.1582      1920.3708      0.9969611
   1188000  -652.06087      103.88804     -755.94891      274.42743     -704.20089      1920.3708      0.9969611
   1189000  -657.51116      121.00465     -778.51581      319.64215      632.3427       1920.3708      0.9969611
   1190000  -677.46101      109.22799     -786.689        288.53329     -1976.6547      1920.3708      0.9969611
   1191000  -643.47565      116.82772     -760.30337      308.60848      376.12836      1920.3708      0.9969611
   1192000  -666.05793      99.722004     -765.77994      263.42257      710.73846      1920.3708      0.9969611
   1193000  -647.18179      108.87006     -756.05185      287.58778     -1606.4795      1920.3708      0.9969611
   1194000  -628.43922      125.04243     -753.48164      330.30821     -709.98971      1920.3708      0.9969611
   1195000  -650.45981      127.96499     -778.4248       338.02837      1914.7658      1920.3708      0.9969611
   1196000  -644.14713      113.03742     -757.18455      298.59616      2826.1192      1920.3708      0.9969611
   1197000  -683.55878      97.967598     -781.52638      258.78818     -41.789187      1920.3708      0.9969611
   1198000  -647.3429       120.99757     -768.34048      319.62345      83.162469      1920.3708      0.9969611
   1199000  -652.21201      112.86092     -765.07293      298.12993      1339.0021      1920.3708      0.9969611
   1200000  -669.65482      102.26232     -771.91714      270.133       -393.66854      1920.3708      0.9969611
   1201000  -674.74184      111.01042     -785.75226      293.2417      -2210.1587      1920.3708      0.9969611
   1202000  -650.31919      118.00683     -768.32601      311.72319     -1798.0957      1920.3708      0.9969611
   1203000  -652.18196      108.34286     -760.52482      286.19516     -4688.7121      1920.3708      0.9969611
   1204000  -658.8445       109.52748     -768.37198      289.32442     -787.27045      1920.3708      0.9969611
   1205000  -680.57505      106.46629     -787.04134      281.23806     -1046.4585      1920.3708      0.9969611
   1206000  -661.57618      109.24858     -770.82476      288.58768      466.26381      1920.3708      0.9969611
   1207000  -640.73716      112.89725     -753.63441      298.2259      -1870.5323      1920.3708      0.9969611
   1208000  -655.13737      108.11924     -763.25661      285.60445     -456.99796      1920.3708      0.9969611
   1209000  -658.35067      119.88597     -778.23665      316.68708      97.145136      1920.3708      0.9969611
   1210000  -634.44046      137.96592     -772.40639      364.44652     -2692.7003      1920.3708      0.9969611
   1211000  -643.3585       104.09543     -747.45392      274.97527     -1806.4704      1920.3708      0.9969611
   1212000  -653.18622      119.83735     -773.02357      316.55863      1368.2963      1920.3708      0.9969611
   1213000  -646.75329      106.77467     -753.52796      282.05267     -1135.6229      1920.3708      0.9969611
   1214000  -686.97056      111.32919     -798.29976      294.08376      75.867771      1920.3708      0.9969611
   1215000  -657.47529      121.40468     -778.87997      320.69885     -549.51502      1920.3708      0.9969611
   1216000  -678.22265      115.20173     -793.42438      304.31334      1079.6061      1920.3708      0.9969611
   1217000  -661.52903      97.146759     -758.67579      256.61988      1412.8455      1920.3708      0.9969611
   1218000  -688.36734      110.19596     -798.5633       291.09024     -876.83796      1920.3708      0.9969611
   1219000  -652.198        110.2404      -762.4384       291.20763      1445.2094      1920.3708      0.9969611
   1220000  -700.35899      105.65094     -806.00993      279.08426     -265.77587      1920.3708      0.9969611
   1221000  -652.64768      112.71652     -765.3642       297.74846      2341.3243      1920.3708      0.9969611
   1222000  -638.53886      128.24384     -766.7827       338.76497     -1965.2324      1920.3708      0.9969611
   1223000  -627.02744      110.46016     -737.4876       291.78815      341.80526      1920.3708      0.9969611
   1224000  -640.74508      128.13417     -768.87925      338.47526     -1212.6215      1920.3708      0.9969611
   1225000  -676.5405       103.90432     -780.44482      274.47044     -479.71908      1920.3708      0.9969611
   1226000  -645.90737      117.69059     -763.59796      310.88782      1039.9812      1920.3708      0.9969611
   1227000  -678.19068      97.718168     -775.90885      258.12929     -720.99352      1920.3708      0.9969611
   1228000  -651.60767      129.54902     -781.15669      342.21269      1065.3912      1920.3708      0.9969611
   1229000  -667.48063      112.75526     -780.23589      297.85081      180.3873       1920.3708      0.9969611
   1230000  -653.50522      112.76838     -766.2736       297.88546     -1745.7146      1920.3708      0.9969611
   1231000  -685.36155      111.3691      -796.73065      294.18916     -1692.5362      1920.3708      0.9969611
   1232000  -667.13477      106.76326     -773.89803      282.02254     -463.72014      1920.3708      0.9969611
   1233000  -645.17169      123.68384     -768.85554      326.71942     -1936.4271      1920.3708      0.9969611
   1234000  -665.84138      110.60762     -776.449        292.17767      1329.9664      1920.3708      0.9969611
   1235000  -644.46523      107.92673     -752.39197      285.09592     -3715.8558      1920.3708      0.9969611
   1236000  -639.42598      125.06015     -764.48613      330.35502     -1603.0673      1920.3708      0.9969611
   1237000  -627.81975      115.07691     -742.89666      303.9836       2449.3324      1920.3708      0.9969611
   1238000  -649.57657      117.47865     -767.05522      310.32798     -618.43721      1920.3708      0.9969611
   1239000  -639.08553      118.36679     -757.45232      312.67406      500.05305      1920.3708      0.9969611
   1240000  -641.68154      116.24045     -757.92199      307.05719     -1150.5574      1920.3708      0.9969611
   1241000  -669.25793      114.09535     -783.35329      301.39076     -2514.4423      1920.3708      0.9969611
   1242000  -650.96617      129.05671     -780.02288      340.91222     -379.18074      1920.3708      0.9969611
   1243000  -666.21877      112.84408     -779.06284      298.08542      493.24379      1920.3708      0.9969611
   1244000  -663.24073      112.58301     -775.82374      297.39581     -2238.7789      1920.3708      0.9969611
   1245000  -642.755        111.96769     -754.7227       295.7704      -314.0548       1920.3708      0.9969611
   1246000  -647.54126      101.87081     -749.41208      269.09879     -698.38254      1920.3708      0.9969611
   1247000  -660.81066      113.39051     -774.20117      299.52887     -2086.701       1920.3708      0.9969611
   1248000  -657.88342      109.37031     -767.25373      288.90924     -624.35744      1920.3708      0.9969611
   1249000  -655.07199      108.1214      -763.19339      285.61014     -272.79536      1920.3708      0.9969611
   1250000  -638.54999      119.64604     -758.19603      316.05328     -2451.956       1920.3708      0.9969611
   1251000  -657.31071      111.295       -768.60571      293.99342     -976.29537      1920.3708      0.9969611
   1252000  -653.1566       102.92999     -756.08658      271.89667      1722.8526      1920.3708      0.9969611
   1253000  -655.61775      107.8029      -763.42065      284.76881      197.73296      1920.3708      0.9969611
   1254000  -661.09365      98.478474     -759.57213      260.1377      -1249.472       1920.3708      0.9969611
   1255000  -654.9917       110.28038     -765.27209      291.31326     -1753.9837      1920.3708      0.9969611
   1256000  -661.95592      99.269728     -761.22564      262.22785     -1478.9085      1920.3708      0.9969611
   1257000  -632.02525      113.05299     -745.07824      298.63729     -659.01909      1920.3708      0.9969611
   1258000  -645.96649      124.37657     -770.34306      328.54931     -1377.328       1920.3708      0.9969611
   1259000  -671.91503      109.99907     -781.9141       290.57015      158.63174      1920.3708      0.9969611
   1260000  -667.45029      106.85636     -774.30665      282.26847      147.28039      1920.3708      0.9969611
   1261000  -632.68798      122.49455     -755.18253      323.57782     -220.05406      1920.3708      0.9969611
   1262000  -631.56784      111.60257     -743.17041      294.80591     -3003.9344      1920.3708      0.9969611
   1263000  -660.31918      109.95121     -770.27039      290.44371      260.7978       1920.3708      0.9969611
   1264000  -691.23549      95.984242     -787.21973      253.54901     -2445.4986      1920.3708      0.9969611
   1265000  -676.66882      105.53378     -782.2026       278.77478      409.72914      1920.3708      0.9969611
   1266000  -649.48686      119.24158     -768.72843      314.98487     -496.98525      1920.3708      0.9969611
   1267000  -648.0124       118.94566     -766.95806      314.20317      598.73955      1920.3708      0.9969611
   1268000  -667.30949      106.72882     -774.03831      281.93156     -2756.0754      1920.3708      0.9969611
   1269000  -659.09626      114.55481     -773.65108      302.60445      66.086768      1920.3708      0.9969611
   1270000  -687.852        110.46861     -798.32061      291.81046     -3087.4379      1920.3708      0.9969611
   1271000  -657.71899      106.5833      -764.30229      281.54714     -756.06274      1920.3708      0.9969611
   1272000  -647.53346      117.93681     -765.47027      311.53823      279.61132      1920.3708      0.9969611
   1273000  -676.03956      105.3327      -781.37226      278.2436       1221.7756      1920.3708      0.9969611
   1274000  -645.6584       114.03853     -759.69692      301.24065      2477.2781      1920.3708      0.9969611
   1275000  -661.49506      111.52502     -773.02008      294.60106      534.03142      1920.3708      0.9969611
   1276000  -653.42683      110.74272     -764.16955      292.53455     -1310.911       1920.3708      0.9969611
   1277000  -648.12165      113.84643     -761.96809      300.73322      1174.7944      1920.3708      0.9969611
   1278000  -650.25663      100.3199      -750.57653      265.00195     -725.92427      1920.3708      0.9969611
   1279000  -649.12201      118.8249      -767.94691      313.88418     -737.12871      1920.3708      0.9969611
   1280000  -655.20734      115.33921     -770.54655      304.6765       259.65684      1920.3708      0.9969611
   1281000  -646.29859      104.82718     -751.12577      276.90824     -1041.1142      1920.3708      0.9969611
   1282000  -671.74989      112.64003     -784.38992      297.54642     -1870.7823      1920.3708      0.9969611
   1283000  -662.84272      105.56049     -768.40321      278.84534      2358.8726      1920.3708      0.9969611
   1284000  -624.44956      118.43756     -742.88713      312.86101      542.03503      1920.3708      0.9969611
   1285000  -652.78026      116.90413     -769.68439      308.81035     -1755.8169      1920.3708      0.9969611
   1286000  -640.47639      119.26527     -759.74166      315.04744     -1860.652       1920.3708      0.9969611
   1287000  -657.7118       102.63545     -760.34725      271.11862     -1097.3437      1920.3708      0.9969611
   1288000  -644.96089      101.57238     -746.53328      268.31047      436.01686      1920.3708      0.9969611
   1289000  -676.50122      116.35315     -792.85437      307.3549      -1580.7403      1920.3708      0.9969611
   1290000  -662.12575      109.35694     -771.48269      288.87392     -403.02641      1920.3708      0.9969611
   1291000  -675.50491      118.23655     -793.74146      312.33001      991.05627      1920.3708      0.9969611
   1292000  -663.88779      113.1944      -777.08219      299.01083     -1422.8065      1920.3708      0.9969611
   1293000  -659.53256      110.42278     -769.95534      291.6894      -369.18103      1920.3708      0.9969611
   1294000  -672.91379      107.25898     -780.17276      283.332        363.81611      1920.3708      0.9969611
   1295000  -664.94166      97.220275     -762.16193      256.81407     -867.1198       1920.3708      0.9969611
   1296000  -660.91174      99.249949     -760.16169      262.1756      -2509.102       1920.3708      0.9969611
   1297000  -649.56866      118.04981     -767.61846      311.83672     -661.86251      1920.3708      0.9969611
   1298000  -670.13918      102.68445     -772.82363      271.24808     -2652.1921      1920.3708      0.9969611
   1299000  -658.0909       99.427738     -757.51864      262.64524     -1222.4854      1920.3708      0.9969611
   1300000  -681.71407      103.19824     -784.91232      272.60528     -1120.6618      1920.3708      0.9969611
   1301000  -675.26706      102.8638      -778.13086      271.72184     -2357.5631      1920.3708      0.9969611
   1302000  -631.5279       118.11955     -749.64745      312.02095      1712.0808      1920.3708      0.9969611
   1303000  -665.21767      118.40998     -783.62765      312.78814     -621.58633      1920.3708      0.9969611
   1304000  -644.83388      115.23764     -760.07152      304.40819      132.20351      1920.3708      0.9969611
   1305000  -631.82228      130.15075     -761.97304      343.8022      -991.47618      1920.3708      0.9969611
   1306000  -632.10945      110.87594     -742.98538      292.88645     -3427.1818      1920.3708      0.9969611
   1307000  -661.6137       116.4797      -778.0934       307.68918      1468.2045      1920.3708      0.9969611
   1308000  -646.77834      96.416533     -743.19487      254.69094      3498.7218      1920.3708      0.9969611
   1309000  -653.03186      108.62205     -761.65391      286.93265     -3228.3194      1920.3708      0.9969611
   1310000  -643.77133      115.24354     -759.01487      304.42376     -2911.6772      1920.3708      0.9969611
   1311000  -635.01585      107.60428     -742.62013      284.24414     -598.07337      1920.3708      0.9969611
   1312000  -646.88602      124.76787     -771.6539       329.58296     -1497.5423      1920.3708      0.9969611
   1313000  -627.60131      119.12789     -746.7292       314.68457     -79.796773      1920.3708      0.9969611
   1314000  -638.06381      117.09109     -755.1549       309.3042      -2701.0643      1920.3708      0.9969611
   1315000  -666.69576      108.07972     -774.77548      285.50006     -642.19785      1920.3708      0.9969611
   1316000  -663.0312       107.71805     -770.74925      284.54467     -2070.1108      1920.3708      0.9969611
   1317000  -674.88407      108.60605     -783.49012      286.89038     -1262.5097      1920.3708      0.9969611
   1318000  -657.41931      122.47454     -779.89386      323.52497     -1641.5784      1920.3708      0.9969611
   1319000  -620.2356       123.04713     -743.28273      325.0375      -1723.9087      1920.3708      0.9969611
   1320000  -644.58367      120.46837     -765.05204      318.22552     -1018.958       1920.3708      0.9969611
   1321000  -666.52134      109.34892     -775.87026      288.85273     -2204.0272      1920.3708      0.9969611
   1322000  -649.5519       123.73698     -773.28888      326.85977     -20.60883       1920.3708      0.9969611
   1323000  -654.35273      112.17579     -766.52852      296.3201      -46.439995      1920.3708      0.9969611
   1324000  -650.14225      132.37796     -782.52021      349.68552     -132.80226      1920.3708      0.9969611
   1325000  -677.82607      111.27962     -789.10569      293.95281     -1006.8548      1920.3708      0.9969611
   1326000  -636.38059      113.31313     -749.69372      299.32447     -780.73733      1920.3708      0.9969611
   1327000  -643.10955      108.73388     -751.84343      287.22806     -3575.0653      1920.3708      0.9969611
   1328000  -675.72808      111.21381     -786.94189      293.77897     -1497.4111      1920.3708      0.9969611
   1329000  -667.77481      115.64607     -783.42088      305.48709     -1489.098       1920.3708      0.9969611
   1330000  -653.86607      118.87009     -772.73616      314.00356     -694.43559      1920.3708      0.9969611
   1331000  -622.0519       127.24325     -749.29515      336.12184     -560.45133      1920.3708      0.9969611
   1332000  -640.23382      104.93557     -745.1694       277.19457      325.89481      1920.3708      0.9969611
   1333000  -660.98347      102.17025     -763.15372      269.88978     -1499.1817      1920.3708      0.9969611
   1334000  -637.25068      131.63189     -768.88257      347.71474      1561.9557      1920.3708      0.9969611
   1335000  -646.94848      115.78893     -762.73741      305.86446      2379.3514      1920.3708      0.9969611
   1336000  -654.5932       112.10933     -766.70254      296.14455     -867.51746      1920.3708      0.9969611
   1337000  -646.69356      117.82243     -764.51599      311.23609      590.26813      1920.3708      0.9969611
   1338000  -655.20042      107.25745     -762.45787      283.32796      2533.1737      1920.3708      0.9969611
   1339000  -631.33795      123.51516     -754.85311      326.27383     -2743.2739      1920.3708      0.9969611
   1340000  -634.86514      109.9663      -744.83144      290.48358     -996.88763      1920.3708      0.9969611
   1341000  -667.78803      119.3528      -787.14083      315.27866     -1611.7332      1920.3708      0.9969611
   1342000  -657.32988      112.92669     -770.25657      298.30365      2946.8797      1920.3708      0.9969611
   1343000  -668.59405      118.87584     -787.46989      314.01876     -1326.7961      1920.3708      0.9969611
   1344000  -663.04722      108.57387     -771.62109      286.80538     -671.53561      1920.3708      0.9969611
   1345000  -647.01398      101.24368     -748.25766      267.44218     -1227.8328      1920.3708      0.9969611
   1346000  -659.72766      112.91932     -772.64698      298.28418     -2714.9706      1920.3708      0.9969611
   1347000  -657.71989      100.12016     -757.84005      264.47433     -932.90603      1920.3708      0.9969611
   1348000  -629.04763      125.79005     -754.83768      332.28312     -1879.4306      1920.3708      0.9969611
   1349000  -640.21586      122.10142     -762.31727      322.53933      1827.4893      1920.3708      0.9969611
   1350000  -649.13471      113.83098     -762.96569      300.6924       1724.0581      1920.3708      0.9969611
   1351000  -639.62625      124.70967     -764.33592      329.42922      203.52718      1920.3708      0.9969611
   1352000  -680.20032      106.23282     -786.43315      280.62134     -334.79486      1920.3708      0.9969611
   1353000  -658.36193      108.38815     -766.75009      286.3148      -1361.0828      1920.3708      0.9969611
   1354000  -677.92787      112.53613     -790.464        297.27197      217.83208      1920.3708      0.9969611
   1355000  -653.31249      117.51261     -770.82511      310.41769     -604.6377       1920.3708      0.9969611
   1356000  -653.57701      105.49171     -759.06872      278.66364      1630.8793      1920.3708      0.9969611
   1357000  -626.60969      129.67334     -756.28303      342.54109      1851.9677      1920.3708      0.9969611
   1358000  -653.36931      113.39032     -766.75963      299.52836     -491.96185      1920.3708      0.9969611
   1359000  -653.05798      106.45116     -759.50913      281.19809     -2024.8459      1920.3708      0.9969611
   1360000  -673.27939      103.34504     -776.62443      272.99306     -1068.346       1920.3708      0.9969611
   1361000  -662.13143      109.75671     -771.88814      289.92994     -1360.1514      1920.3708      0.9969611
   1362000  -675.76378      109.60111     -785.36489      289.5189      -2892.9086      1920.3708      0.9969611
   1363000  -665.98254      104.26527     -770.24781      275.42392     -749.99257      1920.3708      0.9969611
   1364000  -640.1731       113.75076     -753.92386      300.48048      2979.9378      1920.3708      0.9969611
   1365000  -653.27556      117.19785     -770.47341      309.58621      997.22963      1920.3708      0.9969611
   1366000  -643.56256      119.31063     -762.8732       315.16728      1589.3622      1920.3708      0.9969611
   1367000  -656.07012      127.31517     -783.38529      336.31183     -983.74974      1920.3708      0.9969611
   1368000  -649.76058      108.1411      -757.90168      285.6622      -1042.163       1920.3708      0.9969611
   1369000  -649.16758      109.82721     -758.99479      290.11617     -2308.5067      1920.3708      0.9969611
   1370000  -671.35352      109.56517     -780.91869      289.42398     -2424.0431      1920.3708      0.9969611
   1371000  -640.63453      122.58881     -763.22333      323.8268      -601.89048      1920.3708      0.9969611
   1372000  -643.47597      104.99636     -748.47233      277.35515     -117.84004      1920.3708      0.9969611
   1373000  -628.542        117.62673     -746.16873      310.71913     -2261.2178      1920.3708      0.9969611
   1374000  -660.36836      101.48631     -761.85467      268.08309     -3173.3747      1920.3708      0.9969611
   1375000  -666.12274      95.11839      -761.24113      251.2618      -768.71955      1920.3708      0.9969611
   1376000  -665.77346      116.75435     -782.52781      308.41469     -1532.2917      1920.3708      0.9969611
   1377000  -643.65498      114.08721     -757.7422       301.36926     -283.00996      1920.3708      0.9969611
   1378000  -631.00432      124.01133     -755.01565      327.58449     -508.36574      1920.3708      0.9969611
   1379000  -671.36561      114.04552     -785.41113      301.25911     -398.2307       1920.3708      0.9969611
   1380000  -635.53893      116.93183     -752.47076      308.88351     -2478.1981      1920.3708      0.9969611
   1381000  -643.51401      115.26046     -758.77447      304.46846     -3238.5878      1920.3708      0.9969611
   1382000  -671.45244      97.483001     -768.93545      257.50809      588.22831      1920.3708      0.9969611
   1383000  -645.74297      118.7421      -764.48507      313.66546      1310.3119      1920.3708      0.9969611
   1384000  -655.31946      110.33524     -765.6547       291.45817      1145.2312      1920.3708      0.9969611
   1385000  -678.01996      99.301875     -777.32183      262.31277     -1178.5636      1920.3708      0.9969611
   1386000  -630.37415      123.57607     -753.95022      326.43472     -2222.337       1920.3708      0.9969611
   1387000  -643.35216      117.39886     -760.75102      310.11719     -3071.6908      1920.3708      0.9969611
   1388000  -659.89318      108.12804     -768.02122      285.62769     -605.11771      1920.3708      0.9969611
   1389000  -661.42448      116.87496     -778.29944      308.73328     -1339.2483      1920.3708      0.9969611
   1390000  -626.53434      118.37407     -744.90841      312.69328     -1293.0589      1920.3708      0.9969611
   1391000  -628.89683      120.28929     -749.18613      317.75248      557.72528      1920.3708      0.9969611
   1392000  -657.34854      96.036578     -753.38512      253.68726      1240.4237      1920.3708      0.9969611
   1393000  -649.24331      125.45132     -774.69464      331.38834      616.80215      1920.3708      0.9969611
   1394000  -662.58486      119.89617     -782.48103      316.71401      163.00232      1920.3708      0.9969611
   1395000  -653.0538       112.08197     -765.13578      296.07228      4759.3552      1920.3708      0.9969611
   1396000  -690.21232      103.02467     -793.23699      272.14679      1179.622       1920.3708      0.9969611
   1397000  -646.60536      122.34053     -768.9459       323.17097     -1703.331       1920.3708      0.9969611
   1398000  -636.88576      114.45171     -751.33747      302.3321       1127.4232      1920.3708      0.9969611
   1399000  -627.87868      119.70493     -747.58361      316.20885     -2639.1891      1920.3708      0.9969611
   1400000  -645.44496      104.11019     -749.55515      275.01426     -1832.3824      1920.3708      0.9969611
   1401000  -649.53566      108.40689     -757.94254      286.36429     -2246.4293      1920.3708      0.9969611
   1402000  -669.96082      110.51545     -780.47628      291.93421      983.63866      1920.3708      0.9969611
   1403000  -660.25928      103.17689     -763.43617      272.5489      -302.39965      1920.3708      0.9969611
   1404000  -663.41232      108.64036     -772.05268      286.98102     -22.201735      1920.3708      0.9969611
   1405000  -646.88576      125.86411     -772.74987      332.47874      1096.7214      1920.3708      0.9969611
   1406000  -647.56643      121.30818     -768.87462      320.44394      1893.2315      1920.3708      0.9969611
   1407000  -652.17898      112.95322     -765.1322       298.37373     -859.52745      1920.3708      0.9969611
   1408000  -657.10524      105.84984     -762.95508      279.60966     -1143.4846      1920.3708      0.9969611
   1409000  -643.23568      129.16133     -772.39701      341.18858     -317.82519      1920.3708      0.9969611
   1410000  -658.68875      102.3089      -760.99765      270.25602     -846.17992      1920.3708      0.9969611
   1411000  -623.96935      115.98674     -739.95609      306.38699      68.13901       1920.3708      0.9969611
   1412000  -656.23394      107.01868     -763.25261      282.69724     -2296.3205      1920.3708      0.9969611
   1413000  -648.79606      110.32722     -759.12328      291.43698      701.18591      1920.3708      0.9969611
   1414000  -654.38741      102.65608     -757.04348      271.17312     -105.34778      1920.3708      0.9969611
   1415000  -667.55915      114.16932     -781.72847      301.58615      553.90884      1920.3708      0.9969611
   1416000  -637.16232      117.12915     -754.29147      309.40475     -113.27787      1920.3708      0.9969611
   1417000  -648.61026      101.38977     -750.00003      267.82808      2011.3009      1920.3708      0.9969611
   1418000  -659.72513      112.86124     -772.58637      298.13077     -208.41079      1920.3708      0.9969611
   1419000  -645.79004      120.68723     -766.47726      318.80365      1392.2598      1920.3708      0.9969611
   1420000  -632.96099      124.61878     -757.57977      329.18912     -1453.6074      1920.3708      0.9969611
   1421000  -649.327        112.86846     -762.19546      298.14984      1081.3663      1920.3708      0.9969611
   1422000  -672.49249      111.55576     -784.04825      294.68225     -164.21748      1920.3708      0.9969611
   1423000  -672.96268      105.8821      -778.84479      279.69489      900.50374      1920.3708      0.9969611
   1424000  -640.82579      112.10813     -752.93392      296.14138     -330.97248      1920.3708      0.9969611
   1425000  -661.27486      114.82851     -776.10337      303.32744     -58.879898      1920.3708      0.9969611
   1426000  -679.03669      111.49856     -790.53524      294.53114      129.29702      1920.3708      0.9969611
   1427000  -657.52328      107.79511     -765.31838      284.74823      2578.5566      1920.3708      0.9969611
   1428000  -642.96675      113.35874     -756.32549      299.44494      1434.2371      1920.3708      0.9969611
   1429000  -632.2905       122.42546     -754.71596      323.39531     -210.99102      1920.3708      0.9969611
   1430000  -642.54701      103.948       -746.49501      274.58582     -71.577291      1920.3708      0.9969611
   1431000  -640.84789      124.62854     -765.47643      329.21489      781.29761      1920.3708      0.9969611
   1432000  -692.75428      104.75726     -797.51153      276.72353     -1717.7396      1920.3708      0.9969611
   1433000  -663.31858      111.75657     -775.07515      295.21271      959.81136      1920.3708      0.9969611
   1434000  -673.62927      109.60901     -783.23829      289.53978     -1289.8578      1920.3708      0.9969611
   1435000  -644.92499      114.41294     -759.33792      302.22968      4.1688132      1920.3708      0.9969611
   1436000  -660.48873      109.58821     -770.07694      289.48482     -747.42271      1920.3708      0.9969611
   1437000  -650.91249      124.35936     -775.27185      328.50385     -1167.6694      1920.3708      0.9969611
   1438000  -616.52762      120.47693     -737.00455      318.24813      531.54164      1920.3708      0.9969611
   1439000  -647.87465      116.54662     -764.42127      307.86596     -3313.886       1920.3708      0.9969611
   1440000  -625.50726      124.06907     -749.57634      327.73703      1759.7648      1920.3708      0.9969611
   1441000  -647.01514      100.55795     -747.57308      265.63076     -824.96614      1920.3708      0.9969611
   1442000  -648.9879       117.96922     -766.95713      311.62385     -1975.8272      1920.3708      0.9969611
   1443000  -630.42318      124.38917     -754.81235      328.58258     -2514.082       1920.3708      0.9969611
   1444000  -641.84482      118.51608     -760.3609       313.06843     -2543.8209      1920.3708      0.9969611
   1445000  -653.84574      119.63476     -773.48051      316.02349     -705.19498      1920.3708      0.9969611
   1446000  -655.72187      124.18613     -779.908        328.04624     -1964.0825      1920.3708      0.9969611
   1447000  -666.35518      116.01075     -782.36593      306.45042     -154.93723      1920.3708      0.9969611
   1448000  -682.17704      101.7265      -783.90354      268.71759     -811.96366      1920.3708      0.9969611
   1449000  -657.00398      109.40521     -766.40919      289.00141     -1433.7211      1920.3708      0.9969611
   1450000  -657.6363       131.04937     -788.68567      346.17597     -263.39563      1920.3708      0.9969611
   1451000  -656.34043      122.32751     -778.66794      323.13658     -1416.7255      1920.3708      0.9969611
   1452000  -650.72659      119.17676     -769.90336      314.81366     -381.67685      1920.3708      0.9969611
   1453000  -664.97443      107.09346     -772.06789      282.89478      219.35023      1920.3708      0.9969611
   1454000  -643.25769      113.37042     -756.62811      299.4758       450.16823      1920.3708      0.9969611
   1455000  -668.79488      101.75896     -770.55384      268.80332     -2197.7626      1920.3708      0.9969611
   1456000  -631.60826      136.88207     -768.49033      361.58344     -803.84916      1920.3708      0.9969611
   1457000  -663.94978      113.80447     -777.75425      300.62238      443.73305      1920.3708      0.9969611
   1458000  -649.71081      111.08119     -760.792        293.42863      1401.1023      1920.3708      0.9969611
   1459000  -665.93691      101.66199     -767.59891      268.54718      1098.6032      1920.3708      0.9969611
   1460000  -654.80377      114.11225     -768.91602      301.43539     -2277.139       1920.3708      0.9969611
   1461000  -630.39544      132.05673     -762.45217      348.83698      1785.8341      1920.3708      0.9969611
   1462000  -675.62072      101.44713     -777.06785      267.9796      -2709.6674      1920.3708      0.9969611
   1463000  -652.34259      122.31223     -774.65483      323.09621     -1280.774       1920.3708      0.9969611
   1464000  -670.09887      103.90599     -774.00486      274.47484      454.48816      1920.3708      0.9969611
   1465000  -641.10001      106.63336     -747.73337      281.67939     -691.17966      1920.3708      0.9969611
   1466000  -660.51993      102.47909     -762.99902      270.70561     -1469.3108      1920.3708      0.9969611
   1467000  -663.7804       105.10634     -768.88674      277.64566     -214.31566      1920.3708      0.9969611
   1468000  -642.03791      121.06699     -763.1049       319.80683     -1644.9762      1920.3708      0.9969611
   1469000  -671.13406      97.944869     -769.07893      258.72814      1847.6497      1920.3708      0.9969611
   1470000  -642.4547       110.29872     -752.75342      291.36168     -1661.8232      1920.3708      0.9969611
   1471000  -665.47941      107.10926     -772.58867      282.93653     -4194.0722      1920.3708      0.9969611
   1472000  -661.49499      113.45045     -774.94544      299.68719      594.31853      1920.3708      0.9969611
   1473000  -682.68036      96.070388     -778.75075      253.77657     -2800.4994      1920.3708      0.9969611
   1474000  -640.21475      110.55575     -750.7705       292.04064      171.83872      1920.3708      0.9969611
   1475000  -680.21836      98.964851     -779.18321      261.42249     -2507.8013      1920.3708      0.9969611
   1476000  -654.92782      121.03852     -775.96634      319.73162      547.37363      1920.3708      0.9969611
   1477000  -665.81023      100.44971     -766.25994      265.34486     -258.17126      1920.3708      0.9969611
   1478000  -642.71307      112.02385     -754.73692      295.91875     -4410.3708      1920.3708      0.9969611
   1479000  -647.04769      102.31746     -749.36516      270.27865     -289.62499      1920.3708      0.9969611
   1480000  -651.69432      115.9952      -767.68952      306.40933     -1981.4724      1920.3708      0.9969611
   1481000  -639.24979      124.26798     -763.51778      328.26247     -2201.5921      1920.3708      0.9969611
   1482000  -657.37299      114.84237     -772.21536      303.36406     -556.70665      1920.3708      0.9969611
   1483000  -648.97614      123.73973     -772.71588      326.86706     -1663.1439      1920.3708      0.9969611
   1484000  -664.00247      117.75795     -781.76043      311.06577      695.36077      1920.3708      0.9969611
   1485000  -641.1926       118.84922     -760.04183      313.94844      1266.2544      1920.3708      0.9969611
   1486000  -674.23645      109.81322     -784.04967      290.07921     -189.80614      1920.3708      0.9969611
   1487000  -667.3945       102.32164     -769.71614      270.28968      1707.1337      1920.3708      0.9969611
   1488000  -663.53527      107.4863      -771.02157      283.93248     -1680.1531      1920.3708      0.9969611
   1489000  -639.89599      110.48672     -750.38272      291.85831     -493.13288      1920.3708      0.9969611
   1490000  -637.05269      112.23931     -749.292        296.48791      356.11752      1920.3708      0.9969611
   1491000  -658.7492       114.72264     -773.47185      303.04779      113.55646      1920.3708      0.9969611
   1492000  -654.61798      113.27497     -767.89295      299.22366      1157.872       1920.3708      0.9969611
   1493000  -636.52952      115.24886     -751.77838      304.43782     -368.56501      1920.3708      0.9969611
   1494000  -651.61585      103.01878     -754.63464      272.13124     -656.26977      1920.3708      0.9969611
   1495000  -668.62155      97.040655     -765.66221      256.3396       1364.9674      1920.3708      0.9969611
   1496000  -635.50571      123.05241     -758.55812      325.05144     -229.91743      1920.3708      0.9969611
   1497000  -653.01139      114.85675     -767.86814      303.40205     -299.06869      1920.3708      0.9969611
   1498000  -676.90023      106.20046     -783.10069      280.53585     -2243.2342      1920.3708      0.9969611
   1499000  -644.05334      111.97439     -756.02773      295.7881      -3019.4406      1920.3708      0.9969611
   1500000  -664.23708      115.72991     -779.96699      305.70854     -1707.6458      1920.3708      0.9969611
   1501000  -654.89242      115.01355     -769.90598      303.81625     -169.49048      1920.3708      0.9969611
   1502000  -650.65864      103.06128     -753.71992      272.2435      -347.68904      1920.3708      0.9969611
   1503000  -660.80888      110.28982     -771.0987       291.33818      581.63079      1920.3708      0.9969611
   1504000  -633.75919      126.47254     -760.23173      334.08595     -924.34965      1920.3708      0.9969611
   1505000  -673.16063      105.71493     -778.87555      279.25328     -1355.9863      1920.3708      0.9969611
   1506000  -655.0315       105.94068     -760.97218      279.84963     -594.87307      1920.3708      0.9969611
   1507000  -645.17623      125.4115      -770.58773      331.28314      364.40958      1920.3708      0.9969611
   1508000  -645.29576      111.53662     -756.83238      294.63168      1024.098       1920.3708      0.9969611
   1509000  -625.96693      123.00894     -748.97587      324.93661     -422.35833      1920.3708      0.9969611
   1510000  -635.00403      116.48606     -751.49009      307.70598     -295.99394      1920.3708      0.9969611
   1511000  -655.1006       120.04793     -775.14853      317.1149      -516.31532      1920.3708      0.9969611
   1512000  -658.72529      106.56435     -765.28964      281.49708      93.339806      1920.3708      0.9969611
   1513000  -650.97925      117.84287     -768.82212      311.2901      -1074.7479      1920.3708      0.9969611
   1514000  -664.57152      109.0642      -773.63572      288.10062     -2720.9149      1920.3708      0.9969611
   1515000  -660.90316      112.28104     -773.1842       296.59814      3996.2845      1920.3708      0.9969611
   1516000  -627.51222      121.12597     -748.63819      319.96261      1463.1186      1920.3708      0.9969611
   1517000  -648.29326      126.64216     -774.93542      334.53402      435.94534      1920.3708      0.9969611
   1518000  -657.7626       114.95761     -772.72022      303.66848      2099.8865      1920.3708      0.9969611
   1519000  -647.30218      120.33272     -767.6349       317.8672       566.27216      1920.3708      0.9969611
   1520000  -669.08168      115.45348     -784.53516      304.97834      131.42042      1920.3708      0.9969611
   1521000  -656.19883      102.92489     -759.12371      271.8832      -1429.4133      1920.3708      0.9969611
   1522000  -674.08991      110.91678     -785.00668      292.99434     -981.43959      1920.3708      0.9969611
   1523000  -657.60071      118.75125     -776.35195      313.68963      472.74026      1920.3708      0.9969611
   1524000  -636.05772      124.22963     -760.28735      328.16116      1849.3044      1920.3708      0.9969611
   1525000  -659.44705      106.34722     -765.79426      280.92352     -1440.783       1920.3708      0.9969611
   1526000  -645.83624      117.8616      -763.69784      311.33956     -357.96482      1920.3708      0.9969611
   1527000  -678.17814      105.77977     -783.95791      279.42458     -667.42411      1920.3708      0.9969611
   1528000  -651.31083      119.16057     -770.4714       314.77089      2262.9434      1920.3708      0.9969611
   1529000  -680.34574      104.81241     -785.15815      276.86923     -15.891085      1920.3708      0.9969611
   1530000  -688.79624      110.56723     -799.36348      292.07099      582.27319      1920.3708      0.9969611
   1531000  -682.95903      105.92085     -788.87987      279.79724      2949.8876      1920.3708      0.9969611
   1532000  -673.1639       100.30957     -773.47347      264.97467      148.77256      1920.3708      0.9969611
   1533000  -661.96234      107.77196     -769.7343       284.68708      2779.7162      1920.3708      0.9969611
   1534000  -616.34858      125.35502     -741.70361      331.13396      131.23277      1920.3708      0.9969611
   1535000  -643.54042      105.56871     -749.10913      278.86704      1462.3758      1920.3708      0.9969611
   1536000  -628.71505      112.61843     -741.33348      297.48937      921.92723      1920.3708      0.9969611
   1537000  -672.68574      112.06516     -784.7509       296.02785     -1605.4152      1920.3708      0.9969611
   1538000  -665.74241      112.7902      -778.53261      297.94311     -2061.7844      1920.3708      0.9969611
   1539000  -660.86894      108.32374     -769.19267      286.14464     -2554.6708      1920.3708      0.9969611
   1540000  -631.69339      119.78868     -751.48207      316.43007     -220.37069      1920.3708      0.9969611
   1541000  -663.75661      105.26457     -769.02119      278.06364      1073.4476      1920.3708      0.9969611
   1542000  -667.41415      113.10813     -780.52228      298.78295     -208.87244      1920.3708      0.9969611
   1543000  -695.24113      99.454916     -794.69605      262.71703     -2629.5201      1920.3708      0.9969611
   1544000  -662.52072      102.95122     -765.47193      271.95276      36.667844      1920.3708      0.9969611
   1545000  -638.87364      132.50696     -771.3806       350.02629      1570.9334      1920.3708      0.9969611
   1546000  -618.82938      121.51668     -740.34606      320.9947      -330.99393      1920.3708      0.9969611
   1547000  -660.57108      121.24555     -781.81663      320.2785       903.89871      1920.3708      0.9969611
   1548000  -694.33751      109.33022     -803.66773      288.80334      794.14286      1920.3708      0.9969611
   1549000  -665.19197      103.25572     -768.44769      272.75711     -1499.7027      1920.3708      0.9969611
   1550000  -659.35124      113.48328     -772.83452      299.77392     -1815.6929      1920.3708      0.9969611
   1551000  -643.58876      115.38627     -758.97503      304.8008      -1429.7853      1920.3708      0.9969611
   1552000  -661.66751      108.65574     -770.32326      287.02166     -1896.0791      1920.3708      0.9969611
   1553000  -667.90486      110.01723     -777.9221       290.61813      1911.8007      1920.3708      0.9969611
   1554000  -669.37009      113.94673     -783.31682      300.99817      1441.6413      1920.3708      0.9969611
   1555000  -673.38901      102.73502     -776.12403      271.38167     -1813.2705      1920.3708      0.9969611
   1556000  -650.70669      114.23121     -764.93789      301.74962     -165.57657      1920.3708      0.9969611
   1557000  -668.08471      110.78534     -778.87005      292.64712      276.38806      1920.3708      0.9969611
   1558000  -642.5467       120.7862      -763.33291      319.06511      436.50931      1920.3708      0.9969611
   1559000  -661.96101      108.82769     -770.7887       287.47585      1721.8729      1920.3708      0.9969611
   1560000  -645.79276      114.08871     -759.88147      301.37322     -1375.7831      1920.3708      0.9969611
   1561000  -640.78158      120.88425     -761.66583      319.32411     -2076.6759      1920.3708      0.9969611
   1562000  -635.49305      105.39601     -740.88906      278.41084      2048.7782      1920.3708      0.9969611
   1563000  -640.55176      115.35434     -755.9061       304.71646     -693.88072      1920.3708      0.9969611
   1564000  -643.0688       112.92534     -755.99414      298.30008     -1435.3347      1920.3708      0.9969611
   1565000  -595.67566      126.99439     -722.67005      335.46446      677.18653      1920.3708      0.9969611
   1566000  -636.45637      134.17115     -770.62752      354.42235     -2009.2046      1920.3708      0.9969611
   1567000  -681.44779      97.038135     -778.48592      256.33294      1590.8118      1920.3708      0.9969611
   1568000  -670.37784      105.48287     -775.86071      278.64029      238.32243      1920.3708      0.9969611
   1569000  -652.10268      132.15342     -784.2561       349.09238      2968.9253      1920.3708      0.9969611
   1570000  -650.9308       95.591001     -746.5218       252.51023     -1322.6686      1920.3708      0.9969611
   1571000  -632.43003      113.69175     -746.12178      300.32462     -2308.9955      1920.3708      0.9969611
   1572000  -634.71919      120.66059     -755.37978      318.73329      702.18611      1920.3708      0.9969611
   1573000  -661.96655      111.60828     -773.57482      294.82097      2319.8876      1920.3708      0.9969611
   1574000  -642.71335      120.00929     -762.72265      317.01284     -1183.4723      1920.3708      0.9969611
   1575000  -655.45295      119.7562      -775.20915      316.34428     -325.71625      1920.3708      0.9969611
   1576000  -678.57262      111.38688     -789.9595       294.23614     -943.96178      1920.3708      0.9969611
   1577000  -635.75232      117.81797     -753.5703       311.22432     -2595.4712      1920.3708      0.9969611
   1578000  -644.68269      116.83016     -761.51285      308.61494     -2298.7996      1920.3708      0.9969611
   1579000  -643.54981      107.2985      -750.84831      283.43641      266.22733      1920.3708      0.9969611
   1580000  -668.41668      113.30546     -781.72214      299.30421     -577.1308       1920.3708      0.9969611
   1581000  -653.41685      112.1947      -765.61155      296.37006     -4196.7883      1920.3708      0.9969611
   1582000  -635.0689       133.46643     -768.53533      352.5608      -90.89871       1920.3708      0.9969611
   1583000  -652.76411      109.63683     -762.40095      289.61328      388.568        1920.3708      0.9969611
   1584000  -625.80701      125.17609     -750.9831       330.6613      -2032.9199      1920.3708      0.9969611
   1585000  -645.40102      116.31928     -761.7203       307.26543     -1216.9172      1920.3708      0.9969611
   1586000  -645.84232      116.66764     -762.50996      308.18563     -772.0917       1920.3708      0.9969611
   1587000  -655.24578      102.02908     -757.27486      269.51686      3.1905968      1920.3708      0.9969611
   1588000  -653.40843      108.52135     -761.92978      286.66665      493.55068      1920.3708      0.9969611
   1589000  -648.62208      112.36645     -760.98853      296.82375     -467.89063      1920.3708      0.9969611
   1590000  -665.92632      105.0244      -770.95073      277.42922     -3354.474       1920.3708      0.9969611
   1591000  -679.32102      103.2629      -782.58391      272.77608      777.09702      1920.3708      0.9969611
   1592000  -653.36138      126.62661     -779.98799      334.49294      1310.7808      1920.3708      0.9969611
   1593000  -649.94464      101.53568     -751.48032      268.21353      2614.2999      1920.3708      0.9969611
   1594000  -650.84664      114.13099     -764.97763      301.4849       796.40114      1920.3708      0.9969611
   1595000  -646.41         122.02621     -768.4362       322.34066      3191.5724      1920.3708      0.9969611
   1596000  -620.97205      115.76229     -736.73434      305.7941      -27.383281      1920.3708      0.9969611
   1597000  -633.05333      105.0273      -738.08063      277.43688     -2480.0071      1920.3708      0.9969611
   1598000  -608.93495      121.56731     -730.50226      321.12845      37.307753      1920.3708      0.9969611
   1599000  -636.519        114.5313      -751.0503       302.54234     -1602.5993      1920.3708      0.9969611
   1600000  -666.25317      117.4546      -783.70777      310.26445      668.27967      1920.3708      0.9969611
   1601000  -673.21976      110.74406     -783.96382      292.5381       807.21722      1920.3708      0.9969611
   1602000  -653.4          105.96722     -759.36722      279.91973      522.86797      1920.3708      0.9969611
   1603000  -668.50211      113.56732     -782.06943      299.99592      355.64796      1920.3708      0.9969611
   1604000  -638.18058      123.19043     -761.37101      325.41602      278.00667      1920.3708      0.9969611
   1605000  -679.29018      97.793201     -777.08338      258.3275       98.446946      1920.3708      0.9969611
   1606000  -657.0433       117.69698     -774.74028      310.90471      1394.3385      1920.3708      0.9969611
   1607000  -662.433        104.31048     -766.74348      275.54334      380.69841      1920.3708      0.9969611
   1608000  -637.7815       120.77862     -758.56012      319.04507     -84.162589      1920.3708      0.9969611
   1609000  -650.86056      107.59678     -758.45733      284.22432     -3054.8987      1920.3708      0.9969611
   1610000  -649.07985      115.43259     -764.51244      304.92315     -275.59615      1920.3708      0.9969611
   1611000  -640.61926      111.50397     -752.12323      294.54543      1238.5123      1920.3708      0.9969611
   1612000  -674.14244      97.490613     -771.63305      257.52819      725.90297      1920.3708      0.9969611
   1613000  -675.08278      116.9865      -792.06928      309.02792      1237.0419      1920.3708      0.9969611
   1614000  -655.95029      108.72682     -764.67711      287.2094      -2011.4823      1920.3708      0.9969611
   1615000  -644.40943      107.68257     -752.092        284.45095      329.43495      1920.3708      0.9969611
   1616000  -643.73694      106.24747     -749.98441      280.66003      1452.2705      1920.3708      0.9969611
   1617000  -654.18761      110.05036     -764.23797      290.70562     -2833.5427      1920.3708      0.9969611
   1618000  -603.13157      133.42866     -736.56023      352.46103      2945.932       1920.3708      0.9969611
   1619000  -648.52698      116.4177      -764.94468      307.5254      -53.152915      1920.3708      0.9969611
   1620000  -644.18023      108.29436     -752.47459      286.06704      1379.9679      1920.3708      0.9969611
   1621000  -644.00414      113.99129     -757.99543      301.11586      2391.731       1920.3708      0.9969611
   1622000  -636.97136      120.88044     -757.8518       319.31404      599.7513       1920.3708      0.9969611
   1623000  -664.99557      119.50376     -784.49933      315.67744      2772.7227      1920.3708      0.9969611
   1624000  -684.38108      87.030885     -771.41196      229.8981      -3175.836       1920.3708      0.9969611
   1625000  -666.59133      117.99722     -784.58855      311.6978       705.76769      1920.3708      0.9969611
   1626000  -677.8986       117.48826     -795.38686      310.35335     -1798.1912      1920.3708      0.9969611
   1627000  -663.63767      97.511527     -761.14919      257.58344      1038.8252      1920.3708      0.9969611
   1628000  -622.93233      119.50477     -742.4371       315.68012     -591.10443      1920.3708      0.9969611
   1629000  -650.51226      111.7344      -762.24667      295.15414      1549.4443      1920.3708      0.9969611
   1630000  -643.74926      98.851653     -742.60091      261.12347      1367.5566      1920.3708      0.9969611
   1631000  -641.03946      111.79438     -752.83385      295.31259     -810.34159      1920.3708      0.9969611
   1632000  -684.38953      98.482072     -782.87161      260.1472      -3140.1872      1920.3708      0.9969611
   1633000  -653.29878      117.56191     -770.86069      310.5479       1242.9231      1920.3708      0.9969611
   1634000  -663.44663      110.74766     -774.19429      292.54759     -852.06085      1920.3708      0.9969611
   1635000  -656.71192      104.78411     -761.49602      276.79446     -470.65922      1920.3708      0.9969611
   1636000  -666.56855      108.44584     -775.01439      286.46719     -1290.4536      1920.3708      0.9969611
   1637000  -653.40993      111.59129     -765.00122      294.77612      420.65727      1920.3708      0.9969611
   1638000  -642.34603      120.17202     -762.51805      317.4427      -2250.2813      1920.3708      0.9969611
   1639000  -647.92583      115.34319     -763.26902      304.687       -664.88142      1920.3708      0.9969611
   1640000  -669.29678      100.70223     -769.99901      266.01191      1597.7369      1920.3708      0.9969611
   1641000  -645.3582       112.33424     -757.69244      296.73865     -2266.4105      1920.3708      0.9969611
   1642000  -632.06184      116.80645     -748.86829      308.55231      2507.0736      1920.3708      0.9969611
   1643000  -635.72256      119.20459     -754.92715      314.88716      651.53743      1920.3708      0.9969611
   1644000  -667.38435      110.68801     -778.07236      292.39002     -1524.5764      1920.3708      0.9969611
   1645000  -645.31598      114.0294      -759.34538      301.21654     -939.9005       1920.3708      0.9969611
   1646000  -664.01462      109.85429     -773.86892      290.18771     -740.67968      1920.3708      0.9969611
   1647000  -698.3266       103.66502     -801.99161      273.8383      -290.21479      1920.3708      0.9969611
   1648000  -656.36294      116.4691      -772.83204      307.66118      9.5699348      1920.3708      0.9969611
   1649000  -655.37172      114.1966      -769.56831      301.65821      1004.3906      1920.3708      0.9969611
   1650000  -637.3002       120.46806     -757.76826      318.22471      594.90624      1920.3708      0.9969611
   1651000  -669.55472      104.71233     -774.26705      276.60485     -1461.5264      1920.3708      0.9969611
   1652000  -642.13865      112.62075     -754.7594       297.49549      368.9173       1920.3708      0.9969611
   1653000  -665.24423      102.18533     -767.42956      269.92961     -952.19623      1920.3708      0.9969611
   1654000  -638.62052      115.24646     -753.86698      304.43149     -1175.9422      1920.3708      0.9969611
   1655000  -657.46512      118.45507     -775.92018      312.90724     -3284.9094      1920.3708      0.9969611
   1656000  -669.54059      107.03709     -776.57768      282.74586      852.06759      1920.3708      0.9969611
   1657000  -640.02973      111.82841     -751.85814      295.40247     -3127.8856      1920.3708      0.9969611
   1658000  -668.64706      121.28108     -789.92814      320.37235      269.48001      1920.3708      0.9969611
   1659000  -656.33101      125.67709     -782.0081       331.98471     -380.06981      1920.3708      0.9969611
   1660000  -667.80236      106.26433     -774.06669      280.70457     -1648.219       1920.3708      0.9969611
   1661000  -647.97041      111.11488     -759.08529      293.51763     -324.98107      1920.3708      0.9969611
   1662000  -691.08997      100.46255     -791.55252      265.37878     -2293.0156      1920.3708      0.9969611
   1663000  -646.67278      121.17706     -767.84984      320.09757      2666.9252      1920.3708      0.9969611
   1664000  -670.67263      95.607636     -766.28027      252.55418     -2498.8987      1920.3708      0.9969611
   1665000  -666.27709      119.64162     -785.9187       316.0416      -505.51689      1920.3708      0.9969611
   1666000  -635.6705       114.60933     -750.27983      302.74847      1412.8859      1920.3708      0.9969611
   1667000  -663.63124      108.09251     -771.72376      285.53385     -750.16465      1920.3708      0.9969611
   1668000  -647.59665      117.22279     -764.81943      309.65209     -552.39082      1920.3708      0.9969611
   1669000  -669.26076      105.53096     -774.79172      278.76732      919.38574      1920.3708      0.9969611
   1670000  -641.08746      111.23293     -752.32039      293.82948     -975.25518      1920.3708      0.9969611
   1671000  -652.85957      105.05733     -757.9169       277.5162       2322.4796      1920.3708      0.9969611
   1672000  -655.49158      102.79997     -758.29155      271.55323     -1798.0623      1920.3708      0.9969611
   1673000  -641.43461      119.6674      -761.10202      316.10972     -980.33255      1920.3708      0.9969611
   1674000  -663.04736      114.79544     -777.8428       303.24009     -2739.5701      1920.3708      0.9969611
   1675000  -665.14018      105.61577     -770.75595      278.99135     -925.02071      1920.3708      0.9969611
   1676000  -658.71317      101.52047     -760.23364      268.17333     -1151.5452      1920.3708      0.9969611
   1677000  -666.27795      118.92598     -785.20392      314.15118     -1069.3942      1920.3708      0.9969611
   1678000  -645.5121       105.00885     -750.52095      277.38813     -513.51686      1920.3708      0.9969611
   1679000  -641.04363      115.35098     -756.39461      304.70758     -1085.7429      1920.3708      0.9969611
   1680000  -647.09685      107.37915     -754.476        283.64944     -2048.4941      1920.3708      0.9969611
   1681000  -654.77372      112.80348     -767.5772       297.97819      1493.4692      1920.3708      0.9969611
   1682000  -662.01534      107.53841     -769.55375      284.07014     -3101.1131      1920.3708      0.9969611
   1683000  -652.47386      109.79825     -762.27211      290.03966     -705.57861      1920.3708      0.9969611
   1684000  -651.85145      102.6565      -754.50795      271.17424     -2035.7626      1920.3708      0.9969611
   1685000  -647.71576      120.57402     -768.28978      318.5046      -2616.359       1920.3708      0.9969611
   1686000  -647.87835      112.43514     -760.31349      297.00519      535.19565      1920.3708      0.9969611
   1687000  -644.11204      116.86358     -760.97562      308.70322     -685.09402      1920.3708      0.9969611
   1688000  -627.74833      118.92333     -746.67165      314.14419      691.0448       1920.3708      0.9969611
   1689000  -666.93269      117.03048     -783.96317      309.1441       203.54072      1920.3708      0.9969611
   1690000  -667.10811      107.88838     -774.99649      284.99462     -2054.5599      1920.3708      0.9969611
   1691000  -668.84916      102.03179     -770.88095      269.52403     -585.6472       1920.3708      0.9969611
   1692000  -665.27803      117.35486     -782.63288      310.00096      162.89175      1920.3708      0.9969611
   1693000  -683.2254       99.977605     -783.203        264.09775      492.07076      1920.3708      0.9969611
   1694000  -654.2143       125.09484     -779.30914      330.44666     -1645.3239      1920.3708      0.9969611
   1695000  -678.15281      114.91313     -793.06594      303.55097      1520.5137      1920.3708      0.9969611
   1696000  -663.30403      114.83649     -778.14052      303.34853     -826.53018      1920.3708      0.9969611
   1697000  -681.16492      104.68532     -785.85024      276.5335      -2125.8994      1920.3708      0.9969611
   1698000  -638.4949       128.89784     -767.39275      340.49257     -1475.089       1920.3708      0.9969611
   1699000  -662.55748      113.91353     -776.47101      300.91046      3422.3112      1920.3708      0.9969611
   1700000  -625.27661      113.15812     -738.43473      298.91498      926.04354      1920.3708      0.9969611
   1701000  -674.71852      101.2314      -775.94992      267.40973      2059.0159      1920.3708      0.9969611
   1702000  -671.7498       100.10821     -771.85802      264.44276      806.27091      1920.3708      0.9969611
   1703000  -648.09954      112.38983     -760.48937      296.8855      -2810.2784      1920.3708      0.9969611
   1704000  -661.49192      108.97168     -770.46359      287.85621      430.86915      1920.3708      0.9969611
   1705000  -649.23434      106.89991     -756.13425      282.38351     -1765.5784      1920.3708      0.9969611
   1706000  -637.7578       117.54226     -755.30007      310.49601      463.70771      1920.3708      0.9969611
   1707000  -665.91933      107.26146     -773.18079      283.33856      437.38851      1920.3708      0.9969611
   1708000  -630.8989       116.99079     -747.88969      309.03925      578.23257      1920.3708      0.9969611
   1709000  -651.26366      120.46041     -771.72407      318.2045      -1378.3261      1920.3708      0.9969611
   1710000  -678.00779      108.07009     -786.07788      285.47461     -813.17217      1920.3708      0.9969611
   1711000  -657.96376      103.68374     -761.6475       273.88777     -1842.5044      1920.3708      0.9969611
   1712000  -682.45891      105.79549     -788.2544       279.4661      -854.33359      1920.3708      0.9969611
   1713000  -622.00504      132.24605     -754.25109      349.33708     -694.02002      1920.3708      0.9969611
   1714000  -650.90776      112.17051     -763.07827      296.30616     -126.2794       1920.3708      0.9969611
   1715000  -638.76376      116.87072     -755.63448      308.72208     -2452.015       1920.3708      0.9969611
   1716000  -640.76164      116.35094     -757.11257      307.34904      2123.359       1920.3708      0.9969611
   1717000  -631.80192      114.39074     -746.19265      302.17104     -1266.2815      1920.3708      0.9969611
   1718000  -644.48694      103.95101     -748.43795      274.59378     -1832.7726      1920.3708      0.9969611
   1719000  -651.55694      117.27282     -768.82976      309.78425     -1467.1867      1920.3708      0.9969611
   1720000  -661.6772       111.84619     -773.52339      295.44943     -632.44986      1920.3708      0.9969611
   1721000  -637.11144      112.16091     -749.27235      296.28078     -1548.917       1920.3708      0.9969611
   1722000  -653.25141      116.56108     -769.81249      307.90415      1496.7637      1920.3708      0.9969611
   1723000  -671.26873      114.9869      -786.25564      303.74584     -699.86274      1920.3708      0.9969611
   1724000  -646.67914      114.80695     -761.48609      303.27049     -1689.5184      1920.3708      0.9969611
   1725000  -657.37974      125.60847     -782.98821      331.80346      1461.9259      1920.3708      0.9969611
   1726000  -680.3046       108.19351     -788.49811      285.80063     -2257.6968      1920.3708      0.9969611
   1727000  -648.82652      117.13241     -765.95893      309.41336     -2258.6123      1920.3708      0.9969611
   1728000  -633.87799      137.75821     -771.63621      363.89785      1102.7494      1920.3708      0.9969611
   1729000  -651.89663      116.41008     -768.30671      307.50527      1990.2839      1920.3708      0.9969611
   1730000  -675.56941      105.39016     -780.95957      278.39538      2587.0821      1920.3708      0.9969611
   1731000  -643.51321      114.36873     -757.88194      302.1129      -1244.8137      1920.3708      0.9969611
   1732000  -645.6415       112.09228     -757.73377      296.09949     -2795.7616      1920.3708      0.9969611
   1733000  -655.78965      121.0102      -776.79985      319.65681     -780.91256      1920.3708      0.9969611
   1734000  -670.90436      110.86394     -781.76831      292.85477     -832.13034      1920.3708      0.9969611
   1735000  -644.61576      125.0264      -769.64216      330.26587      1346.8446      1920.3708      0.9969611
   1736000  -637.76169      108.44289     -746.20457      286.45938     -1284.5093      1920.3708      0.9969611
   1737000  -672.14379      99.718009     -771.8618       263.41201     -867.76732      1920.3708      0.9969611
   1738000  -661.58188      116.32086     -777.90274      307.2696      -575.95907      1920.3708      0.9969611
   1739000  -656.79556      122.81734     -779.6129       324.43049     -390.54286      1920.3708      0.9969611
   1740000  -671.52413      120.76498     -792.28911      319.00905      1776.1858      1920.3708      0.9969611
   1741000  -660.57457      111.53969     -772.11426      294.63979     -675.44687      1920.3708      0.9969611
   1742000  -679.91005      98.238507     -778.14856      259.5038      -1927.0909      1920.3708      0.9969611
   1743000  -639.0529       127.71382     -766.76672      337.36489     -1134.4309      1920.3708      0.9969611
   1744000  -646.97449      110.99666     -757.97115      293.20536      122.37315      1920.3708      0.9969611
   1745000  -654.9183       112.75695     -767.67525      297.85528     -561.73879      1920.3708      0.9969611
   1746000  -609.6314       125.04358     -734.67497      330.31125      1950.4146      1920.3708      0.9969611
   1747000  -646.34847      113.59283     -759.9413       300.06331      2402.5784      1920.3708      0.9969611
   1748000  -650.87415      106.20799     -757.08215      280.55576     -985.65043      1920.3708      0.9969611
   1749000  -679.86789      100.36096     -780.22886      265.11042     -1516.402       1920.3708      0.9969611
   1750000  -660.40463      111.20339     -771.60802      293.75144     -54.556761      1920.3708      0.9969611
   1751000  -638.06946      119.3541      -757.42356      315.2821      -68.022017      1920.3708      0.9969611
   1752000  -632.84959      130.71663     -763.56622      345.29701      344.23907      1920.3708      0.9969611
   1753000  -665.5993       99.124313     -764.72361      261.84372      305.25602      1920.3708      0.9969611
   1754000  -650.53597      111.87195     -762.40792      295.51748     -1091.793       1920.3708      0.9969611
   1755000  -667.2243       117.50799     -784.73229      310.40548     -1018.7351      1920.3708      0.9969611
   1756000  -663.33771      112.53768     -775.87538      297.27605     -471.44398      1920.3708      0.9969611
   1757000  -650.92639      120.61952     -771.54591      318.62481      936.73801      1920.3708      0.9969611
   1758000  -668.51488      120.15067     -788.66555      317.3863      -1437.7336      1920.3708      0.9969611
   1759000  -653.78199      120.81853     -774.60052      319.15049      712.92118      1920.3708      0.9969611
   1760000  -650.85292      112.24382     -763.09674      296.49981      1096.5534      1920.3708      0.9969611
   1761000  -664.51246      113.41687     -777.92933      299.59851     -2330.997       1920.3708      0.9969611
   1762000  -642.15119      119.97765     -762.12884      316.92924      896.75433      1920.3708      0.9969611
   1763000  -679.32082      106.36002     -785.68084      280.95735     -898.70624      1920.3708      0.9969611
   1764000  -647.98665      112.96194     -760.94859      298.39677      2556.8821      1920.3708      0.9969611
   1765000  -679.83554      108.27754     -788.11308      286.0226      -5131.5444      1920.3708      0.9969611
   1766000  -626.42529      133.84587     -760.27116      353.56311     -102.93699      1920.3708      0.9969611
   1767000  -626.6061       129.98622     -756.59233      343.36759     -1612.6015      1920.3708      0.9969611
   1768000  -628.98619      106.96301     -735.9492       282.55018     -2363.6929      1920.3708      0.9969611
   1769000  -621.13886      125.16186     -746.30072      330.62371      2132.8504      1920.3708      0.9969611
   1770000  -669.20785      106.64041     -775.84826      281.69801      492.97136      1920.3708      0.9969611
   1771000  -653.03112      115.86618     -768.8973       306.06851     -104.19434      1920.3708      0.9969611
   1772000  -650.59106      106.82452     -757.41558      282.18434     -1291.8219      1920.3708      0.9969611
   1773000  -653.81596      114.12403     -767.93998      301.4665      -4345.8541      1920.3708      0.9969611
   1774000  -640.17059      110.07938     -750.24997      290.7823      -1197.6902      1920.3708      0.9969611
   1775000  -649.11502      113.64515     -762.76016      300.20151     -1581.4495      1920.3708      0.9969611
   1776000  -635.47417      117.58145     -753.05562      310.59953      128.23773      1920.3708      0.9969611
   1777000  -645.15865      114.70945     -759.86809      303.01293     -670.56181      1920.3708      0.9969611
   1778000  -663.7158       102.20938     -765.92518      269.99314      78.033647      1920.3708      0.9969611
   1779000  -647.08315      103.45778     -750.54092      273.29087     -289.2636       1920.3708      0.9969611
   1780000  -662.37151      109.48003     -771.85154      289.19906      1838.5973      1920.3708      0.9969611
   1781000  -627.31363      126.84623     -754.15986      335.07309     -1485.4579      1920.3708      0.9969611
   1782000  -668.08539      119.29919     -787.38458      315.13705      801.05357      1920.3708      0.9969611
   1783000  -667.28193      117.52147     -784.8034       310.44107     -499.28642      1920.3708      0.9969611
   1784000  -662.10555      107.72047     -769.82602      284.55106      1809.2087      1920.3708      0.9969611
   1785000  -648.45297      122.5709      -771.02386      323.77949     -328.14557      1920.3708      0.9969611
   1786000  -649.82361      104.05385     -753.87746      274.86544     -910.99766      1920.3708      0.9969611
   1787000  -649.53277      115.25604     -764.78881      304.45678     -2235.4123      1920.3708      0.9969611
   1788000  -642.34679      126.14572     -768.49251      333.22263      448.1379       1920.3708      0.9969611
   1789000  -634.51278      112.48382     -746.9966       297.13378      1723.9157      1920.3708      0.9969611
   1790000  -651.15342      106.71266     -757.86608      281.88885     -2529.3553      1920.3708      0.9969611
   1791000  -656.49453      107.97314     -764.46767      285.21851      979.72212      1920.3708      0.9969611
   1792000  -669.15065      112.47976     -781.63041      297.12306     -843.75966      1920.3708      0.9969611
   1793000  -691.7783       109.25354     -801.03185      288.60078     -2135.6646      1920.3708      0.9969611
   1794000  -664.72151      108.53084     -773.25235      286.69171      804.44341      1920.3708      0.9969611
   1795000  -664.67212      115.50864     -780.18077      305.12406      3745.1965      1920.3708      0.9969611
   1796000  -669.34899      116.33262     -785.68161      307.30065     -474.11701      1920.3708      0.9969611
   1797000  -676.3851       106.60893     -782.99403      281.61486      1294.8613      1920.3708      0.9969611
   1798000  -661.45759      116.16428     -777.62187      306.85596      4216.4815      1920.3708      0.9969611
   1799000  -656.61078      112.92626     -769.53704      298.30252     -231.88028      1920.3708      0.9969611
   1800000  -656.38765      109.40167     -765.78933      288.99208      270.79016      1920.3708      0.9969611
   1801000  -677.63255      100.88936     -778.52191      266.50621      176.30532      1920.3708      0.9969611
   1802000  -644.18344      103.43204     -747.61547      273.22287     -2141.6521      1920.3708      0.9969611
   1803000  -651.46951      107.17395     -758.64345      283.10739      2734.4937      1920.3708      0.9969611
   1804000  -654.81104      113.62293     -768.43397      300.14281     -869.78145      1920.3708      0.9969611
   1805000  -655.11036      116.17357     -771.28393      306.88051      47.499698      1920.3708      0.9969611
   1806000  -646.68923      109.73576     -756.42499      289.87458     -1431.1421      1920.3708      0.9969611
   1807000  -682.02569      111.47967     -793.50536      294.48126     -1249.0989      1920.3708      0.9969611
   1808000  -662.77995      108.51238     -771.29233      286.64294     -703.77579      1920.3708      0.9969611
   1809000  -656.17789      114.02165     -770.19953      301.19606      2226.7372      1920.3708      0.9969611
   1810000  -661.6322       115.96431     -777.59651      306.32774      471.2033       1920.3708      0.9969611
   1811000  -660.2194       105.57409     -765.79349      278.88124     -928.68382      1920.3708      0.9969611
   1812000  -638.73903      111.84784     -750.58687      295.4538       1162.1029      1920.3708      0.9969611
   1813000  -655.18328      96.295046     -751.47833      254.37002     -429.45176      1920.3708      0.9969611
   1814000  -676.15047      105.13379     -781.28426      277.71817     -1119.3371      1920.3708      0.9969611
   1815000  -642.27631      111.89568     -754.17199      295.58018     -1876.7471      1920.3708      0.9969611
   1816000  -645.46185      105.23629     -750.69815      277.98894      599.98121      1920.3708      0.9969611
   1817000  -662.87654      111.49388     -774.37042      294.51879     -3105.3345      1920.3708      0.9969611
   1818000  -640.82756      119.44607     -760.27363      315.52505     -194.44762      1920.3708      0.9969611
   1819000  -642.72374      118.21244     -760.93619      312.26634      3228.6655      1920.3708      0.9969611
   1820000  -620.33216      128.1549      -748.48706      338.53003      179.90653      1920.3708      0.9969611
   1821000  -623.84746      130.25882     -754.10628      344.08767     -3136.51        1920.3708      0.9969611
   1822000  -672.62641      104.90556     -777.53197      277.1153       2098.453       1920.3708      0.9969611
   1823000  -650.31343      111.87061     -762.18404      295.51395     -816.7253       1920.3708      0.9969611
   1824000  -645.78496      112.9746      -758.75956      298.43021     -1398.0373      1920.3708      0.9969611
   1825000  -664.44267      106.96662     -771.40929      282.55973     -78.787878      1920.3708      0.9969611
   1826000  -665.08987      111.4667      -776.55657      294.447       -156.81842      1920.3708      0.9969611
   1827000  -666.60029      106.22456     -772.82485      280.59951     -3454.383       1920.3708      0.9969611
   1828000  -631.84625      128.48695     -760.3332       339.40715     -1536.9111      1920.3708      0.9969611
   1829000  -638.50693      110.84756     -749.35448      292.81148     -162.80374      1920.3708      0.9969611
   1830000  -653.74296      127.68365     -781.42661      337.28518     -2151.323       1920.3708      0.9969611
   1831000  -631.52708      131.6003      -763.12738      347.6313      -1061.1589      1920.3708      0.9969611
   1832000  -645.33603      122.19296     -767.52899      322.78114      730.18502      1920.3708      0.9969611
   1833000  -685.94941      103.98208     -789.9315       274.67586      1436.6643      1920.3708      0.9969611
   1834000  -652.80588      103.0344      -755.84028      272.17249      24.585516      1920.3708      0.9969611
   1835000  -645.1499       107.97661     -753.12651      285.22768     -473.60503      1920.3708      0.9969611
   1836000  -628.02553      112.65548     -740.68102      297.58724     -2641.2161      1920.3708      0.9969611
   1837000  -651.81823      113.14156     -764.95979      298.87125     -1512.1208      1920.3708      0.9969611
   1838000  -653.54404      114.8409      -768.38495      303.36018      269.60733      1920.3708      0.9969611
   1839000  -662.64148      115.63225     -778.27374      305.45059     -1462.7276      1920.3708      0.9969611
   1840000  -649.30862      102.60458     -751.9132       271.0371      -893.45663      1920.3708      0.9969611
   1841000  -638.72493      121.47159     -760.19652      320.8756      -1451.0084      1920.3708      0.9969611
   1842000  -657.03464      113.13602     -770.17066      298.85661      1621.9725      1920.3708      0.9969611
   1843000  -645.99116      124.32272     -770.31387      328.40705      2414.6805      1920.3708      0.9969611
   1844000  -660.96207      122.94267     -783.90475      324.76157      2065.3027      1920.3708      0.9969611
   1845000  -667.45778      112.42487     -779.88265      296.97806     -775.98364      1920.3708      0.9969611
   1846000  -642.21667      127.04021     -769.25688      335.5855      -1198.9552      1920.3708      0.9969611
   1847000  -660.99847      111.03085     -772.02932      293.29567     -1313.9882      1920.3708      0.9969611
   1848000  -659.44111      115.07331     -774.51442      303.97409     -866.70618      1920.3708      0.9969611
   1849000  -630.14357      107.41475     -737.55832      283.74349     -2021.6522      1920.3708      0.9969611
   1850000  -647.32541      120.84045     -768.16586      319.20841      219.66085      1920.3708      0.9969611
   1851000  -653.09369      115.21761     -768.3113       304.35528      248.91541      1920.3708      0.9969611
   1852000  -652.08034      104.54698     -756.62731      276.16807     -2948.1286      1920.3708      0.9969611
   1853000  -656.73933      109.7019      -766.44122      289.78514     -41.551733      1920.3708      0.9969611
   1854000  -667.60317      106.77606     -774.37923      282.05634     -453.30008      1920.3708      0.9969611
   1855000  -655.05088      112.77991     -767.83079      297.91592     -208.81974      1920.3708      0.9969611
   1856000  -688.73806      107.69331     -796.43136      284.47931      1335.3932      1920.3708      0.9969611
   1857000  -672.46515      109.35957     -781.82472      288.88086     -61.299542      1920.3708      0.9969611
   1858000  -676.98819      112.7431      -789.73129      297.81869     -1697.5328      1920.3708      0.9969611
   1859000  -671.89245      116.5837      -788.47615      307.96391      4192.8963      1920.3708      0.9969611
   1860000  -692.72869      104.205       -796.93369      275.2647      -1639.3767      1920.3708      0.9969611
   1861000  -659.95582      109.87548     -769.8313       290.24367     -1106.0484      1920.3708      0.9969611
   1862000  -634.85604      124.625       -759.48104      329.20554      3012.0047      1920.3708      0.9969611
   1863000  -633.48958      129.4016      -762.89118      341.82327      287.88725      1920.3708      0.9969611
   1864000  -654.22114      98.693024     -752.91416      260.70444      628.96043      1920.3708      0.9969611
   1865000  -654.625        119.11859     -773.7436       314.66        -1009.3772      1920.3708      0.9969611
   1866000  -656.16152      103.79264     -759.95416      274.17543      1117.1201      1920.3708      0.9969611
   1867000  -664.31793      112.27529     -776.59322      296.58294      1740.1919      1920.3708      0.9969611
   1868000  -676.3362       110.63619     -786.97239      292.25314     -1163.9159      1920.3708      0.9969611
   1869000  -663.1176       108.8851      -772.0027       287.62751     -150.88378      1920.3708      0.9969611
   1870000  -677.07352      114.28368     -791.3572       301.88824     -564.24073      1920.3708      0.9969611
   1871000  -660.75166      112.01176     -772.76342      295.88681     -828.04784      1920.3708      0.9969611
   1872000  -673.86035      117.97535     -791.8357       311.64005      899.43711      1920.3708      0.9969611
   1873000  -657.15306      110.25578     -767.40884      291.24827     -389.75662      1920.3708      0.9969611
   1874000  -670.57002      114.03405     -784.60407      301.22881     -3790.8066      1920.3708      0.9969611
   1875000  -656.7319       113.30795     -770.03985      299.31078     -967.47267      1920.3708      0.9969611
   1876000  -668.18184      110.86502     -779.04686      292.85761      324.10166      1920.3708      0.9969611
   1877000  -652.62557      108.78458     -761.41015      287.36199     -2013.4362      1920.3708      0.9969611
   1878000  -664.66285      112.22783     -776.89068      296.45757     -753.31852      1920.3708      0.9969611
   1879000  -654.38523      107.44965     -761.83488      283.83568      791.62721      1920.3708      0.9969611
   1880000  -637.67588      125.56936     -763.24524      331.70013      1481.689       1920.3708      0.9969611
   1881000  -644.99705      117.60397     -762.60103      310.65902     -1452.89        1920.3708      0.9969611
   1882000  -654.31848      99.118326     -753.43681      261.82791     -1126.1052      1920.3708      0.9969611
   1883000  -652.90061      109.41566     -762.31627      289.02904      703.11427      1920.3708      0.9969611
   1884000  -661.46067      107.22044     -768.68111      283.2302       16.834253      1920.3708      0.9969611
   1885000  -682.05197      114.09976     -796.15173      301.40239     -1149.3553      1920.3708      0.9969611
   1886000  -667.23136      104.9202      -772.15156      277.15395      2697.5255      1920.3708      0.9969611
   1887000  -664.73879      105.27435     -770.01315      278.08948      753.98306      1920.3708      0.9969611
   1888000  -661.23693      117.70141     -778.93834      310.9164       977.42916      1920.3708      0.9969611
   1889000  -688.63303      99.041619     -787.67465      261.62528     -694.04669      1920.3708      0.9969611
   1890000  -647.6916       120.57588     -768.26748      318.50951     -2267.9671      1920.3708      0.9969611
   1891000  -652.55961      116.97896     -769.53857      309.00801     -913.91179      1920.3708      0.9969611
   1892000  -627.89268      119.29562     -747.1883       315.12762     -1438.3442      1920.3708      0.9969611
   1893000  -626.911        113.71871     -740.62971      300.39584     -1654.2284      1920.3708      0.9969611
   1894000  -628.49477      115.90636     -744.40113      306.17467      647.01718      1920.3708      0.9969611
   1895000  -650.05505      117.1552      -767.21025      309.47357     -1636.3023      1920.3708      0.9969611
   1896000  -641.42902      114.5758      -756.00482      302.6599      -63.242379      1920.3708      0.9969611
   1897000  -661.83532      112.9678      -774.80313      298.41226     -1498.3153      1920.3708      0.9969611
   1898000  -634.8431       112.70745     -747.55056      297.72453     -2338.7244      1920.3708      0.9969611
   1899000  -644.11309      108.79378     -752.90687      287.38628     -2709.2553      1920.3708      0.9969611
   1900000  -657.08699      108.97453     -766.06152      287.86376     -1883.1537      1920.3708      0.9969611
   1901000  -649.91783      116.37447     -766.2923       307.41122     -1588.6766      1920.3708      0.9969611
   1902000  -659.50762      110.53331     -770.04093      291.98138     -851.66704      1920.3708      0.9969611
   1903000  -654.37178      105.87904     -760.25083      279.68681      280.66836      1920.3708      0.9969611
   1904000  -657.96588      103.00684     -760.97272      272.09968     -512.91834      1920.3708      0.9969611
   1905000  -657.83031      119.88097     -777.71129      316.67387     -1297.1756      1920.3708      0.9969611
   1906000  -642.72651      111.16796     -753.89447      293.65785      790.73638      1920.3708      0.9969611
   1907000  -658.73721      105.94246     -764.67967      279.85434      523.70593      1920.3708      0.9969611
   1908000  -661.16037      110.01596     -771.17634      290.61477     -2192.5754      1920.3708      0.9969611
   1909000  -643.76322      108.94311     -752.70633      287.78077     -2540.5465      1920.3708      0.9969611
   1910000  -634.86392      117.0288      -751.89272      309.13966      279.00117      1920.3708      0.9969611
   1911000  -663.86372      112.46952     -776.33324      297.09601     -2352.9856      1920.3708      0.9969611
   1912000  -633.65975      103.81516     -737.47491      274.23492     -808.3669       1920.3708      0.9969611
   1913000  -647.28227      117.52606     -764.80833      310.45322     -2737.7029      1920.3708      0.9969611
   1914000  -638.63432      116.4715      -755.10582      307.66752      1965.1329      1920.3708      0.9969611
   1915000  -657.80025      110.17433     -767.97457      291.0331      -1630.9903      1920.3708      0.9969611
   1916000  -674.50567      106.31769     -780.82336      280.84553     -2677.8354      1920.3708      0.9969611
   1917000  -659.61977      108.56085     -768.18062      286.77099      2708.2449      1920.3708      0.9969611
   1918000  -668.74181      114.95164     -783.69346      303.65271     -1415.0531      1920.3708      0.9969611
   1919000  -644.24563      115.0392      -759.28482      303.88398     -1636.4307      1920.3708      0.9969611
   1920000  -657.47309      97.812324     -755.28541      258.37801     -1020.4352      1920.3708      0.9969611
   1921000  -652.87048      109.18798     -762.05846      288.4276      -959.29674      1920.3708      0.9969611
   1922000  -641.61262      119.23266     -760.84528      314.96132      341.08815      1920.3708      0.9969611
   1923000  -664.80056      95.193773     -759.99434      251.46093     -902.83161      1920.3708      0.9969611
   1924000  -645.01302      110.78261     -755.79563      292.63992      145.68685      1920.3708      0.9969611
   1925000  -659.83989      121.24329     -781.08318      320.27253     -603.53814      1920.3708      0.9969611
   1926000  -674.31731      97.911186     -772.22849      258.63916      2914.9338      1920.3708      0.9969611
   1927000  -639.71702      120.87642     -760.59344      319.30342      1417.1716      1920.3708      0.9969611
   1928000  -657.6039       100.70595     -758.30985      266.02173     -1035.2066      1920.3708      0.9969611
   1929000  -653.79969      123.76287     -777.56256      326.92817      157.48962      1920.3708      0.9969611
   1930000  -627.41856      136.89946     -764.31802      361.62938      2989.2666      1920.3708      0.9969611
   1931000  -659.53048      112.89654     -772.42702      298.22401     -2187.3966      1920.3708      0.9969611
   1932000  -645.10907      109.25425     -754.36332      288.60266     -784.97966      1920.3708      0.9969611
   1933000  -666.84745      113.75062     -780.59807      300.48011      2131.1805      1920.3708      0.9969611
   1934000  -670.37051      106.38426     -776.75477      281.02137      454.90036      1920.3708      0.9969611
   1935000  -643.25277      110.75353     -754.00631      292.56311     -3000.5509      1920.3708      0.9969611
   1936000  -684.02033      108.80746     -792.82779      287.42243     -566.96628      1920.3708      0.9969611
   1937000  -657.9905       118.16624     -776.15674      312.14428     -2345.4566      1920.3708      0.9969611
   1938000  -660.57944      106.83825     -767.41769      282.22063     -881.24141      1920.3708      0.9969611
   1939000  -659.6827       124.26954     -783.95223      328.26657      1526.1975      1920.3708      0.9969611
   1940000  -646.08333      114.93348     -761.0168       303.60472      1479.2713      1920.3708      0.9969611
   1941000  -662.27471      120.98263     -783.25733      319.58397      17.08772       1920.3708      0.9969611
   1942000  -643.46088      137.08901     -780.54989      362.13009      28.152008      1920.3708      0.9969611
   1943000  -644.52849      109.01159     -753.54007      287.96165      2151.031       1920.3708      0.9969611
   1944000  -642.10695      124.91926     -767.02621      329.98285     -1449.9025      1920.3708      0.9969611
   1945000  -646.27356      113.20144     -759.475        299.02943     -2516.4787      1920.3708      0.9969611
   1946000  -646.09203      111.93054     -758.02257      295.67225     -509.09063      1920.3708      0.9969611
   1947000  -638.85159      119.76478     -758.61636      316.36694     -765.38641      1920.3708      0.9969611
   1948000  -679.28979      116.77344     -796.06323      308.46511      484.33818      1920.3708      0.9969611
   1949000  -649.10549      114.52276     -763.62825      302.51979     -1002.044       1920.3708      0.9969611
   1950000  -610.79017      116.95406     -727.74423      308.94222      418.40614      1920.3708      0.9969611
   1951000  -638.24566      127.95191     -766.19757      337.9938      -1388.6117      1920.3708      0.9969611
   1952000  -645.25624      118.90962     -764.16586      314.10799      571.14685      1920.3708      0.9969611
   1953000  -642.22351      114.73529     -756.9588       303.0812      -800.54421      1920.3708      0.9969611
   1954000  -664.20494      128.43752     -792.64246      339.27659      378.47157      1920.3708      0.9969611
   1955000  -663.02351      111.75342     -774.77693      295.20438     -1588.5406      1920.3708      0.9969611
   1956000  -642.62582      117.61134     -760.23716      310.67848     -940.75851      1920.3708      0.9969611
   1957000  -645.78493      112.56301     -758.34794      297.34297     -2937.4272      1920.3708      0.9969611
   1958000  -635.56965      118.81866     -754.38831      313.86769      2406.6074      1920.3708      0.9969611
   1959000  -658.32246      108.12364     -766.4461       285.61607     -1161.345       1920.3708      0.9969611
   1960000  -644.54724      105.96373     -750.51097      279.91053     -1832.7725      1920.3708      0.9969611
   1961000  -638.61189      111.46851     -750.0804       294.45177      1204.0927      1920.3708      0.9969611
   1962000  -623.30459      115.22274     -738.52733      304.36882     -1912.5292      1920.3708      0.9969611
   1963000  -672.07147      92.384039     -764.45551      244.03882     -1188.8516      1920.3708      0.9969611
   1964000  -641.95466      116.5051      -758.45977      307.75628     -659.8632       1920.3708      0.9969611
   1965000  -663.28198      121.72472     -785.0067       321.54426     -2023.8329      1920.3708      0.9969611
   1966000  -643.35617      110.38958     -753.74575      291.6017       811.12188      1920.3708      0.9969611
   1967000  -660.11246      114.18731     -774.29977      301.63368      19.806203      1920.3708      0.9969611
   1968000  -659.04868      104.44814     -763.49681      275.90698     -116.57994      1920.3708      0.9969611
   1969000  -641.18412      128.10635     -769.29047      338.40177      2711.7961      1920.3708      0.9969611
   1970000  -654.51603      110.86367     -765.3797       292.85405     -1300.4977      1920.3708      0.9969611
   1971000  -645.24237      112.69889     -757.94125      297.70189     -2479.5641      1920.3708      0.9969611
   1972000  -637.839        109.04921     -746.88821      288.06104     -1830.6708      1920.3708      0.9969611
   1973000  -632.80088      103.10958     -735.91046      272.37108      1170.2146      1920.3708      0.9969611
   1974000  -669.40191      104.18022     -773.58213      275.19924     -1318.7205      1920.3708      0.9969611
   1975000  -660.6961       118.5175      -779.2136       313.07217     -225.22706      1920.3708      0.9969611
   1976000  -661.30266      114.64166     -775.94432      302.83386      7.4670645      1920.3708      0.9969611
   1977000  -638.92251      119.38979     -758.3123       315.37639     -737.45565      1920.3708      0.9969611
   1978000  -634.09143      116.45852     -750.54995      307.63324     -1030.5408      1920.3708      0.9969611
   1979000  -663.50982      112.61769     -776.12751      297.48741     -2088.4704      1920.3708      0.9969611
   1980000  -654.45303      118.24444     -772.69747      312.35085     -2929.2573      1920.3708      0.9969611
   1981000  -671.42028      115.55552     -786.97579      305.24788     -1868.1394      1920.3708      0.9969611
   1982000  -633.4425       112.17404     -745.61654      296.31547      1361.7678      1920.3708      0.9969611
   1983000  -619.73111      126.3559      -746.08701      333.77784     -247.00717      1920.3708      0.9969611
   1984000  -646.15561      109.97521     -756.13082      290.50712     -1323.6312      1920.3708      0.9969611
   1985000  -661.18055      110.96614     -772.14669      293.12473      1321.9252      1920.3708      0.9969611
   1986000  -655.81257      109.36609     -765.17866      288.89808      1695.9185      1920.3708      0.9969611
   1987000  -667.00296      110.9975      -778.00046      293.20756      86.125533      1920.3708      0.9969611
   1988000  -644.21084      134.82469     -779.03552      356.14873      646.11148      1920.3708      0.9969611
   1989000  -627.88402      112.27265     -740.15667      296.57596     -526.05688      1920.3708      0.9969611
   1990000  -623.18732      111.33093     -734.51825      294.08834     -508.14627      1920.3708      0.9969611
   1991000  -641.92068      116.80749     -758.72818      308.55507     -857.11061      1920.3708      0.9969611
   1992000  -659.58275      113.19202     -772.77477      299.00455     -171.7211       1920.3708      0.9969611
   1993000  -650.56579      108.23623     -758.80202      285.91348     -2031.3883      1920.3708      0.9969611
   1994000  -650.58796      113.00386     -763.59182      298.50751     -817.88926      1920.3708      0.9969611
   1995000  -656.65041      120.044       -776.69442      317.10453      1823.6043      1920.3708      0.9969611
   1996000  -677.83378      105.11229     -782.94607      277.66138      729.26165      1920.3708      0.9969611
   1997000  -652.65985      119.49407     -772.15392      315.65184      1465.2724      1920.3708      0.9969611
   1998000  -663.61223      106.34209     -769.95431      280.90997      2977.7149      1920.3708      0.9969611
   1999000  -657.80508      122.18126     -779.98634      322.75024     -203.82674      1920.3708      0.9969611
   2000000  -679.35151      111.59078     -790.94229      294.77474     -695.6928       1920.3708      0.9969611
   2001000  -656.93421      117.67579     -774.60999      310.84872     -2774.0937      1920.3708      0.9969611
   2002000  -658.7949       109.04994     -767.84484      288.06296     -903.95031      1920.3708      0.9969611
   2003000  -612.17433      133.5354      -745.70973      352.743        2227.5823      1920.3708      0.9969611
   2004000  -657.58444      99.787522     -757.37196      263.59564     -4667.6423      1920.3708      0.9969611
   2005000  -638.31984      106.2448      -744.56464      280.65297      304.19825      1920.3708      0.9969611
   2006000  -633.96938      112.20784     -746.17722      296.40477     -609.35044      1920.3708      0.9969611
   2007000  -642.85718      110.91653     -753.77371      292.99368      363.48126      1920.3708      0.9969611
   2008000  -639.70623      118.72621     -758.43243      313.62348      662.21136      1920.3708      0.9969611
   2009000  -656.47924      109.47866     -765.9579       289.19543     -234.79178      1920.3708      0.9969611
   2010000  -665.55475      110.58513     -776.13988      292.11826     -910.60204      1920.3708      0.9969611
   2011000  -666.34335      113.56515     -779.90851      299.9902      -1878.4616      1920.3708      0.9969611
   2012000  -670.68149      104.61906     -775.30054      276.35847     -987.97736      1920.3708      0.9969611
   2013000  -647.58175      104.10012     -751.68187      274.98767     -2984.5167      1920.3708      0.9969611
   2014000  -649.05587      109.19763     -758.2535       288.45308     -3068.0591      1920.3708      0.9969611
   2015000  -660.73453      114.28002     -775.01454      301.87856     -1068.7314      1920.3708      0.9969611
   2016000  -648.60749      104.97459     -753.58208      277.29763     -1589.9849      1920.3708      0.9969611
   2017000  -660.77604      113.48672     -774.26276      299.78301      1986.7751      1920.3708      0.9969611
   2018000  -644.15636      112.89536     -757.05172      298.22089      1255.8133      1920.3708      0.9969611
   2019000  -656.9325       102.51136     -759.44386      270.79085     -599.85238      1920.3708      0.9969611
   2020000  -666.99741      110.02499     -777.02239      290.63861     -1606.5731      1920.3708      0.9969611
   2021000  -646.35721      118.02324     -764.38044      311.76653     -397.37443      1920.3708      0.9969611
   2022000  -680.58438      105.43615     -786.02053      278.51688     -2228.0059      1920.3708      0.9969611
   2023000  -613.77971      116.63081     -730.41052      308.08834     -189.44458      1920.3708      0.9969611
   2024000  -672.92597      110.92758     -783.85355      293.02287      852.72664      1920.3708      0.9969611
   2025000  -662.63699      98.928067     -761.56505      261.32533      491.55301      1920.3708      0.9969611
   2026000  -623.44941      125.53791     -748.98731      331.61706     -460.12076      1920.3708      0.9969611
   2027000  -663.64969      109.69808     -773.34777      289.77506      281.78269      1920.3708      0.9969611
   2028000  -650.19075      109.36205     -759.5528       288.88742     -1225.1149      1920.3708      0.9969611
   2029000  -644.52549      116.80889     -761.33438      308.55874     -2614.6015      1920.3708      0.9969611
   2030000  -650.7547       111.07812     -761.83281      293.42052     -3317.9403      1920.3708      0.9969611
   2031000  -656.99658      110.86681     -767.86338      292.86233     -750.43761      1920.3708      0.9969611
   2032000  -686.30856      112.8587      -799.16726      298.12406      1564.2545      1920.3708      0.9969611
   2033000  -663.53441      120.8461      -784.38051      319.22332      2659.9539      1920.3708      0.9969611
   2034000  -672.49987      109.12732     -781.62719      288.26735      890.78865      1920.3708      0.9969611
   2035000  -664.37628      113.80648     -778.18277      300.62769     -563.60549      1920.3708      0.9969611
   2036000  -647.29022      128.11926     -775.40948      338.43588     -1208.5146      1920.3708      0.9969611
   2037000  -673.37401      102.7948      -776.16881      271.53957      1138.9616      1920.3708      0.9969611
   2038000  -648.71546      116.01729     -764.73274      306.46768      719.4799       1920.3708      0.9969611
   2039000  -673.50427      108.77155     -782.27582      287.32756     -2655.2465      1920.3708      0.9969611
   2040000  -654.9958       111.7784      -766.7742       295.27037      430.48124      1920.3708      0.9969611
   2041000  -670.39182      101.40368     -771.7955       267.86482     -661.58299      1920.3708      0.9969611
   2042000  -657.00005      113.93969     -770.93974      300.97957      1670.1197      1920.3708      0.9969611
   2043000  -645.73308      120.61749     -766.35057      318.61944     -108.30145      1920.3708      0.9969611
   2044000  -662.86577      118.74406     -781.60983      313.67063      703.81267      1920.3708      0.9969611
   2045000  -672.85119      111.69014     -784.54134      295.03723     -2132.8065      1920.3708      0.9969611
   2046000  -656.69546      118.00162     -774.69708      311.70945     -341.2211       1920.3708      0.9969611
   2047000  -657.65192      105.98925     -763.64117      279.97793      1202.8675      1920.3708      0.9969611
   2048000  -700.06165      103.3207      -803.38236      272.92878     -1889.7104      1920.3708      0.9969611
   2049000  -660.47346      110.10769     -770.58115      290.85707      158.33743      1920.3708      0.9969611
   2050000  -655.90444      114.6379      -770.54233      302.82393     -1882.4079      1920.3708      0.9969611
   2051000  -645.5245       122.01453     -767.53903      322.30981      951.29605      1920.3708      0.9969611
   2052000  -673.69034      101.26075     -774.9511       267.48728     -1553.2381      1920.3708      0.9969611
   2053000  -655.72291      116.40339     -772.1263       307.4876      -82.210041      1920.3708      0.9969611
   2054000  -635.56597      115.566       -751.13198      305.27558     -540.87972      1920.3708      0.9969611
   2055000  -654.43081      110.27336     -764.70418      291.29471     -139.49172      1920.3708      0.9969611
   2056000  -680.1695       115.63548     -795.80498      305.45911     -1733.2397      1920.3708      0.9969611
   2057000  -665.58094      103.21187     -768.7928       272.64127      509.117        1920.3708      0.9969611
   2058000  -666.9072       111.73465     -778.64185      295.1548      -77.542036      1920.3708      0.9969611
   2059000  -647.06786      112.22702     -759.29488      296.45542      4527.0555      1920.3708      0.9969611
   2060000  -689.35084      109.61834     -798.96918      289.56442      1235.4379      1920.3708      0.9969611
   2061000  -649.30681      119.36051     -768.66732      315.29903     -168.30143      1920.3708      0.9969611
   2062000  -677.59105      112.28765     -789.8787       296.61559     -3289.484       1920.3708      0.9969611
   2063000  -651.04888      108.2192      -759.26808      285.8685      -1224.7272      1920.3708      0.9969611
   2064000  -644.94376      116.18737     -761.13112      306.91696      3479.6231      1920.3708      0.9969611
   2065000  -675.21477      111.08697     -786.30174      293.44392     -2314.3874      1920.3708      0.9969611
   2066000  -662.63574      113.94624     -776.58198      300.99686     -636.86609      1920.3708      0.9969611
   2067000  -650.66525      109.48636     -760.15161      289.2158      -55.164822      1920.3708      0.9969611
   2068000  -669.313        106.13161     -775.44461      280.35398      2526.0172      1920.3708      0.9969611
   2069000  -660.10132      109.1058      -769.20711      288.2105       2006.6172      1920.3708      0.9969611
   2070000  -666.04939      108.07402     -774.12341      285.485        204.01156      1920.3708      0.9969611
   2071000  -657.1359       103.3614      -760.4973       273.03627      51.565766      1920.3708      0.9969611
   2072000  -675.78964      103.46826     -779.2579       273.31855      607.35283      1920.3708      0.9969611
   2073000  -670.06026      111.16788     -781.22814      293.65765     -1892.9607      1920.3708      0.9969611
   2074000  -636.6388       114.91878     -751.55758      303.56589     -99.974134      1920.3708      0.9969611
   2075000  -636.26089      124.14543     -760.40633      327.93874      1262.4566      1920.3708      0.9969611
   2076000  -654.31872      106.02669     -760.34541      280.07682     -2670.3947      1920.3708      0.9969611
   2077000  -641.99001      122.43783     -764.42784      323.42798     -2234.8818      1920.3708      0.9969611
   2078000  -641.7625       120.94908     -762.71158      319.49536      3681.8521      1920.3708      0.9969611
   2079000  -669.10129      114.82899     -783.93028      303.32872     -359.54584      1920.3708      0.9969611
   2080000  -648.3303       124.75923     -773.08952      329.56012     -1539.4082      1920.3708      0.9969611
   2081000  -663.2439       113.50848     -776.75238      299.84049      2314.0014      1920.3708      0.9969611
   2082000  -656.76001      129.2009      -785.9609       341.2931      -1191.0196      1920.3708      0.9969611
   2083000  -640.88775      117.30759     -758.19534      309.8761       205.25134      1920.3708      0.9969611
   2084000  -662.8225       117.9111      -780.7336       311.47033      384.20211      1920.3708      0.9969611
   2085000  -690.5675       99.426453     -789.99395      262.64185     -1319.0435      1920.3708      0.9969611
   2086000  -654.19128      117.15537     -771.34664      309.474        569.46566      1920.3708      0.9969611
   2087000  -676.5587       120.35485     -796.91355      317.92565      3564.6661      1920.3708      0.9969611
   2088000  -663.40242      99.690259     -763.09268      263.33871      825.03345      1920.3708      0.9969611
   2089000  -649.79227      118.46415     -768.25642      312.93124      4031.7523      1920.3708      0.9969611
   2090000  -663.66866      109.35123     -773.01989      288.85884      1672.0944      1920.3708      0.9969611
   2091000  -612.21579      131.30918     -743.52497      346.86228     -2512.5296      1920.3708      0.9969611
   2092000  -646.74264      121.11373     -767.85637      319.93028      337.09268      1920.3708      0.9969611
   2093000  -633.81247      121.11287     -754.92535      319.92802     -1851.328       1920.3708      0.9969611
   2094000  -649.97311      116.12749     -766.10061      306.7588      -1351.1164      1920.3708      0.9969611
   2095000  -663.69495      110.21414     -773.90909      291.13826     -367.30453      1920.3708      0.9969611
   2096000  -659.80022      117.1047      -776.90492      309.34017      337.18166      1920.3708      0.9969611
   2097000  -686.25745      107.19219     -793.44965      283.15558     -866.03394      1920.3708      0.9969611
   2098000  -658.52142      118.73664     -777.25805      313.65103      2422.1272      1920.3708      0.9969611
   2099000  -624.2878       128.57982     -752.86762      339.65248     -325.87568      1920.3708      0.9969611
   2100000  -664.75271      104.10774     -768.86045      275.0078       934.71516      1920.3708      0.9969611
   2101000  -622.38077      117.31767     -739.69844      309.90272      325.51963      1920.3708      0.9969611
   2102000  -667.306        101.86992     -769.17592      269.09643      200.06655      1920.3708      0.9969611
   2103000  -663.61178      110.21523     -773.82701      291.14116      68.409612      1920.3708      0.9969611
   2104000  -654.63964      114.28127     -768.92092      301.88188     -490.97541      1920.3708      0.9969611
   2105000  -664.50349      106.29363     -770.79712      280.78197      1549.3929      1920.3708      0.9969611
   2106000  -669.50294      102.82859     -772.33153      271.62882      1024.5385      1920.3708      0.9969611
   2107000  -615.62005      133.67076     -749.29081      353.10056      96.401763      1920.3708      0.9969611
   2108000  -648.47398      113.9599      -762.43388      301.03295     -423.67833      1920.3708      0.9969611
   2109000  -642.98188      121.96952     -764.9514       322.19093      3607.3489      1920.3708      0.9969611
   2110000  -641.79803      117.92576     -759.72379      311.50904      2333.301       1920.3708      0.9969611
   2111000  -681.51682      101.02067     -782.53749      266.85309     -1417.2016      1920.3708      0.9969611
   2112000  -675.93471      117.29076     -793.22547      309.83164      298.53465      1920.3708      0.9969611
   2113000  -656.39762      123.84937     -780.24699      327.15666     -1502.4382      1920.3708      0.9969611
   2114000  -672.50577      109.78158     -782.28735      289.99563      315.71498      1920.3708      0.9969611
   2115000  -639.52646      131.8873      -771.41376      348.38943      51.945667      1920.3708      0.9969611
   2116000  -668.87315      105.45311     -774.32626      278.56169     -3348.8904      1920.3708      0.9969611
   2117000  -671.46909      114.76705     -786.23615      303.1651      -1298.9982      1920.3708      0.9969611
   2118000  -653.07329      117.90697     -770.98027      311.45942      654.44863      1920.3708      0.9969611
   2119000  -647.38079      117.5573      -764.93809      310.53573     -1152.0424      1920.3708      0.9969611
   2120000  -667.87922      113.56097     -781.44019      299.97915     -2665.2669      1920.3708      0.9969611
   2121000  -663.5397       109.25767     -772.79737      288.61169     -1450.2714      1920.3708      0.9969611
   2122000  -651.63508      107.90667     -759.54175      285.04293      1216.6418      1920.3708      0.9969611
   2123000  -632.38136      116.27567     -748.65703      307.15022     -1467.9399      1920.3708      0.9969611
   2124000  -640.45162      125.05404     -765.50565      330.33888     -1804.1428      1920.3708      0.9969611
   2125000  -652.19894      126.92532     -779.12426      335.28201      440.30391      1920.3708      0.9969611
   2126000  -672.41147      102.77657     -775.18804      271.49141      2128.137       1920.3708      0.9969611
   2127000  -659.00434      112.30607     -771.31041      296.66423      1003.4863      1920.3708      0.9969611
   2128000  -681.28335      110.48699     -791.77034      291.85901     -14.482538      1920.3708      0.9969611
   2129000  -618.10066      126.89641     -744.99707      335.20564     -1052.5418      1920.3708      0.9969611
   2130000  -636.78817      122.34185     -759.13003      323.17446     -1344.6572      1920.3708      0.9969611
   2131000  -680.20638      107.85851     -788.06489      284.9157      -1560.0213      1920.3708      0.9969611
   2132000  -654.32102      113.48896     -767.80998      299.78893     -1540.0295      1920.3708      0.9969611
   2133000  -661.67423      96.794377     -758.4686       255.68903     -1470.2658      1920.3708      0.9969611
   2134000  -658.36481      110.86893     -769.23374      292.86795      2723.1326      1920.3708      0.9969611
   2135000  -665.88262      106.02479     -771.9074       280.07181     -1011.5857      1920.3708      0.9969611
   2136000  -647.37961      110.52111     -757.90072      291.94915      3039.7671      1920.3708      0.9969611
   2137000  -656.68273      118.11014     -774.79287      311.99609      903.64911      1920.3708      0.9969611
   2138000  -643.04655      114.18725     -757.2338       301.63352     -2334.8448      1920.3708      0.9969611
   2139000  -642.87235      114.87892     -757.75127      303.46061      708.75549      1920.3708      0.9969611
   2140000  -666.09609      98.047734     -764.14382      258.99986     -1035.6063      1920.3708      0.9969611
   2141000  -646.2134       119.60084     -765.81424      315.93389      240.43947      1920.3708      0.9969611
   2142000  -654.99612      99.016083     -754.01221      261.55782     -809.83171      1920.3708      0.9969611
   2143000  -654.87729      116.9893      -771.86659      309.03533      471.70764      1920.3708      0.9969611
   2144000  -627.97901      132.91662     -760.89564      351.10844      1049.686       1920.3708      0.9969611
   2145000  -643.72706      112.76629     -756.49335      297.87996     -2818.7622      1920.3708      0.9969611
   2146000  -640.50453      105.38011     -745.88464      278.36885     -2601.6301      1920.3708      0.9969611
   2147000  -664.77155      109.21925     -773.9908       288.5102      -2093.573       1920.3708      0.9969611
   2148000  -662.65775      114.72965     -777.38741      303.06631      372.43595      1920.3708      0.9969611
   2149000  -678.59235      103.01254     -781.60489      272.11475      2040.7224      1920.3708      0.9969611
   2150000  -673.27016      106.8367      -780.10686      282.21654      970.62965      1920.3708      0.9969611
   2151000  -628.0584       112.43569     -740.49409      297.00665     -2142.1572      1920.3708      0.9969611
   2152000  -661.98448      100.19669     -762.18116      264.67648     -101.03173      1920.3708      0.9969611
   2153000  -664.76878      120.49033     -785.25912      318.28354      1820.4461      1920.3708      0.9969611
   2154000  -666.08868      101.68354     -767.77222      268.6041      -1439.7972      1920.3708      0.9969611
   2155000  -684.71853      106.22866     -790.94719      280.61035      2872.5198      1920.3708      0.9969611
   2156000  -676.89672      103.01177     -779.9085       272.11272      1431.9344      1920.3708      0.9969611
   2157000  -662.2544       113.73098     -775.98538      300.42824     -368.05597      1920.3708      0.9969611
   2158000  -647.89181      103.40371     -751.29552      273.14805     -2236.1056      1920.3708      0.9969611
   2159000  -634.24793      112.4028      -746.65073      296.91976     -3177.9842      1920.3708      0.9969611
   2160000  -676.36399      100.19017     -776.55416      264.65925      61.128972      1920.3708      0.9969611
   2161000  -656.50239      120.63195     -777.13434      318.65764      792.79934      1920.3708      0.9969611
   2162000  -639.86521      120.58603     -760.45124      318.53633      1916.2868      1920.3708      0.9969611
   2163000  -655.56113      111.95673     -767.51786      295.74145      248.64853      1920.3708      0.9969611
   2164000  -648.75669      127.45071     -776.2074       336.66986      783.10538      1920.3708      0.9969611
   2165000  -668.64497      112.88969     -781.53466      298.20592     -1789.4327      1920.3708      0.9969611
   2166000  -666.84461      104.50832     -771.35293      276.06595     -1927.9289      1920.3708      0.9969611
   2167000  -638.61985      121.72129     -760.34114      321.53519     -569.72093      1920.3708      0.9969611
   2168000  -624.95381      111.82519     -736.779        295.39397     -885.0934       1920.3708      0.9969611
   2169000  -669.05936      107.03531     -776.09467      282.74116     -1221.8528      1920.3708      0.9969611
   2170000  -641.4524       121.56011     -763.01251      321.10943      1404.482       1920.3708      0.9969611
   2171000  -636.4189       120.14587     -756.56477      317.37362     -1017.5229      1920.3708      0.9969611
   2172000  -662.37408      119.14829     -781.52237      314.73845     -901.87904      1920.3708      0.9969611
   2173000  -643.25521      112.05399     -755.30921      295.99837     -1025.8         1920.3708      0.9969611
   2174000  -629.04342      121.52709     -750.57051      321.02221     -129.32199      1920.3708      0.9969611
   2175000  -657.65847      109.18847     -766.84694      288.42889      765.08847      1920.3708      0.9969611
   2176000  -650.73852      135.10886     -785.84738      356.89938     -469.78775      1920.3708      0.9969611
   2177000  -655.6518       114.34254     -769.99433      302.04371     -2479.1016      1920.3708      0.9969611
   2178000  -653.29475      118.43018     -771.72493      312.84149     -733.97171      1920.3708      0.9969611
   2179000  -661.49657      106.10992     -767.60649      280.29669      349.20227      1920.3708      0.9969611
   2180000  -630.12198      120.01594     -750.13792      317.03039     -1361.5312      1920.3708      0.9969611
   2181000  -642.32973      118.18028     -760.51001      312.18137     -34.063218      1920.3708      0.9969611
   2182000  -663.66156      113.19715     -776.85871      299.0181      -2646.0261      1920.3708      0.9969611
   2183000  -657.71368      110.52966     -768.24334      291.97175     -895.15214      1920.3708      0.9969611
   2184000  -673.26004      105.13811     -778.39815      277.72958     -1763.9098      1920.3708      0.9969611
   2185000  -636.95279      129.71978     -766.67257      342.66376     -1155.4401      1920.3708      0.9969611
   2186000  -661.36693      112.59839     -773.96532      297.43642     -1571.3683      1920.3708      0.9969611
   2187000  -658.65728      113.13352     -771.7908       298.85001     -400.90091      1920.3708      0.9969611
   2188000  -633.41459      117.49942     -750.91401      310.38284     -126.44023      1920.3708      0.9969611
   2189000  -639.49965      121.30312     -760.80278      320.43058      350.30022      1920.3708      0.9969611
   2190000  -667.49636      111.42003     -778.91638      294.3237      -658.87557      1920.3708      0.9969611
   2191000  -690.27724      107.34122     -797.61846      283.54925     -2018.3824      1920.3708      0.9969611
   2192000  -668.7029       117.91891     -786.62181      311.49094     -1380.7371      1920.3708      0.9969611
   2193000  -664.66553      107.78067     -772.4462       284.71008      21.42249       1920.3708      0.9969611
   2194000  -621.85308      107.45492     -729.30801      283.84961      33.390005      1920.3708      0.9969611
   2195000  -653.21525      108.07361     -761.28886      285.4839       509.3114       1920.3708      0.9969611
   2196000  -643.31818      114.8676      -758.18579      303.43072      871.20209      1920.3708      0.9969611
   2197000  -631.20359      113.86982     -745.07341      300.79501     -4112.4714      1920.3708      0.9969611
   2198000  -665.20659      113.77595     -778.98254      300.54704      2880.6332      1920.3708      0.9969611
   2199000  -652.1614       117.94674     -770.10814      311.56447      1348.144       1920.3708      0.9969611
   2200000  -630.784        112.38833     -743.17233      296.88155     -1273.2104      1920.3708      0.9969611
   2201000  -650.02371      106.88223     -756.90594      282.33679     -1123.9098      1920.3708      0.9969611
   2202000  -671.2837       102.96418     -774.24789      271.98701      1937.8898      1920.3708      0.9969611
   2203000  -648.56358      116.56798     -765.13155      307.92236      1336.4737      1920.3708      0.9969611
   2204000  -617.17962      116.62289     -733.80251      308.06742      74.693657      1920.3708      0.9969611
   2205000  -635.96465      121.71429     -757.67894      321.51671     -987.84523      1920.3708      0.9969611
   2206000  -650.78993      101.54924     -752.33918      268.24935     -1419.4307      1920.3708      0.9969611
   2207000  -641.28831      108.81709     -750.1054       287.44786     -1331.1817      1920.3708      0.9969611
   2208000  -683.6817       97.62056      -781.30226      257.87146     -1781.0517      1920.3708      0.9969611
   2209000  -661.5778       103.43433     -765.01213      273.22893     -332.75416      1920.3708      0.9969611
   2210000  -641.05665      105.80651     -746.86316      279.49522      1233.4857      1920.3708      0.9969611
   2211000  -649.8585       114.30052     -764.15902      301.93272     -519.52035      1920.3708      0.9969611
   2212000  -632.77152      124.83077     -757.60229      329.74912      1575.1815      1920.3708      0.9969611
   2213000  -671.47734      103.09914     -774.57648      272.3435      -1301.3358      1920.3708      0.9969611
   2214000  -646.8023       102.3989      -749.2012       270.49377     -2144.7088      1920.3708      0.9969611
   2215000  -655.12709      102.27902     -757.40611      270.1771       2723.8032      1920.3708      0.9969611
   2216000  -636.32872      123.78831     -760.11703      326.99538      325.28965      1920.3708      0.9969611
   2217000  -648.07671      110.43235     -758.50907      291.71469     -1690.2877      1920.3708      0.9969611
   2218000  -616.7268       123.01166     -739.73846      324.94379      980.14221      1920.3708      0.9969611
   2219000  -633.12994      121.13457     -754.26451      319.98534     -942.78715      1920.3708      0.9969611
   2220000  -661.17202      110.05909     -771.23111      290.7287      -15.111086      1920.3708      0.9969611
   2221000  -662.39733      107.86619     -770.26352      284.93601     -2981.787       1920.3708      0.9969611
   2222000  -630.16835      114.82248     -744.99083      303.31151     -961.95432      1920.3708      0.9969611
   2223000  -658.21611      95.231544     -753.44765      251.56071      1534.5363      1920.3708      0.9969611
   2224000  -659.2427       115.42773     -774.67043      304.91032      299.81468      1920.3708      0.9969611
   2225000  -676.80446      104.17654     -780.981        275.18953      158.80042      1920.3708      0.9969611
   2226000  -650.93352      122.46371     -773.39723      323.49635     -1406.3377      1920.3708      0.9969611
   2227000  -659.09703      110.20217     -769.2992       291.10665      1250.5761      1920.3708      0.9969611
   2228000  -637.8648       106.05015     -743.91495      280.1388       640.42228      1920.3708      0.9969611
   2229000  -675.59863      106.96044     -782.55907      282.54339     -1602.7444      1920.3708      0.9969611
   2230000  -661.86414      111.48        -773.34415      294.48213     -2445.6068      1920.3708      0.9969611
   2231000  -653.01407      117.77493     -770.789        311.11061     -138.60483      1920.3708      0.9969611
   2232000  -650.42819      113.53928     -763.96747      299.92186     -622.78981      1920.3708      0.9969611
   2233000  -657.29498      119.00916     -776.30415      314.37093     -1101.928       1920.3708      0.9969611
   2234000  -624.30821      112.4201      -736.72831      296.96547      1053.2758      1920.3708      0.9969611
   2235000  -636.65351      111.35747     -748.01098      294.15844     -223.51055      1920.3708      0.9969611
   2236000  -656.10923      114.14134     -770.25057      301.51225     -2349.0357      1920.3708      0.9969611
   2237000  -642.47058      117.76694     -760.23753      311.08952      2246.2456      1920.3708      0.9969611
   2238000  -652.78285      113.88958     -766.67243      300.84721      1717.7774      1920.3708      0.9969611
   2239000  -640.22295      109.42107     -749.64402      289.04331     -3549.5948      1920.3708      0.9969611
   2240000  -643.45448      116.56732     -760.0218       307.92063      1632.9721      1920.3708      0.9969611
   2241000  -642.88329      116.79219     -759.67548      308.51464      2098.8507      1920.3708      0.9969611
   2242000  -631.87822      123.04975     -754.92796      325.04441     -2313.3762      1920.3708      0.9969611
   2243000  -656.18535      107.99286     -764.17821      285.2706       786.02481      1920.3708      0.9969611
   2244000  -688.08131      101.86379     -789.9451       269.08024     -867.26016      1920.3708      0.9969611
   2245000  -644.91348      111.5113      -756.42478      294.56479     -233.88654      1920.3708      0.9969611
   2246000  -660.47838      118.81376     -779.29214      313.85476     -1412.5726      1920.3708      0.9969611
   2247000  -637.9529       116.44944     -754.40234      307.60924      601.0885       1920.3708      0.9969611
   2248000  -648.21318      115.84896     -764.06214      306.02303     -398.93114      1920.3708      0.9969611
   2249000  -632.14004      112.62284     -744.76287      297.50101      820.43141      1920.3708      0.9969611
   2250000  -651.27636      124.94938     -776.22574      330.06242      199.72179      1920.3708      0.9969611
   2251000  -629.24147      101.05755     -730.29901      266.95049     -3700.2066      1920.3708      0.9969611
   2252000  -638.77632      126.39522     -765.17154      333.88171     -893.82841      1920.3708      0.9969611
   2253000  -666.0227       104.08759     -770.11029      274.95456     -1340.1449      1920.3708      0.9969611
   2254000  -672.03283      109.3131      -781.34593      288.75811      1833.8376      1920.3708      0.9969611
   2255000  -676.17886      106.32124     -782.50009      280.8549      -650.40482      1920.3708      0.9969611
   2256000  -656.65656      115.32587     -771.98243      304.64127     -633.24659      1920.3708      0.9969611
   2257000  -637.09038      116.55087     -753.64125      307.87718      2694.4028      1920.3708      0.9969611
   2258000  -641.33368      128.04976     -769.38344      338.2523      -317.62838      1920.3708      0.9969611
   2259000  -656.08633      107.53973     -763.62605      284.07362      2383.4582      1920.3708      0.9969611
   2260000  -630.57513      116.92094     -747.49607      308.85474     -1893.3751      1920.3708      0.9969611
   2261000  -638.34332      115.68326     -754.02658      305.58533     -552.67152      1920.3708      0.9969611
   2262000  -648.39808      118.92039     -767.31846      314.13643      91.279006      1920.3708      0.9969611
   2263000  -639.00564      115.36853     -754.37416      304.75394      1740.1637      1920.3708      0.9969611
   2264000  -636.13975      116.58853     -752.72828      307.97665     -2064.3306      1920.3708      0.9969611
   2265000  -644.0996       109.50505     -753.60465      289.26516     -1927.0704      1920.3708      0.9969611
   2266000  -661.97748      97.746208     -759.72369      258.20336      2238.7878      1920.3708      0.9969611
   2267000  -649.92472      104.81048     -754.73521      276.86414      1132.7184      1920.3708      0.9969611
   2268000  -673.17089      109.26201     -782.4329       288.62315     -2757.5163      1920.3708      0.9969611
   2269000  -669.23365      108.20238     -777.43602      285.82405      885.17298      1920.3708      0.9969611
   2270000  -669.90755      111.61738     -781.52493      294.84501     -1989.4729      1920.3708      0.9969611
   2271000  -667.70842      113.95619     -781.66461      301.02315     -3435.9841      1920.3708      0.9969611
   2272000  -678.03653      106.47886     -784.51539      281.27126     -536.86706      1920.3708      0.9969611
   2273000  -660.35102      114.84419     -775.19521      303.36887      723.15921      1920.3708      0.9969611
   2274000  -669.52504      112.85045     -782.37549      298.10225     -136.76934      1920.3708      0.9969611
   2275000  -656.13026      103.64273     -759.773        273.77945     -216.7122       1920.3708      0.9969611
   2276000  -642.78152      123.44396     -766.22548      326.08574     -2255.5517      1920.3708      0.9969611
   2277000  -645.16845      114.70416     -759.87261      302.99896     -3357.7319      1920.3708      0.9969611
   2278000  -673.28366      110.20929     -783.49295      291.12546      1377.3099      1920.3708      0.9969611
   2279000  -655.66097      107.5931      -763.25407      284.21462      1618.0063      1920.3708      0.9969611
   2280000  -664.66673      111.64867     -776.31541      294.92769      1265.6228      1920.3708      0.9969611
   2281000  -660.71529      110.24319     -770.95848      291.21501      2263.9613      1920.3708      0.9969611
   2282000  -660.95135      113.54393     -774.49528      299.93413      1593.8623      1920.3708      0.9969611
   2283000  -683.26745      106.87009     -790.13754      282.30473     -152.5143       1920.3708      0.9969611
   2284000  -656.19349      117.25896     -773.45245      309.74764     -895.37549      1920.3708      0.9969611
   2285000  -669.06429      111.24557     -780.30986      293.86285     -379.77695      1920.3708      0.9969611
   2286000  -672.82748      110.27715     -783.10463      291.30471      496.69938      1920.3708      0.9969611
   2287000  -642.96436      111.67941     -754.64377      295.00889     -161.62356      1920.3708      0.9969611
   2288000  -647.61965      120.25718     -767.87684      317.66766     -1163.4313      1920.3708      0.9969611
   2289000  -647.77292      115.87562     -763.64855      306.09347      1189.1896      1920.3708      0.9969611
   2290000  -672.91328      99.822661     -772.73594      263.68846      1469.7759      1920.3708      0.9969611
   2291000  -669.70207      112.02885     -781.73092      295.93196     -4440.1609      1920.3708      0.9969611
   2292000  -669.00918      100.74335     -769.75253      266.12051     -999.92892      1920.3708      0.9969611
   2293000  -649.97687      119.60212     -769.57899      315.93728      147.15013      1920.3708      0.9969611
   2294000  -654.26853      119.38209     -773.65062      315.35603      804.26669      1920.3708      0.9969611
   2295000  -661.91748      106.29106     -768.20853      280.77517     -1681.9443      1920.3708      0.9969611
   2296000  -649.80804      102.25547     -752.06351      270.11489      1958.0912      1920.3708      0.9969611
   2297000  -657.20237      114.11143     -771.3138       301.43323      99.660775      1920.3708      0.9969611
   2298000  -623.18182      122.08072     -745.26254      322.48466      3805.1048      1920.3708      0.9969611
   2299000  -623.69664      108.60062     -732.29726      286.87604     -1377.6475      1920.3708      0.9969611
   2300000  -673.92394      104.21249     -778.13643      275.28451      2341.6086      1920.3708      0.9969611
   2301000  -689.91437      116.22488     -806.13925      307.01605      1818.723       1920.3708      0.9969611
   2302000  -645.70222      121.8398      -767.54202      321.84825      1478.0806      1920.3708      0.9969611
   2303000  -636.40858      119.10323     -755.51182      314.61942      1275.943       1920.3708      0.9969611
   2304000  -663.11239      123.88923     -787.00162      327.26197     -435.2123       1920.3708      0.9969611
   2305000  -661.18181      126.93848     -788.12029      335.31676     -783.92442      1920.3708      0.9969611
   2306000  -646.09016      118.68289     -764.77305      313.50905     -1234.8225      1920.3708      0.9969611
   2307000  -655.93272      115.633       -771.56572      305.45255     -1681.7859      1920.3708      0.9969611
   2308000  -654.47327      112.09833     -766.5716       296.1155      -1044.8958      1920.3708      0.9969611
   2309000  -633.97154      121.00659     -754.97813      319.64726     -1826.5853      1920.3708      0.9969611
   2310000  -650.77214      101.29149     -752.06364      267.56848     -2915.1424      1920.3708      0.9969611
   2311000  -624.72843      116.15215     -740.88058      306.82393     -2105.6996      1920.3708      0.9969611
   2312000  -636.85946      114.3791      -751.23857      302.14031      1133.0443      1920.3708      0.9969611
   2313000  -661.95969      115.19473     -777.15442      304.29485     -659.99777      1920.3708      0.9969611
   2314000  -684.07755      106.75745     -790.835        282.00718     -113.0322       1920.3708      0.9969611
   2315000  -658.46944      127.72229     -786.19173      337.38726     -569.46098      1920.3708      0.9969611
   2316000  -640.31805      124.96803     -765.28607      330.11168     -125.8348       1920.3708      0.9969611
   2317000  -662.98458      102.59423     -765.57881      271.00975     -2847.9482      1920.3708      0.9969611
   2318000  -652.10053      104.60588     -756.70641      276.32367     -493.80398      1920.3708      0.9969611
   2319000  -643.96695      117.78757     -761.75452      311.14402     -328.55924      1920.3708      0.9969611
   2320000  -676.26428      96.785643     -773.04992      255.66596      1533.8022      1920.3708      0.9969611
   2321000  -665.93191      125.0105      -790.94241      330.22388     -1413.4762      1920.3708      0.9969611
   2322000  -671.32726      111.71116     -783.03841      295.09275     -1975.6384      1920.3708      0.9969611
   2323000  -647.15456      122.9997      -770.15425      324.9122      -1518.1711      1920.3708      0.9969611
   2324000  -623.07913      119.14862     -742.22774      314.7393       938.16245      1920.3708      0.9969611
   2325000  -661.86791      107.16751     -769.03542      283.09038      442.63142      1920.3708      0.9969611
   2326000  -660.08871      116.55829     -776.647        307.89678      2887.5208      1920.3708      0.9969611
   2327000  -655.12985      120.23228     -775.36213      317.60188     -155.80954      1920.3708      0.9969611
   2328000  -664.23115      118.77507     -783.00622      313.75256     -107.97547      1920.3708      0.9969611
   2329000  -657.18543      118.9459      -776.13133      314.20381     -1774.6418      1920.3708      0.9969611
   2330000  -666.95235      103.2937      -770.24605      272.85745     -577.6337       1920.3708      0.9969611
   2331000  -649.52474      114.5457      -764.07043      302.58037     -1903.0256      1920.3708      0.9969611
   2332000  -651.72349      109.1557      -760.87919      288.34232      1099.2444      1920.3708      0.9969611
   2333000  -669.43164      116.13969     -785.57133      306.79102     -1225.3546      1920.3708      0.9969611
   2334000  -674.87182      106.79383     -781.66565      282.10329      2864.3643      1920.3708      0.9969611
   2335000  -644.55574      128.28923     -772.84497      338.88486      766.1003       1920.3708      0.9969611
   2336000  -679.61132      99.922645     -779.53397      263.95257     -2440.1515      1920.3708      0.9969611
   2337000  -650.62757      108.62404     -759.25161      286.93791      442.69058      1920.3708      0.9969611
   2338000  -641.51104      113.3783      -754.88934      299.49661      1527.1397      1920.3708      0.9969611
   2339000  -654.50385      111.5332      -766.03705      294.62266      1166.6878      1920.3708      0.9969611
   2340000  -648.72413      126.07475     -774.79888      333.03516     -2139.291       1920.3708      0.9969611
   2341000  -653.94678      118.11268     -772.05946      312.00282     -1073.9397      1920.3708      0.9969611
   2342000  -661.27019      106.17525     -767.44544      280.46926     -1119.2214      1920.3708      0.9969611
   2343000  -646.99987      120.66152     -767.66139      318.73573     -2524.7133      1920.3708      0.9969611
   2344000  -622.6162       137.49011     -760.10631      363.18963      164.60041      1920.3708      0.9969611
   2345000  -673.61781      110.61552     -784.23333      292.19855      52.898718      1920.3708      0.9969611
   2346000  -694.96997      99.515349     -794.48532      262.87667      1561.6189      1920.3708      0.9969611
   2347000  -656.13721      104.69668     -760.83389      276.56352     -1005.7772      1920.3708      0.9969611
   2348000  -655.23105      117.54159     -772.77263      310.49422      677.67672      1920.3708      0.9969611
   2349000  -643.41844      120.00771     -763.42615      317.00865     -26.067096      1920.3708      0.9969611
   2350000  -645.65314      131.57484     -777.22797      347.56402      277.3978       1920.3708      0.9969611
   2351000  -656.96246      104.37445     -761.33691      275.71233      741.28438      1920.3708      0.9969611
   2352000  -654.17359      108.81478     -762.98836      287.44175      1835.2763      1920.3708      0.9969611
   2353000  -656.18255      122.60882     -778.79136      323.87966      253.44722      1920.3708      0.9969611
   2354000  -669.52308      110.55336     -780.07643      292.03433      537.84927      1920.3708      0.9969611
   2355000  -684.05533      103.65093     -787.70626      273.8011      -290.81851      1920.3708      0.9969611
   2356000  -657.7487       118.3163      -776.065        312.54068     -704.40131      1920.3708      0.9969611
   2357000  -677.76952      102.91051     -780.68003      271.84522     -1495.5537      1920.3708      0.9969611
   2358000  -658.4987       127.86873     -786.36743      337.77409     -812.52819      1920.3708      0.9969611
   2359000  -654.86609      119.22865     -774.09474      314.95072      434.65197      1920.3708      0.9969611
   2360000  -656.16026      115.68285     -771.84311      305.58424     -2226.5746      1920.3708      0.9969611
   2361000  -668.94193      114.3245      -783.26643      301.99607      104.85578      1920.3708      0.9969611
   2362000  -663.54402      111.31731     -774.86133      294.05237      113.929        1920.3708      0.9969611
   2363000  -653.54407      100.26229     -753.80636      264.84976     -411.2166       1920.3708      0.9969611
   2364000  -634.89658      126.23134     -761.12792      333.44881      1431.0263      1920.3708      0.9969611
   2365000  -652.68518      115.93503     -768.62022      306.2504      -453.25555      1920.3708      0.9969611
   2366000  -678.33291      100.76021     -779.09312      266.16507     -235.70623      1920.3708      0.9969611
   2367000  -620.82497      128.20549     -749.03046      338.66367     -813.96276      1920.3708      0.9969611
   2368000  -621.42083      115.01339     -736.43422      303.81582     -26.761059      1920.3708      0.9969611
   2369000  -654.73063      112.80225     -767.53288      297.97493      877.63995      1920.3708      0.9969611
   2370000  -648.93898      118.59959     -767.53857      313.289        791.97163      1920.3708      0.9969611
   2371000  -657.78813      112.44592     -770.23405      297.03367     -257.05146      1920.3708      0.9969611
   2372000  -661.77719      124.35896     -786.13616      328.50279     -875.60577      1920.3708      0.9969611
   2373000  -635.77481      117.61672     -753.39153      310.6927      -386.32244      1920.3708      0.9969611
   2374000  -663.81506      105.7776      -769.59267      279.41885     -1611.2748      1920.3708      0.9969611
   2375000  -636.5355       117.96664     -754.50214      311.61703     -1167.2687      1920.3708      0.9969611
   2376000  -658.60662      112.99665     -771.60327      298.48846      802.17721      1920.3708      0.9969611
   2377000  -621.02504      111.30529     -732.33033      294.02061      2119.2301      1920.3708      0.9969611
   2378000  -652.18331      109.19844     -761.38175      288.45522      354.42677      1920.3708      0.9969611
   2379000  -647.46067      99.744477     -747.20515      263.48193      1076.648       1920.3708      0.9969611
   2380000  -632.44728      117.06719     -749.51447      309.24107     -2308.1941      1920.3708      0.9969611
   2381000  -648.35015      114.64499     -762.99515      302.84268     -1256.1877      1920.3708      0.9969611
   2382000  -668.81423      114.26677     -783.081        301.84358     -2574.2726      1920.3708      0.9969611
   2383000  -654.40699      116.51187     -770.91886      307.77415     -3203.6294      1920.3708      0.9969611
   2384000  -629.75667      117.03575     -746.79241      309.15802      1191.6743      1920.3708      0.9969611
   2385000  -653.95821      101.55736     -755.51556      268.27078     -691.70735      1920.3708      0.9969611
   2386000  -664.20821      108.41618     -772.62439      286.38884     -443.84782      1920.3708      0.9969611
   2387000  -670.31958      107.01728     -777.33685      282.69353     -1111.3047      1920.3708      0.9969611
   2388000  -645.08564      104.11415     -749.1998       275.02474      1525.8625      1920.3708      0.9969611
   2389000  -656.74439      121.31851     -778.06289      320.47122     -1118.3012      1920.3708      0.9969611
   2390000  -632.64914      120.09786     -752.747        317.24679     -345.57803      1920.3708      0.9969611
   2391000  -680.22305      99.047474     -779.27053      261.64075     -2461.8759      1920.3708      0.9969611
   2392000  -665.45385      102.08445     -767.5383       269.66312     -110.12338      1920.3708      0.9969611
   2393000  -644.73111      111.9394      -756.67051      295.69566     -2111.0465      1920.3708      0.9969611
   2394000  -652.60889      114.7302      -767.33909      303.06775     -2228.116       1920.3708      0.9969611
   2395000  -656.75347      112.11681     -768.87028      296.16431     -1611.1542      1920.3708      0.9969611
   2396000  -662.24323      111.083       -773.32623      293.43343      1210.4882      1920.3708      0.9969611
   2397000  -649.39935      126.81577     -776.21513      334.99262      185.75995      1920.3708      0.9969611
   2398000  -666.96769      98.967726     -765.93542      261.43009     -1867.2823      1920.3708      0.9969611
   2399000  -663.8087       118.32489     -782.13359      312.56338     -1161.8199      1920.3708      0.9969611
   2400000  -657.23403      122.26019     -779.49421      322.95873      2190.4792      1920.3708      0.9969611
   2401000  -679.61234      106.27949     -785.89183      280.74463     -995.56875      1920.3708      0.9969611
   2402000  -665.78582      111.67651     -777.46233      295.00122      1244.7671      1920.3708      0.9969611
   2403000  -666.31504      121.83277     -788.14781      321.82967     -1837.7294      1920.3708      0.9969611
   2404000  -674.93698      112.86749     -787.80447      298.14728     -2394.2965      1920.3708      0.9969611
   2405000  -653.42535      112.7281      -766.15346      297.77908      788.38027      1920.3708      0.9969611
   2406000  -681.12699      99.875336     -781.00232      263.8276      -307.56056      1920.3708      0.9969611
   2407000  -649.31677      111.96352     -761.28029      295.75938      976.90247      1920.3708      0.9969611
   2408000  -612.05492      133.38474     -745.43966      352.34501      467.69282      1920.3708      0.9969611
   2409000  -659.20581      125.66002     -784.86584      331.93964      511.41139      1920.3708      0.9969611
   2410000  -659.84897      110.02114     -769.87011      290.62844     -1163.7152      1920.3708      0.9969611
   2411000  -646.17768      122.24914     -768.42682      322.92955      433.81803      1920.3708      0.9969611
   2412000  -663.82211      109.62829     -773.45041      289.59072     -2754.7516      1920.3708      0.9969611
   2413000  -619.93696      120.59264     -740.5296       318.55378      1370.2872      1920.3708      0.9969611
   2414000  -641.64854      110.48298     -752.13152      291.84843      896.78683      1920.3708      0.9969611
   2415000  -644.10942      112.98704     -757.09645      298.46307     -1514.8828      1920.3708      0.9969611
   2416000  -655.09556      107.87353     -762.96909      284.95539     -393.87989      1920.3708      0.9969611
   2417000  -657.8591       103.16414     -761.02324      272.5152      -1448.7096      1920.3708      0.9969611
   2418000  -642.38626      118.46118     -760.84744      312.9234       1155.3073      1920.3708      0.9969611
   2419000  -652.18168      112.86432     -765.046        298.13889      1530.8491      1920.3708      0.9969611
   2420000  -638.35619      126.90748     -765.26368      335.23489      1473.4373      1920.3708      0.9969611
   2421000  -646.52166      109.32162     -755.84328      288.78061      3123.5347      1920.3708      0.9969611
   2422000  -658.2501       107.70322     -765.95333      284.50551     -1022.3066      1920.3708      0.9969611
   2423000  -651.63924      125.90954     -777.54878      332.59875     -549.25439      1920.3708      0.9969611
   2424000  -661.6877       108.94823     -770.63593      287.79427      455.98298      1920.3708      0.9969611
   2425000  -654.01148      107.58033     -761.59182      284.18089      1835.8128      1920.3708      0.9969611
   2426000  -629.52428      128.36127     -757.88556      339.07518     -1377.6266      1920.3708      0.9969611
   2427000  -642.29656      128.59671     -770.89327      339.69709     -68.522304      1920.3708      0.9969611
   2428000  -665.43806      121.78536     -787.22342      321.70444     -260.33141      1920.3708      0.9969611
   2429000  -647.02763      117.79375     -764.82139      311.16034     -213.63678      1920.3708      0.9969611
   2430000  -673.0051       105.36359     -778.3687       278.32521      927.07603      1920.3708      0.9969611
   2431000  -645.87839      121.12625     -767.00464      319.96336      1120.0419      1920.3708      0.9969611
   2432000  -646.90039      117.60095     -764.50134      310.65104      1006.74        1920.3708      0.9969611
   2433000  -646.04413      112.43209     -758.47622      296.99713      460.15102      1920.3708      0.9969611
   2434000  -658.53141      121.50021     -780.03162      320.9512      -1608.5331      1920.3708      0.9969611
   2435000  -650.05745      116.74306     -766.80051      308.38485      385.83969      1920.3708      0.9969611
   2436000  -644.12913      131.98045     -776.10958      348.63548     -1221.843       1920.3708      0.9969611
   2437000  -661.40206      96.129951     -757.53201      253.93391     -646.99758      1920.3708      0.9969611
   2438000  -664.93609      110.95406     -775.89015      293.09283      557.56555      1920.3708      0.9969611
   2439000  -647.11388      129.78545     -776.89934      342.83725      598.97097      1920.3708      0.9969611
   2440000  -638.88978      130.77721     -769.66699      345.45704      625.14914      1920.3708      0.9969611
   2441000  -639.02027      122.32319     -761.34345      323.12515      681.00405      1920.3708      0.9969611
   2442000  -651.71984      113.47736     -765.1972       299.7583       502.70334      1920.3708      0.9969611
   2443000  -652.36809      106.63554     -759.00364      281.68516     -3311.4672      1920.3708      0.9969611
   2444000  -679.91576      95.324585     -775.24035      251.80648     -2591.5551      1920.3708      0.9969611
   2445000  -645.67707      123.03539     -768.71246      325.00649     -1885.6361      1920.3708      0.9969611
   2446000  -627.19374      124.50275     -751.69648      328.88261     -2035.6307      1920.3708      0.9969611
   2447000  -661.99806      101.89952     -763.89758      269.17462     -2218.9948      1920.3708      0.9969611
   2448000  -668.4598       106.07662     -774.53641      280.20872      645.40089      1920.3708      0.9969611
   2449000  -642.60948      109.92795     -752.53743      290.38228     -137.48247      1920.3708      0.9969611
   2450000  -670.01549      99.931324     -769.94682      263.9755      -2001.2904      1920.3708      0.9969611
   2451000  -661.62312      100.35239     -761.97552      265.08778     -1237.0017      1920.3708      0.9969611
   2452000  -639.70249      107.57464     -747.27713      284.16586      2301.8009      1920.3708      0.9969611
   2453000  -652.64579      108.85881     -761.50461      287.55808      5278.7935      1920.3708      0.9969611
   2454000  -636.11948      116.75605     -752.87553      308.41917     -910.55112      1920.3708      0.9969611
   2455000  -628.01391      115.15624     -743.17015      304.19316     -1130.7272      1920.3708      0.9969611
   2456000  -663.97043      113.59245     -777.56287      300.06229     -1712.2744      1920.3708      0.9969611
   2457000  -649.72877      109.44649     -759.17526      289.11047      945.53774      1920.3708      0.9969611
   2458000  -644.63699      115.44002     -760.07701      304.94279     -1843.5761      1920.3708      0.9969611
   2459000  -673.28859      114.44976     -787.73835      302.32695      1409.3438      1920.3708      0.9969611
   2460000  -651.29003      101.31464     -752.60467      267.62963     -68.325908      1920.3708      0.9969611
   2461000  -647.27318      110.15681     -757.42999      290.98683     -2426.0784      1920.3708      0.9969611
   2462000  -646.82782      106.74001     -753.56783      281.96112     -919.08697      1920.3708      0.9969611
   2463000  -644.07146      111.26592     -755.33738      293.91661     -507.40773      1920.3708      0.9969611
   2464000  -645.74833      115.32389     -761.07221      304.63601     -644.94915      1920.3708      0.9969611
   2465000  -653.83506      116.75218     -770.58724      308.40895      611.78017      1920.3708      0.9969611
   2466000  -654.26838      108.98568     -763.25407      287.89321      1406.2388      1920.3708      0.9969611
   2467000  -634.23378      129.14209     -763.37587      341.13776      22.314295      1920.3708      0.9969611
   2468000  -656.06397      109.81808     -765.88206      290.09205      505.84503      1920.3708      0.9969611
   2469000  -640.62643      114.63967     -755.2661       302.82862      2524.7524      1920.3708      0.9969611
   2470000  -629.09352      123.34315     -752.43667      325.81946     -1342.131       1920.3708      0.9969611
   2471000  -667.62734      99.850423     -767.47776      263.76179      590.84031      1920.3708      0.9969611
   2472000  -655.6487       101.37222     -757.02092      267.78173     -707.66131      1920.3708      0.9969611
   2473000  -669.90839      106.86626     -776.77465      282.29461      1436.0463      1920.3708      0.9969611
   2474000  -628.54086      124.73002     -753.27087      329.48296     -1283.5399      1920.3708      0.9969611
   2475000  -641.52808      113.99178     -755.51986      301.11716     -2492.6157      1920.3708      0.9969611
   2476000  -644.40229      113.22213     -757.62442      299.08409     -621.81589      1920.3708      0.9969611
   2477000  -642.60522      103.56648     -746.1717       273.57802     -3579.7122      1920.3708      0.9969611
   2478000  -636.6047       119.21235     -755.81705      314.90765     -1771.3029      1920.3708      0.9969611
   2479000  -663.46259      110.21016     -773.67275      291.12775     -438.01338      1920.3708      0.9969611
   2480000  -657.56318      111.98164     -769.54481      295.80723     -117.5292       1920.3708      0.9969611
   2481000  -677.44622      108.05461     -785.50083      285.43372      2326.9925      1920.3708      0.9969611
   2482000  -669.37768      108.1626      -777.54028      285.71898     -462.83782      1920.3708      0.9969611
   2483000  -661.08355      105.19633     -766.27989      277.88338      1371.5567      1920.3708      0.9969611
   2484000  -662.33557      107.13344     -769.46901      283.00037      2223.5516      1920.3708      0.9969611
   2485000  -656.1912       114.83617     -771.02737      303.34767     -2028.1255      1920.3708      0.9969611
   2486000  -624.2767       117.31692     -741.59361      309.90074      1772.1445      1920.3708      0.9969611
   2487000  -631.68631      116.33917     -748.02548      307.31796      296.24191      1920.3708      0.9969611
   2488000  -659.44783      112.39707     -771.8449       296.90463     -773.16241      1920.3708      0.9969611
   2489000  -649.54414      116.61295     -766.15709      308.04116     -2092.3297      1920.3708      0.9969611
   2490000  -646.62971      111.39349     -758.0232       294.25361      543.32888      1920.3708      0.9969611
   2491000  -657.06601      112.79045     -769.85646      297.94377     -2920.1669      1920.3708      0.9969611
   2492000  -668.66029      114.73579     -783.39607      303.08251     -832.47874      1920.3708      0.9969611
   2493000  -665.9618       106.18072     -772.14253      280.48372     -3067.0096      1920.3708      0.9969611
   2494000  -678.60931      117.93295     -796.54226      311.52804     -2431.9152      1920.3708      0.9969611
   2495000  -673.92612      102.72815     -776.65427      271.36351     -662.51125      1920.3708      0.9969611
   2496000  -643.21157      109.13003     -752.3416       288.27452      778.95496      1920.3708      0.9969611
   2497000  -655.51444      101.48482     -756.99926      268.07917     -3992.4783      1920.3708      0.9969611
   2498000  -616.55635      127.12642     -743.68278      335.81323     -116.66702      1920.3708      0.9969611
   2499000  -644.48696      111.07368     -755.56064      293.40881      42.996868      1920.3708      0.9969611
   2500000  -655.5275       105.17631     -760.70381      277.8305      -1258.0907      1920.3708      0.9969611
   2501000  -662.83749      122.69912     -785.53662      324.11821     -1527.1156      1920.3708      0.9969611
   2502000  -651.51827      107.21722     -758.73549      283.22169      1173.1458      1920.3708      0.9969611
   2503000  -626.49454      130.37522     -756.86976      344.39516      2153.4067      1920.3708      0.9969611
   2504000  -642.19429      109.95032     -752.14461      290.44137      1737.6232      1920.3708      0.9969611
   2505000  -645.93189      126.12545     -772.05734      333.16909      748.19833      1920.3708      0.9969611
   2506000  -655.87129      102.4395      -758.31079      270.60102      1300.8172      1920.3708      0.9969611
   2507000  -648.65409      109.83455     -758.48865      290.13556      298.02393      1920.3708      0.9969611
   2508000  -641.95806      117.36806     -759.32612      310.03583      2269.5099      1920.3708      0.9969611
   2509000  -639.74239      108.96899     -748.71139      287.84913      1012.6342      1920.3708      0.9969611
   2510000  -625.50669      122.82579     -748.33248      324.45281     -825.02471      1920.3708      0.9969611
   2511000  -635.23166      124.9986      -760.23026      330.19245     -2241.1897      1920.3708      0.9969611
   2512000  -658.50205      124.24052     -782.74257      328.18992     -1683.7896      1920.3708      0.9969611
   2513000  -649.97578      121.06661     -771.04239      319.80582      194.2639       1920.3708      0.9969611
   2514000  -634.76434      128.38037     -763.14471      339.12562     -658.90486      1920.3708      0.9969611
   2515000  -657.46895      100.89757     -758.36652      266.5279      -405.55264      1920.3708      0.9969611
   2516000  -645.5967       104.95104     -750.54774      277.23544      216.41889      1920.3708      0.9969611
   2517000  -632.4332       108.03381     -740.46701      285.37877      1420.4316      1920.3708      0.9969611
   2518000  -646.94989      111.10009     -758.04998      293.47857     -1734.8514      1920.3708      0.9969611
   2519000  -651.26         117.7797      -769.03969      311.12321      1700.1142      1920.3708      0.9969611
   2520000  -647.87104      124.15497     -772.026        327.96392      89.971375      1920.3708      0.9969611
   2521000  -662.50904      121.5332      -784.04224      321.03834      1252.5146      1920.3708      0.9969611
   2522000  -664.35786      104.65619     -769.01405      276.45657      1218.4008      1920.3708      0.9969611
   2523000  -657.56998      116.6409      -774.21088      308.115        2121.6591      1920.3708      0.9969611
   2524000  -643.84376      117.04241     -760.88617      309.17561     -418.50132      1920.3708      0.9969611
   2525000  -640.01751      113.14873     -753.16624      298.89019     -2561.9         1920.3708      0.9969611
   2526000  -655.31986      106.30863     -761.62849      280.82159      948.59276      1920.3708      0.9969611
   2527000  -652.65209      117.29118     -769.94327      309.83277      1753.4722      1920.3708      0.9969611
   2528000  -646.52366      104.35686     -750.88051      275.66585      243.37316      1920.3708      0.9969611
   2529000  -639.50169      111.52749     -751.02918      294.60757     -862.9884       1920.3708      0.9969611
   2530000  -645.72037      122.43548     -768.15585      323.42179     -2861.6586      1920.3708      0.9969611
   2531000  -657.31562      115.93816     -773.25378      306.25867      1126.0862      1920.3708      0.9969611
   2532000  -632.62542      114.65076     -747.27619      302.85791     -1970.7611      1920.3708      0.9969611
   2533000  -650.72377      115.76985     -766.49362      305.81405     -1362.101       1920.3708      0.9969611
   2534000  -664.65899      120.56934     -785.22833      318.49224     -233.64857      1920.3708      0.9969611
   2535000  -648.10762      114.93614     -763.04376      303.61176      2180.9214      1920.3708      0.9969611
   2536000  -653.33924      106.72814     -760.06738      281.92976      692.14329      1920.3708      0.9969611
   2537000  -648.33681      107.27174     -755.60856      283.36572     -558.46679      1920.3708      0.9969611
   2538000  -642.4824       114.67605     -757.15846      302.92472     -2519.8747      1920.3708      0.9969611
   2539000  -647.05074      114.48967     -761.54041      302.43239     -910.66083      1920.3708      0.9969611
   2540000  -663.59915      112.39285     -775.99201      296.89349      234.17311      1920.3708      0.9969611
   2541000  -663.36611      117.8638      -781.22991      311.34537      4068.1079      1920.3708      0.9969611
   2542000  -640.92737      132.04869     -772.97606      348.81574     -2546.6984      1920.3708      0.9969611
   2543000  -659.88985      112.23927     -772.12912      296.48778     -468.06722      1920.3708      0.9969611
   2544000  -639.35213      106.01049     -745.36262      280.03403      3003.7014      1920.3708      0.9969611
   2545000  -639.43512      121.28599     -760.72111      320.38533      1274.654       1920.3708      0.9969611
   2546000  -633.7523       114.24593     -747.99823      301.78852     -1833.1981      1920.3708      0.9969611
   2547000  -643.71828      119.7546      -763.47287      316.34004      545.04014      1920.3708      0.9969611
   2548000  -624.29585      133.65793     -757.95378      353.06665     -2085.1976      1920.3708      0.9969611
   2549000  -645.89184      115.39945     -761.29129      304.83563     -219.53721      1920.3708      0.9969611
   2550000  -657.91695      110.12563     -768.04258      290.90446     -721.23209      1920.3708      0.9969611
   2551000  -648.69818      125.91449     -774.61268      332.61183      1060.2928      1920.3708      0.9969611
   2552000  -638.86362      106.71229     -745.5759       281.88788      521.83809      1920.3708      0.9969611
   2553000  -613.80524      130.09208     -743.89732      343.64722      65.937803      1920.3708      0.9969611
   2554000  -631.36302      102.8232      -734.18621      271.61458     -1344.2046      1920.3708      0.9969611
   2555000  -639.46725      113.11473     -752.58198      298.80038     -1695.6716      1920.3708      0.9969611
   2556000  -640.80483      119.82        -760.62482      316.5128       129.54543      1920.3708      0.9969611
   2557000  -665.57768      108.11187     -773.68956      285.58499      93.480024      1920.3708      0.9969611
   2558000  -654.84021      110.90127     -765.74148      292.95338      1852.6131      1920.3708      0.9969611
   2559000  -658.5683       110.91146     -769.47976      292.98029      1587.0533      1920.3708      0.9969611
   2560000  -656.38981      107.20988     -763.59969      283.20231      2048.7592      1920.3708      0.9969611
   2561000  -633.23314      108.30908     -741.54222      286.10592      2698.199       1920.3708      0.9969611
   2562000  -686.20634      88.421609     -774.62795      233.57179      240.65359      1920.3708      0.9969611
   2563000  -667.06245      107.84859     -774.91105      284.88951     -728.71736      1920.3708      0.9969611
   2564000  -690.43344      103.79422     -794.22766      274.17959     -967.69712      1920.3708      0.9969611
   2565000  -651.25459      112.99374     -764.24833      298.48077     -312.0566       1920.3708      0.9969611
   2566000  -668.75889      115.62421     -784.3831       305.42935     -1208.1892      1920.3708      0.9969611
   2567000  -682.61846      107.19402     -789.81247      283.16041      1344.305       1920.3708      0.9969611
   2568000  -656.0101       118.68613     -774.69623      313.51761      1059.4909      1920.3708      0.9969611
   2569000  -652.02264      117.51976     -769.54241      310.43657     -2618.049       1920.3708      0.9969611
   2570000  -685.32628      110.48812     -795.8144       291.86201     -1153.39        1920.3708      0.9969611
   2571000  -657.21974      116.30359     -773.52333      307.22396     -322.33696      1920.3708      0.9969611
   2572000  -676.17794      115.50967     -791.6876       305.12677     -1895.9121      1920.3708      0.9969611
   2573000  -660.10792      113.52148     -773.6294       299.87483      413.13408      1920.3708      0.9969611
   2574000  -682.91565      99.151357     -782.067        261.91516      2660.4626      1920.3708      0.9969611
   2575000  -665.95512      113.33779     -779.29292      299.38961      625.59734      1920.3708      0.9969611
   2576000  -677.05079      105.35424     -782.40503      278.3005       2327.8402      1920.3708      0.9969611
   2577000  -652.47176      121.34308     -773.81484      320.53614     -130.41875      1920.3708      0.9969611
   2578000  -664.05363      100.28803     -764.34166      264.91775      2548.5372      1920.3708      0.9969611
   2579000  -658.87995      105.44444     -764.32439      278.53878      564.83084      1920.3708      0.9969611
   2580000  -656.79929      114.91157     -771.71086      303.54684      327.38207      1920.3708      0.9969611
   2581000  -669.58951      106.34823     -775.93773      280.92619      2443.7817      1920.3708      0.9969611
   2582000  -653.43437      107.90399     -761.33836      285.03585      1228.4484      1920.3708      0.9969611
   2583000  -651.99503      124.81163     -776.80666      329.69856      614.79342      1920.3708      0.9969611
   2584000  -674.44218      106.18002     -780.6222       280.48186     -378.47475      1920.3708      0.9969611
   2585000  -689.27976      107.49717     -796.77693      283.9612      -1823.2992      1920.3708      0.9969611
   2586000  -661.09155      118.19871     -779.29026      312.23007     -2069.2618      1920.3708      0.9969611
   2587000  -691.76701      94.885387     -786.6524       250.64631     -1914.5607      1920.3708      0.9969611
   2588000  -673.47891      118.08474     -791.56365      311.92901      1800.1305      1920.3708      0.9969611
   2589000  -680.76605      101.81131     -782.57735      268.94161      2382.4771      1920.3708      0.9969611
   2590000  -660.56773      114.59838     -775.16611      302.71955      328.0905       1920.3708      0.9969611
   2591000  -673.19635      110.04593     -783.24228      290.69393     -703.18347      1920.3708      0.9969611
   2592000  -644.02201      112.61018     -756.6322       297.46758     -315.49367      1920.3708      0.9969611
   2593000  -655.35579      95.215117     -750.5709       251.51731      70.472286      1920.3708      0.9969611
   2594000  -649.59835      108.93131     -758.52967      287.74959     -2841.5833      1920.3708      0.9969611
   2595000  -632.04596      118.66584     -750.7118       313.46402     -320.72651      1920.3708      0.9969611
   2596000  -657.14216      108.1384      -765.28057      285.65507     -2875.9956      1920.3708      0.9969611
   2597000  -649.93762      117.38858     -767.3262       310.09005     -245.11081      1920.3708      0.9969611
   2598000  -654.21431      110.54674     -764.76104      292.01684      1190.8945      1920.3708      0.9969611
   2599000  -672.30289      97.219664     -769.52256      256.81246     -1566.613       1920.3708      0.9969611
   2600000  -673.82165      102.99618     -776.81783      272.07152     -1115.3385      1920.3708      0.9969611
   2601000  -647.65775      111.99866     -759.65641      295.85219     -194.88488      1920.3708      0.9969611
   2602000  -653.19292      104.15216     -757.34508      275.12512      78.134201      1920.3708      0.9969611
   2603000  -677.62662      104.23166     -781.85828      275.33512      1607.6863      1920.3708      0.9969611
   2604000  -673.63163      120.51888     -794.15051      318.35895     -1215.635       1920.3708      0.9969611
   2605000  -675.04554      105.7771      -780.82264      279.41753     -791.54462      1920.3708      0.9969611
   2606000  -660.92812      122.46592     -783.39404      323.50219     -776.73604      1920.3708      0.9969611
   2607000  -648.58265      120.77849     -769.36114      319.04474     -888.35664      1920.3708      0.9969611
   2608000  -649.86717      113.03438     -762.90156      298.58814      2662.6583      1920.3708      0.9969611
   2609000  -686.48836      94.702137     -781.19049      250.16224     -190.39173      1920.3708      0.9969611
   2610000  -656.26214      117.38026     -773.6424       310.06807      1400.4686      1920.3708      0.9969611
   2611000  -651.18037      113.13163     -764.31199      298.84501     -2280.8324      1920.3708      0.9969611
   2612000  -628.05063      112.04663     -740.09726      295.97891     -2921.3386      1920.3708      0.9969611
   2613000  -672.5771       111.38434     -783.96144      294.22942     -35.517158      1920.3708      0.9969611
   2614000  -647.15036      112.53256     -759.68293      297.26255     -1226.5713      1920.3708      0.9969611
   2615000  -638.82587      116.73216     -755.55803      308.35608      1172.3715      1920.3708      0.9969611
   2616000  -627.54214      127.36674     -754.90888      336.44805      719.66126      1920.3708      0.9969611
   2617000  -629.70467      120.05539     -749.76006      317.13461     -2020.9302      1920.3708      0.9969611
   2618000  -665.40065      123.34541     -788.74606      325.82542      117.77354      1920.3708      0.9969611
   2619000  -642.3592       119.53886     -761.89807      315.77017     -623.04346      1920.3708      0.9969611
   2620000  -652.51234      115.20849     -767.72082      304.33118     -116.07616      1920.3708      0.9969611
   2621000  -648.80267      106.78252     -755.58519      282.0734      -2292.6124      1920.3708      0.9969611
   2622000  -641.9931       110.69272     -752.68583      292.40248     -1321.3296      1920.3708      0.9969611
   2623000  -647.1697       124.11108     -771.28078      327.848       -57.850434      1920.3708      0.9969611
   2624000  -651.28138      116.93814     -768.21952      308.90018      446.31942      1920.3708      0.9969611
   2625000  -664.99492      102.79648     -767.7914       271.54399     -558.25655      1920.3708      0.9969611
   2626000  -682.78379      103.8337      -786.61749      274.28389      857.14229      1920.3708      0.9969611
   2627000  -663.2903       118.53953     -781.82983      313.13035      727.51127      1920.3708      0.9969611
   2628000  -664.14657      112.83098     -776.97755      298.05083     -362.58925      1920.3708      0.9969611
   2629000  -673.24587      110.14434     -783.3902       290.95388      2968.1617      1920.3708      0.9969611
   2630000  -635.30255      125.7968      -761.09934      332.30094      2578.7242      1920.3708      0.9969611
   2631000  -632.68154      123.894       -756.57554      327.27456     -513.94133      1920.3708      0.9969611
   2632000  -638.52599      116.63834     -755.16433      308.10824     -1738.049       1920.3708      0.9969611
   2633000  -667.30385      99.658086     -766.96194      263.25372     -798.10215      1920.3708      0.9969611
   2634000  -653.87622      115.70751     -769.58373      305.64939      1104.502       1920.3708      0.9969611
   2635000  -649.70495      103.52737     -753.23232      273.47471      71.530701      1920.3708      0.9969611
   2636000  -649.49075      114.47316     -763.96391      302.38877     -132.63244      1920.3708      0.9969611
   2637000  -662.23592      106.76057     -768.99649      282.01543     -272.23914      1920.3708      0.9969611
   2638000  -640.52169      118.10576     -758.62745      311.98452      2383.9667      1920.3708      0.9969611
   2639000  -634.94528      114.0941      -749.03938      301.38744      1306.874       1920.3708      0.9969611
   2640000  -663.26739      110.45217     -773.71956      291.76703      676.725        1920.3708      0.9969611
   2641000  -642.74768      118.78115     -761.52883      313.76862      113.05835      1920.3708      0.9969611
   2642000  -642.52173      128.51428     -771.03602      339.47935      719.71         1920.3708      0.9969611
   2643000  -635.62218      115.20605     -750.82823      304.32474     -766.41525      1920.3708      0.9969611
   2644000  -639.90589      112.81009     -752.71598      297.99564     -2110.5385      1920.3708      0.9969611
   2645000  -657.61638      116.10845     -773.72483      306.7085       1414.8145      1920.3708      0.9969611
   2646000  -654.50722      122.58847     -777.09569      323.82592     -4.376644       1920.3708      0.9969611
   2647000  -675.70046      105.96837     -781.66883      279.92278     -280.69325      1920.3708      0.9969611
   2648000  -612.36185      129.63325     -741.99509      342.43518      850.8951       1920.3708      0.9969611
   2649000  -670.87324      95.712654     -766.5859       252.83159      120.48923      1920.3708      0.9969611
   2650000  -642.24257      121.32024     -763.56281      320.4758      -351.50625      1920.3708      0.9969611
   2651000  -646.3368       129.9332      -776.27         343.22753      1842.5653      1920.3708      0.9969611
   2652000  -635.53338      122.10015     -757.63354      322.536       -725.89749      1920.3708      0.9969611
   2653000  -656.47828      109.67801     -766.1563       289.72205     -2887.7019      1920.3708      0.9969611
   2654000  -650.48304      115.15483     -765.63787      304.18943      2135.5444      1920.3708      0.9969611
   2655000  -658.90778      114.14066     -773.04844      301.51044      2385.8161      1920.3708      0.9969611
   2656000  -630.8318       127.80737     -758.63917      337.61199      1141.0732      1920.3708      0.9969611
   2657000  -662.40694      113.02075     -775.42768      298.55212      243.43388      1920.3708      0.9969611
   2658000  -650.3003       115.85735     -766.15765      306.04519     -260.72746      1920.3708      0.9969611
   2659000  -662.1661       109.63566     -771.80175      289.61017     -1886.3609      1920.3708      0.9969611
   2660000  -672.27464      112.47058     -784.74522      297.09881     -2269.9324      1920.3708      0.9969611
   2661000  -635.07659      123.29124     -758.36783      325.68234      435.73412      1920.3708      0.9969611
   2662000  -646.04265      126.08109     -772.12374      333.0519       579.84013      1920.3708      0.9969611
   2663000  -640.83277      129.46323     -770.296        341.98607      1412.346       1920.3708      0.9969611
   2664000  -642.20052      112.52781     -754.72833      297.24999      256.25824      1920.3708      0.9969611
   2665000  -664.04367      105.04282     -769.08648      277.47786      619.5311       1920.3708      0.9969611
   2666000  -639.82124      111.11447     -750.93571      293.51655     -2408.5487      1920.3708      0.9969611
   2667000  -667.57833      84.638595     -752.21692      223.5787      -826.30825      1920.3708      0.9969611
   2668000  -664.28066      99.838321     -764.11898      263.72982      1837.2185      1920.3708      0.9969611
   2669000  -658.3617       114.05498     -772.41668      301.28411     -562.43089      1920.3708      0.9969611
   2670000  -655.83769      124.55902     -780.39671      329.03125      3679.9939      1920.3708      0.9969611
   2671000  -638.94726      114.91068     -753.85794      303.5445      -1472.5069      1920.3708      0.9969611
   2672000  -662.87713      107.0975      -769.97463      282.90545      1501.1147      1920.3708      0.9969611
   2673000  -651.3055       123.97638     -775.28188      327.49217     -2663.1626      1920.3708      0.9969611
   2674000  -648.58697      111.21784     -759.80481      293.78961      1594.5253      1920.3708      0.9969611
   2675000  -630.90794      130.30791     -761.21584      344.21734      556.82851      1920.3708      0.9969611
   2676000  -654.08262      115.66691     -769.74953      305.54215     -1050.9938      1920.3708      0.9969611
   2677000  -636.63545      106.40616     -743.04161      281.07922      1260.574       1920.3708      0.9969611
   2678000  -622.22517      115.96458     -738.18975      306.32846      1563.801       1920.3708      0.9969611
   2679000  -644.70324      103.64667     -748.34992      273.78985     -2763.5083      1920.3708      0.9969611
   2680000  -628.70607      131.57309     -760.27916      347.55941      106.2408       1920.3708      0.9969611
   2681000  -636.12736      121.23203     -757.35939      320.24277     -47.875565      1920.3708      0.9969611
   2682000  -643.98892      121.74344     -765.73237      321.59372      770.72423      1920.3708      0.9969611
   2683000  -681.14123      127.67557     -808.8168       337.26384      628.12682      1920.3708      0.9969611
   2684000  -660.60269      106.10831     -766.711        280.29242     -1666.7321      1920.3708      0.9969611
   2685000  -678.70741      112.76542     -791.47283      297.87765     -2376.8607      1920.3708      0.9969611
   2686000  -652.08141      113.40021     -765.48162      299.55449      72.854926      1920.3708      0.9969611
   2687000  -650.98742      114.74186     -765.72928      303.09855      867.57224      1920.3708      0.9969611
   2688000  -673.6899       107.0837      -780.7736       282.86901      422.55171      1920.3708      0.9969611
   2689000  -683.97505      107.58036     -791.55541      284.18095     -1510.564       1920.3708      0.9969611
   2690000  -625.08699      119.4309      -744.51789      315.48498      385.89476      1920.3708      0.9969611
   2691000  -664.3488       123.04989     -787.39869      325.04479     -1358.0818      1920.3708      0.9969611
   2692000  -674.03367      112.0843      -786.11797      296.07842      2804.4748      1920.3708      0.9969611
   2693000  -665.95142      113.84773     -779.79915      300.73664     -1702.0314      1920.3708      0.9969611
   2694000  -676.847        106.11147     -782.95847      280.30077     -1969.6032      1920.3708      0.9969611
   2695000  -644.82022      122.98313     -767.80335      324.86844      120.94311      1920.3708      0.9969611
   2696000  -667.76381      105.49881     -773.26262      278.68241      1081.2221      1920.3708      0.9969611
   2697000  -623.77188      108.67035     -732.44224      287.06025     -2357.9027      1920.3708      0.9969611
   2698000  -670.05089      104.48701     -774.5379       276.00966      227.9843       1920.3708      0.9969611
   2699000  -659.875        112.445       -772.32         297.03125     -989.36069      1920.3708      0.9969611
   2700000  -647.44617      124.15378     -771.59995      327.96078     -2067.1854      1920.3708      0.9969611
   2701000  -659.95707      90.561025     -750.5181       239.22321      1662.974       1920.3708      0.9969611
   2702000  -639.92563      122.35106     -762.27669      323.19879      2299.7011      1920.3708      0.9969611
   2703000  -647.12654      117.14512     -764.27167      309.44694      682.33296      1920.3708      0.9969611
   2704000  -634.30608      144.54412     -778.8502       381.82329      2343.9323      1920.3708      0.9969611
   2705000  -680.86764      107.83769     -788.70533      284.86071      325.66529      1920.3708      0.9969611
   2706000  -645.49323      114.47483     -759.96806      302.39317      331.35766      1920.3708      0.9969611
   2707000  -651.72654      109.98369     -761.71024      290.52952     -2473.3885      1920.3708      0.9969611
   2708000  -651.3487       125.19839     -776.5471       330.72021      3499.8751      1920.3708      0.9969611
   2709000  -635.7159       122.7386      -758.4545       324.22249      944.6256       1920.3708      0.9969611
   2710000  -661.52973      111.66295     -773.19268      294.96539      125.63562      1920.3708      0.9969611
   2711000  -655.38063      119.43132     -774.81195      315.4861      -1978.3186      1920.3708      0.9969611
   2712000  -694.46271      108.84602     -803.30873      287.52429     -2256.3558      1920.3708      0.9969611
   2713000  -676.40437      101.66478     -778.06915      268.55455     -865.3208       1920.3708      0.9969611
   2714000  -661.71421      108.17204     -769.88625      285.74393     -2608.8897      1920.3708      0.9969611
   2715000  -651.7508       118.7683      -770.51911      313.73468      59.533351      1920.3708      0.9969611
   2716000  -648.21557      114.69227     -762.90784      302.96755     -2380.0697      1920.3708      0.9969611
   2717000  -666.91655      112.24122     -779.15777      296.49295      75.223         1920.3708      0.9969611
   2718000  -648.54658      119.81276     -768.35933      316.49367      176.81182      1920.3708      0.9969611
   2719000  -668.25062      111.72966     -779.98029      295.14162      1698.1501      1920.3708      0.9969611
   2720000  -630.54481      116.12947     -746.67428      306.76403     -360.50308      1920.3708      0.9969611
   2721000  -652.33288      97.555691     -749.88857      257.7001       146.6724       1920.3708      0.9969611
   2722000  -642.96462      103.92206     -746.88668      274.51729     -1134.266       1920.3708      0.9969611
   2723000  -659.44808      107.0288      -766.47689      282.72398     -2873.5511      1920.3708      0.9969611
   2724000  -676.27896      110.04503     -786.324        290.69156     -1591.699       1920.3708      0.9969611
   2725000  -654.92997      112.67249     -767.60246      297.63217      1972.3362      1920.3708      0.9969611
   2726000  -654.7823       117.68753     -772.46984      310.87976      635.85515      1920.3708      0.9969611
   2727000  -667.5431       100.01214     -767.55524      264.18899     -393.07502      1920.3708      0.9969611
   2728000  -659.7294       108.02659     -767.75599      285.35971      1925.7354      1920.3708      0.9969611
   2729000  -630.66207      118.1276      -748.78967      312.04221      1640.424       1920.3708      0.9969611
   2730000  -671.33481      116.74247     -788.07729      308.38331     -254.88381      1920.3708      0.9969611
   2731000  -650.86548      107.22886     -758.09433      283.25243     -688.68506      1920.3708      0.9969611
   2732000  -640.91252      127.1571      -768.06962      335.89427     -2739.688       1920.3708      0.9969611
   2733000  -643.79988      106.51118     -750.31107      281.35665     -1684.2238      1920.3708      0.9969611
   2734000  -647.1653       113.82121     -760.98651      300.6666      -1285.2021      1920.3708      0.9969611
   2735000  -643.75762      111.45271     -755.21033      294.41002      165.11351      1920.3708      0.9969611
   2736000  -673.15858      107.7874      -780.94599      284.72787     -2339.7159      1920.3708      0.9969611
   2737000  -644.94184      118.21654     -763.15838      312.27716     -1203.315       1920.3708      0.9969611
   2738000  -678.45826      106.0755      -784.53376      280.20575     -1698.8915      1920.3708      0.9969611
   2739000  -650.40266      118.89616     -769.29882      314.07243      1075.0373      1920.3708      0.9969611
   2740000  -637.08516      116.54353     -753.62868      307.85778      1656.7111      1920.3708      0.9969611
   2741000  -648.77179      114.51202     -763.28381      302.49141      469.41704      1920.3708      0.9969611
   2742000  -638.78029      112.86384     -751.64414      298.13764      672.53915      1920.3708      0.9969611
   2743000  -619.01737      126.76833     -745.7857       334.8673      -1969.2506      1920.3708      0.9969611
   2744000  -627.36673      125.55213     -752.91886      331.65463      861.85569      1920.3708      0.9969611
   2745000  -638.17658      115.18957     -753.36615      304.28121     -273.74613      1920.3708      0.9969611
   2746000  -652.33779      109.00845     -761.34624      287.95335      1000.8985      1920.3708      0.9969611
   2747000  -655.78382      104.55292     -760.33675      276.18377      88.952308      1920.3708      0.9969611
   2748000  -635.29218      125.82456     -761.11674      332.37426      1086.648       1920.3708      0.9969611
   2749000  -637.87047      111.72521     -749.59568      295.12986     -727.54698      1920.3708      0.9969611
   2750000  -663.85636      100.49561     -764.35197      265.46611      1184.3175      1920.3708      0.9969611
   2751000  -655.08819      115.35912     -770.44731      304.72909      2686.2318      1920.3708      0.9969611
   2752000  -663.88033      110.18502     -774.06535      291.06134     -1564.9265      1920.3708      0.9969611
   2753000  -648.69646      103.30207     -751.99853      272.87956      904.48166      1920.3708      0.9969611
   2754000  -641.90529      105.84303     -747.74832      279.59167      346.88089      1920.3708      0.9969611
   2755000  -634.73429      116.16082     -750.89512      306.84685     -333.59676      1920.3708      0.9969611
   2756000  -657.87726      99.365752     -757.24301      262.4815      -878.94543      1920.3708      0.9969611
   2757000  -674.11694      100.69601     -774.81294      265.99546      1888.8702      1920.3708      0.9969611
   2758000  -642.46405      122.50349     -764.96754      323.60145      3741.6825      1920.3708      0.9969611
   2759000  -653.27398      124.25518     -777.52915      328.22864      434.93409      1920.3708      0.9969611
   2760000  -659.60822      109.67916     -769.28738      289.72508     -830.52201      1920.3708      0.9969611
   2761000  -650.00385      110.08417     -760.08802      290.79495      1107.4666      1920.3708      0.9969611
   2762000  -652.02335      103.23806     -755.26142      272.71048      171.77516      1920.3708      0.9969611
   2763000  -656.73433      106.33764     -763.07197      280.89822      845.9788       1920.3708      0.9969611
   2764000  -639.21357      118.64051     -757.85408      313.3971      -862.71883      1920.3708      0.9969611
   2765000  -625.95816      113.6442      -739.60237      300.19902     -1553.5554      1920.3708      0.9969611
   2766000  -656.58365      111.84774     -768.43139      295.45354     -1641.8993      1920.3708      0.9969611
   2767000  -652.61065      118.48155     -771.0922       312.97721     -898.43947      1920.3708      0.9969611
   2768000  -660.46481      101.16597     -761.63079      267.23691      317.79678      1920.3708      0.9969611
   2769000  -653.05236      111.54912     -764.60148      294.6647       2174.4514      1920.3708      0.9969611
   2770000  -658.44112      110.20258     -768.6437       291.10773     -446.53726      1920.3708      0.9969611
   2771000  -674.09906      113.47775     -787.57681      299.75932      1357.7501      1920.3708      0.9969611
   2772000  -643.74404      126.56819     -770.31223      334.33861     -991.06658      1920.3708      0.9969611
   2773000  -631.3805       114.86375     -746.24425      303.42054     -1403.4971      1920.3708      0.9969611
   2774000  -659.46175      114.97706     -774.43881      303.71985     -2745.5373      1920.3708      0.9969611
   2775000  -662.82337      108.98293     -771.8063       287.88595      4694.9222      1920.3708      0.9969611
   2776000  -658.62607      105.12838     -763.75445      277.70389     -1731.4151      1920.3708      0.9969611
   2777000  -641.01231      111.98989     -753.00221      295.82904      1381.2938      1920.3708      0.9969611
   2778000  -650.49207      114.01339     -764.50546      301.17425     -1053.4164      1920.3708      0.9969611
   2779000  -634.82505      126.41929     -761.24434      333.94529     -1412.276       1920.3708      0.9969611
   2780000  -687.5427       107.8483      -795.391        284.88874     -3375.8664      1920.3708      0.9969611
   2781000  -663.40056      106.93023     -770.33078      282.46358     -54.150112      1920.3708      0.9969611
   2782000  -687.36356      97.923505     -785.28706      258.67171      194.67478      1920.3708      0.9969611
   2783000  -656.09224      117.94405     -774.03629      311.55737     -1099.7619      1920.3708      0.9969611
   2784000  -658.50259      119.71667     -778.21926      316.23985      1332.9799      1920.3708      0.9969611
   2785000  -652.64625      111.96012     -764.60638      295.7504       474.39542      1920.3708      0.9969611
   2786000  -662.76257      108.37601     -771.13858      286.28272      422.76535      1920.3708      0.9969611
   2787000  -679.53242      106.1174      -785.64982      280.31645     -654.98622      1920.3708      0.9969611
   2788000  -645.45835      124.55964     -770.01799      329.0329      -1529.0065      1920.3708      0.9969611
   2789000  -639.09881      106.1185      -745.21731      280.31934      1036.0328      1920.3708      0.9969611
   2790000  -643.11408      114.65947     -757.77355      302.88091      741.63259      1920.3708      0.9969611
   2791000  -640.55885      111.25329     -751.81215      293.88326      462.26694      1920.3708      0.9969611
   2792000  -644.73706      112.57215     -757.30921      297.36712      3.9431105      1920.3708      0.9969611
   2793000  -662.94765      102.41053     -765.35818      270.5245      -719.02723      1920.3708      0.9969611
   2794000  -628.2319       128.23207     -756.46397      338.73388      1605.9247      1920.3708      0.9969611
   2795000  -669.83147      107.41776     -777.24923      283.75145     -3161.488       1920.3708      0.9969611
   2796000  -640.8352       110.87823     -751.71343      292.89251     -1265.9977      1920.3708      0.9969611
   2797000  -657.5363       114.57872     -772.11503      302.66761     -405.59978      1920.3708      0.9969611
   2798000  -672.07464      107.94849     -780.02313      285.1534       2218.2641      1920.3708      0.9969611
   2799000  -660.75139      107.26065     -768.01204      283.33643      3159.034       1920.3708      0.9969611
   2800000  -689.53778      92.671067     -782.20884      244.79703      197.83055      1920.3708      0.9969611
   2801000  -652.30985      121.4538      -773.76365      320.8286      -1171.8824      1920.3708      0.9969611
   2802000  -642.00762      112.52019     -754.52781      297.22987     -1691.4372      1920.3708      0.9969611
   2803000  -679.50064      114.02736     -793.52801      301.21116     -271.45234      1920.3708      0.9969611
   2804000  -689.03085      97.750654     -786.78151      258.21511     -1710.5761      1920.3708      0.9969611
   2805000  -651.34821      116.32155     -767.66976      307.27141      1196.1888      1920.3708      0.9969611
   2806000  -638.56262      122.8142      -761.37682      324.4222      -451.27022      1920.3708      0.9969611
   2807000  -647.61678      110.0272      -757.64398      290.64446     -1660.3672      1920.3708      0.9969611
   2808000  -659.74999      103.03826     -762.78825      272.18269      1480.3483      1920.3708      0.9969611
   2809000  -649.59427      104.41467     -754.00894      275.81857     -897.73644      1920.3708      0.9969611
   2810000  -629.09889      120.13372     -749.23262      317.34153      130.08298      1920.3708      0.9969611
   2811000  -659.31989      112.21718     -771.53707      296.42945     -69.345976      1920.3708      0.9969611
   2812000  -654.16922      115.09628     -769.2655       304.03479     -3036.3444      1920.3708      0.9969611
   2813000  -657.92899      103.44436     -761.37334      273.25542     -1550.4614      1920.3708      0.9969611
   2814000  -666.46938      96.384097     -762.85348      254.60525     -1682.347       1920.3708      0.9969611
   2815000  -667.39042      89.114851     -756.50527      235.40304      832.23179      1920.3708      0.9969611
   2816000  -646.96422      107.48101     -754.44523      283.91852     -500.96408      1920.3708      0.9969611
   2817000  -629.0997       115.52807     -744.62777      305.17537     -3176.3392      1920.3708      0.9969611
   2818000  -650.5333       100.79235     -751.32565      266.24995      202.62664      1920.3708      0.9969611
   2819000  -622.65439      116.76307     -739.41745      308.43771     -1289.8271      1920.3708      0.9969611
   2820000  -645.21575      121.03903     -766.25477      319.73295     -10.410808      1920.3708      0.9969611
   2821000  -656.62435      102.03409     -758.65844      269.5301      -1767.6059      1920.3708      0.9969611
   2822000  -648.54659      108.48778     -757.03437      286.57797     -159.86581      1920.3708      0.9969611
   2823000  -677.51824      106.37239     -783.89063      280.99002      1140.4613      1920.3708      0.9969611
   2824000  -643.4942       113.91808     -757.41228      300.92248      1617.0476      1920.3708      0.9969611
   2825000  -667.82373      114.39989     -782.22362      302.19521     -1449.2813      1920.3708      0.9969611
   2826000  -646.67738      121.69437     -768.37174      321.46409      2917.3877      1920.3708      0.9969611
   2827000  -668.32955      106.54414     -774.87368      281.4437       187.60352      1920.3708      0.9969611
   2828000  -638.26797      133.10169     -771.36966      351.59732     -2324.8355      1920.3708      0.9969611
   2829000  -658.64451      103.86736     -762.51187      274.37282      376.39701      1920.3708      0.9969611
   2830000  -618.18448      120.69512     -738.8796       318.8245      -352.37554      1920.3708      0.9969611
   2831000  -635.79762      110.5252      -746.32282      291.95997      2701.0467      1920.3708      0.9969611
   2832000  -651.76398      108.03347     -759.79746      285.37789     -3216.9459      1920.3708      0.9969611
   2833000  -631.6095       122.76429     -754.3738       324.29036     -1867.0842      1920.3708      0.9969611
   2834000  -651.04628      119.77141     -770.81769      316.38447      1705.8234      1920.3708      0.9969611
   2835000  -654.60697      110.44956     -765.05653      291.76015      1654.1034      1920.3708      0.9969611
   2836000  -691.6224       97.228382     -788.85078      256.83549     -922.84531      1920.3708      0.9969611
   2837000  -655.54431      103.14569     -758.69         272.46646     -95.307622      1920.3708      0.9969611
   2838000  -650.45181      132.43389     -782.8857       349.83328      632.67738      1920.3708      0.9969611
   2839000  -654.07885      111.07983     -765.15869      293.42506     -2603.1512      1920.3708      0.9969611
   2840000  -658.16837      113.72806     -771.89643      300.42052     -323.78146      1920.3708      0.9969611
   2841000  -657.06989      113.69934     -770.76924      300.34468     -2210.2275      1920.3708      0.9969611
   2842000  -637.46482      113.80032     -751.26514      300.61142     -117.33318      1920.3708      0.9969611
   2843000  -634.7044       125.6426      -760.347        331.8936      -1054.034       1920.3708      0.9969611
   2844000  -637.12563      110.62183     -747.74745      292.21521      1633.3742      1920.3708      0.9969611
   2845000  -674.40765      104.20664     -778.61429      275.26903      472.09654      1920.3708      0.9969611
   2846000  -654.68799      111.19732     -765.8853       293.73539     -2002.2138      1920.3708      0.9969611
   2847000  -650.14251      111.22729     -761.36979      293.81456      472.22087      1920.3708      0.9969611
   2848000  -648.05889      105.07833     -753.13722      277.57166      89.012195      1920.3708      0.9969611
   2849000  -657.93285      105.32674     -763.25959      278.22786     -226.09057      1920.3708      0.9969611
   2850000  -646.18216      112.71635     -758.89851      297.74803      886.2426       1920.3708      0.9969611
   2851000  -638.95474      112.14361     -751.09835      296.23509     -2523.7107      1920.3708      0.9969611
   2852000  -658.37541      110.08769     -768.4631       290.80425     -156.45023      1920.3708      0.9969611
   2853000  -664.1035       97.508217     -761.61172      257.57469     -350.17738      1920.3708      0.9969611
   2854000  -676.5349       108.58934     -785.12424      286.84625     -752.92974      1920.3708      0.9969611
   2855000  -640.92841      113.40748     -754.33589      299.5737       148.12365      1920.3708      0.9969611
   2856000  -657.92067      110.72288     -768.64354      292.48213     -951.4154       1920.3708      0.9969611
   2857000  -655.95485      119.37943     -775.33427      315.34901     -779.7077       1920.3708      0.9969611
   2858000  -652.85367      115.32165     -768.17532      304.63011      149.46332      1920.3708      0.9969611
   2859000  -635.34909      123.39129     -758.74039      325.94663      927.13228      1920.3708      0.9969611
   2860000  -643.31635      119.95643     -763.27278      316.8732      -1099.6817      1920.3708      0.9969611
   2861000  -658.37624      107.64598     -766.02223      284.3543       723.81121      1920.3708      0.9969611
   2862000  -657.2934       104.62652     -761.91992      276.37818      602.05806      1920.3708      0.9969611
   2863000  -668.30347      98.659664     -766.96313      260.61632      63.233805      1920.3708      0.9969611
   2864000  -657.43738      110.24668     -767.68406      291.22422     -3253.6549      1920.3708      0.9969611
   2865000  -650.35738      120.04281     -770.40019      317.10137     -37.874937      1920.3708      0.9969611
   2866000  -679.46639      100.21687     -779.68325      264.72978     -1807.3223      1920.3708      0.9969611
   2867000  -678.44298      114.83303     -793.276        303.33938     -1321.2609      1920.3708      0.9969611
   2868000  -650.8638       120.3105      -771.1743       317.80849      176.27872      1920.3708      0.9969611
   2869000  -660.614        107.09861     -767.71261      282.90838     -1283.34        1920.3708      0.9969611
   2870000  -648.89054      115.33904     -764.22958      304.67604     -887.19604      1920.3708      0.9969611
   2871000  -639.02582      114.58814     -753.61395      302.69249      1773.8836      1920.3708      0.9969611
   2872000  -662.36476      105.218       -767.58276      277.94062     -1996.6587      1920.3708      0.9969611
   2873000  -628.29753      120.9879      -749.28543      319.5979       971.98848      1920.3708      0.9969611
   2874000  -645.76121      117.88341     -763.64462      311.39718     -85.220466      1920.3708      0.9969611
   2875000  -677.39458      105.19169     -782.58627      277.87112     -2097.5705      1920.3708      0.9969611
   2876000  -655.30488      108.16185     -763.46673      285.71701      3415.4554      1920.3708      0.9969611
   2877000  -657.46145      113.5319      -770.99335      299.90237     -618.19493      1920.3708      0.9969611
   2878000  -637.6538       107.0502      -744.704        282.78051      19.240584      1920.3708      0.9969611
   2879000  -665.45612      94.776176     -760.23229      250.35782     -686.20145      1920.3708      0.9969611
   2880000  -650.09901      116.27177     -766.37078      307.13992     -3790.4177      1920.3708      0.9969611
   2881000  -654.95331      94.599946     -749.55325      249.89229     -3344.8974      1920.3708      0.9969611
   2882000  -660.23704      108.36587     -768.60291      286.25593      436.80366      1920.3708      0.9969611
   2883000  -666.9085       105.33589     -772.2444       278.25204      876.34741      1920.3708      0.9969611
   2884000  -663.73134      113.18428     -776.91562      298.98411      705.14691      1920.3708      0.9969611
   2885000  -670.21017      109.31776     -779.52793      288.77042      456.00038      1920.3708      0.9969611
   2886000  -648.84728      117.76788     -766.61516      311.09198     -2152.8215      1920.3708      0.9969611
   2887000  -680.33895      100.57806     -780.91701      265.6839      -9.7375227      1920.3708      0.9969611
   2888000  -655.56023      128.93813     -784.49836      340.59899     -1004.2587      1920.3708      0.9969611
   2889000  -629.76849      112.00757     -741.77606      295.87574      2219.5413      1920.3708      0.9969611
   2890000  -647.78825      106.04103     -753.82927      280.1147       1210.7951      1920.3708      0.9969611
   2891000  -662.53738      112.66433     -775.20171      297.61062     -454.20495      1920.3708      0.9969611
   2892000  -655.27411      116.5033      -771.77741      307.75151     -598.17679      1920.3708      0.9969611
   2893000  -649.34124      102.10427     -751.44551      269.71548     -777.04157      1920.3708      0.9969611
   2894000  -631.2142       123.54051     -754.75471      326.3408       370.77554      1920.3708      0.9969611
   2895000  -669.47367      108.44342     -777.91709      286.46078     -1222.4837      1920.3708      0.9969611
   2896000  -659.15161      111.24383     -770.39543      293.85826      1390.581       1920.3708      0.9969611
   2897000  -648.45432      114.89386     -763.34819      303.50008     -1212.3511      1920.3708      0.9969611
   2898000  -676.22665      88.498331     -764.72498      233.77446     -1592.083       1920.3708      0.9969611
   2899000  -654.87686      99.193361     -754.07022      262.02612     -2217.5034      1920.3708      0.9969611
   2900000  -660.22774      114.5149      -774.74263      302.49901     -1525.851       1920.3708      0.9969611
   2901000  -652.92719      106.26636     -759.19355      280.70995     -6.142484       1920.3708      0.9969611
   2902000  -622.31834      124.62862     -746.94696      329.2151       1889.533       1920.3708      0.9969611
   2903000  -646.2368       111.73896     -757.97576      295.16619      1335.8311      1920.3708      0.9969611
   2904000  -662.52908      111.14354     -773.67262      293.59335     -3050.2189      1920.3708      0.9969611
   2905000  -657.27979      118.01008     -775.28987      311.73178      1984.181       1920.3708      0.9969611
   2906000  -674.34607      107.79938     -782.14546      284.75952      1956.5147      1920.3708      0.9969611
   2907000  -659.14674      109.02996     -768.1767       288.01016      939.59252      1920.3708      0.9969611
   2908000  -643.01458      114.69626     -757.71085      302.97811     -674.44185      1920.3708      0.9969611
   2909000  -672.39852      108.6971      -781.09562      287.13091     -1620.2418      1920.3708      0.9969611
   2910000  -679.12745      99.545055     -778.67251      262.95514     -1519.0501      1920.3708      0.9969611
   2911000  -669.84379      95.599058     -765.44284      252.53152     -3026.4348      1920.3708      0.9969611
   2912000  -665.10032      98.469832     -763.57015      260.11487      1151.3578      1920.3708      0.9969611
   2913000  -646.69855      122.32901     -769.02757      323.14054     -1424.9111      1920.3708      0.9969611
   2914000  -652.35148      109.67537     -762.02686      289.71508     -486.94539      1920.3708      0.9969611
   2915000  -634.01895      112.07745     -746.0964       296.06033     -1526.1611      1920.3708      0.9969611
   2916000  -654.09347      101.84894     -755.94242      269.04102      423.96927      1920.3708      0.9969611
   2917000  -639.83006      114.03302     -753.86309      301.22611      1531.1207      1920.3708      0.9969611
   2918000  -638.02702      120.88855     -758.91556      319.33545      731.98053      1920.3708      0.9969611
   2919000  -636.38059      112.94577     -749.32636      298.35406      89.892151      1920.3708      0.9969611
   2920000  -649.94803      119.80396     -769.75199      316.47044      2342.0147      1920.3708      0.9969611
   2921000  -669.54204      101.47073     -771.01277      268.04194      636.95511      1920.3708      0.9969611
   2922000  -646.38387      116.28616     -762.67004      307.17794      5203.6109      1920.3708      0.9969611
   2923000  -668.56875      106.47195     -775.04069      281.25301      3487.4039      1920.3708      0.9969611
   2924000  -674.21132      106.72629     -780.93761      281.92487     -762.39019      1920.3708      0.9969611
   2925000  -665.18443      110.56942     -775.75384      292.07675      2501.797       1920.3708      0.9969611
   2926000  -649.52679      117.78951     -767.3163       311.14914      212.70471      1920.3708      0.9969611
   2927000  -672.52096      98.719385     -771.24035      260.77408      864.83816      1920.3708      0.9969611
   2928000  -661.85514      98.074694     -759.92984      259.07108     -170.80426      1920.3708      0.9969611
   2929000  -649.77969      106.12448     -755.90417      280.33516     -557.94483      1920.3708      0.9969611
   2930000  -683.1423       106.03372     -789.17602      280.09541      3377.9768      1920.3708      0.9969611
   2931000  -680.25473      111.21212     -791.46686      293.7745      -705.42633      1920.3708      0.9969611
   2932000  -652.82567      100.41498     -753.24065      265.25311      2128.1177      1920.3708      0.9969611
   2933000  -622.79821      131.67974     -754.47795      347.84113     -1665.0092      1920.3708      0.9969611
   2934000  -658.98555      105.27963     -764.26518      278.10342     -760.02306      1920.3708      0.9969611
   2935000  -653.258        104.41205     -757.67005      275.81165     -83.400733      1920.3708      0.9969611
   2936000  -648.30329      106.48421     -754.7875       281.28541      238.73606      1920.3708      0.9969611
   2937000  -669.37112      106.20004     -775.57116      280.53475      1624.8525      1920.3708      0.9969611
   2938000  -620.93457      122.25124     -743.18581      322.9351       7.9904733      1920.3708      0.9969611
   2939000  -654.78529      116.70807     -771.49336      308.29242     -2580.2744      1920.3708      0.9969611
   2940000  -641.65771      112.66925     -754.32697      297.62362     -741.35533      1920.3708      0.9969611
   2941000  -658.39689      106.70609     -765.10298      281.87152     -1233.3748      1920.3708      0.9969611
   2942000  -637.72564      114.36722     -752.09285      302.10891      639.93664      1920.3708      0.9969611
   2943000  -658.58345      114.32721     -772.91066      302.00323     -4173.0862      1920.3708      0.9969611
   2944000  -650.12878      111.97493     -762.1037       295.78951     -1059.8325      1920.3708      0.9969611
   2945000  -640.213        117.49117     -757.70416      310.36104     -1761.9979      1920.3708      0.9969611
   2946000  -650.76389      119.10414     -769.86803      314.62183     -907.41181      1920.3708      0.9969611
   2947000  -600.99944      117.24978     -718.24922      309.72339     -3528.6037      1920.3708      0.9969611
   2948000  -640.61563      124.79089     -765.40652      329.64376      2796.2668      1920.3708      0.9969611
   2949000  -639.00792      134.80854     -773.81646      356.10608      417.95254      1920.3708      0.9969611
   2950000  -657.60399      102.98169     -760.58569      272.03326      783.60721      1920.3708      0.9969611
   2951000  -670.80217      103.31563     -774.1178       272.91537     -296.95117      1920.3708      0.9969611
   2952000  -672.20135      96.29583      -768.49717      254.37209     -224.4968       1920.3708      0.9969611
   2953000  -668.52993      99.874836     -768.40477      263.82628     -573.80875      1920.3708      0.9969611
   2954000  -651.26177      109.94358     -761.20534      290.42355     -478.22621      1920.3708      0.9969611
   2955000  -645.56199      119.48933     -765.05132      315.63931      1965.4404      1920.3708      0.9969611
   2956000  -647.58136      113.00444     -760.5858       298.50902     -2686.6299      1920.3708      0.9969611
   2957000  -660.09604      100.83747     -760.93351      266.36914      1326.0945      1920.3708      0.9969611
   2958000  -661.32217      117.00118     -778.32335      309.06671     -2415.9392      1920.3708      0.9969611
   2959000  -666.15093      106.39249     -772.54342      281.04312      312.96276      1920.3708      0.9969611
   2960000  -640.51157      123.40805     -763.91962      325.99089     -2521.4895      1920.3708      0.9969611
   2961000  -662.33168      107.94303     -770.27471      285.13898     -2116.0277      1920.3708      0.9969611
   2962000  -644.34643      115.16339     -759.50982      304.21206     -775.516        1920.3708      0.9969611
   2963000  -645.56868      121.63911     -767.20779      321.31811      568.47696      1920.3708      0.9969611
   2964000  -679.06598      104.72954     -783.79552      276.65033      1969.7987      1920.3708      0.9969611
   2965000  -673.60853      104.87927     -778.48781      277.04584     -900.22389      1920.3708      0.9969611
   2966000  -651.4245       107.66469     -759.08919      284.40371     -1411.0807      1920.3708      0.9969611
   2967000  -654.46387      112.24702     -766.71089      296.50826     -815.79619      1920.3708      0.9969611
   2968000  -644.89225      118.19372     -763.08598      312.21689     -1533.8113      1920.3708      0.9969611
   2969000  -650.65395      109.59599     -760.24994      289.50538     -1183.219       1920.3708      0.9969611
   2970000  -673.18932      108.62806     -781.81738      286.94854     -206.96944      1920.3708      0.9969611
   2971000  -651.66376      108.44355     -760.10731      286.46113      1636.2143      1920.3708      0.9969611
   2972000  -655.57147      100.60283     -756.1743       265.74933      407.82978      1920.3708      0.9969611
   2973000  -645.18331      111.44183     -756.62515      294.3813      -1715.6564      1920.3708      0.9969611
   2974000  -652.72015      122.34119     -775.06135      323.17271     -2076.8574      1920.3708      0.9969611
   2975000  -648.28512      115.732       -764.01712      305.71409      668.79249      1920.3708      0.9969611
   2976000  -651.39159      118.85029     -770.24188      313.95126     -1482.6777      1920.3708      0.9969611
   2977000  -625.97995      124.78167     -750.76162      329.61941      2283.9581      1920.3708      0.9969611
   2978000  -633.45314      124.52469     -757.97783      328.94057     -944.30507      1920.3708      0.9969611
   2979000  -649.48406      105.00985     -754.49391      277.39077     -142.86376      1920.3708      0.9969611
   2980000  -646.60503      113.66364     -760.26867      300.25036     -1310.9805      1920.3708      0.9969611
   2981000  -673.01944      108.60179     -781.62123      286.87913      1071.6959      1920.3708      0.9969611
   2982000  -654.74306      117.73621     -772.47927      311.00834     -1424.6167      1920.3708      0.9969611
   2983000  -643.60908      114.94463     -758.55371      303.63419      1617.0396      1920.3708      0.9969611
   2984000  -666.70864      110.19148     -776.90012      291.07841     -654.04154      1920.3708      0.9969611
   2985000  -686.35733      93.026256     -779.38358      245.73528     -1093.2027      1920.3708      0.9969611
   2986000  -652.32957      117.80571     -770.13528      311.19192      384.50336      1920.3708      0.9969611
   2987000  -639.82943      120.46033     -760.28977      318.2043       670.91926      1920.3708      0.9969611
   2988000  -639.09535      127.5332      -766.62855      336.88777      2064.8934      1920.3708      0.9969611
   2989000  -646.31981      122.24585     -768.56566      322.92086      1424.8434      1920.3708      0.9969611
   2990000  -667.58453      101.24178     -768.82631      267.43716     -3435.7843      1920.3708      0.9969611
   2991000  -631.19844      117.49715     -748.69559      310.37684      1999.9562      1920.3708      0.9969611
   2992000  -670.38472      115.0847      -785.46942      304.0042       1541.6046      1920.3708      0.9969611
   2993000  -652.62751      117.26968     -769.89719      309.77596     -2104.9922      1920.3708      0.9969611
   2994000  -632.05379      120.41749     -752.47128      318.09112      848.88438      1920.3708      0.9969611
   2995000  -654.32456      113.827       -768.15157      300.6819       2807.2059      1920.3708      0.9969611
   2996000  -637.17956      107.72224     -744.9018       284.55573     -749.59472      1920.3708      0.9969611
   2997000  -667.9342       130.30972     -798.24391      344.22212     -724.52067      1920.3708      0.9969611
   2998000  -666.53915      113.63777     -780.17692      300.18202      1107.2179      1920.3708      0.9969611
   2999000  -670.1937       100.30968     -770.50338      264.97496     -578.38125      1920.3708      0.9969611
   3000000  -647.96114      102.23452     -750.19566      270.05955     -1740.0822      1920.3708      0.9969611
Loop time of 1792.96 on 1 procs for 2000000 steps with 192 atoms

Performance: 96.377 ns/day, 0.249 hours/ns, 1115.476 timesteps/s
99.7% CPU use with 1 MPI tasks x 1 OpenMP threads

MPI task timing breakdown:
Section |  min time  |  avg time  |  max time  |%varavg| %total
---------------------------------------------------------------
Pair    | 1433.2     | 1433.2     | 1433.2     |   0.0 | 79.93
Bond    | 0.16285    | 0.16285    | 0.16285    |   0.0 |  0.01
Kspace  | 235.32     | 235.32     | 235.32     |   0.0 | 13.12
Neigh   | 70.57      | 70.57      | 70.57      |   0.0 |  3.94
Comm    | 26.787     | 26.787     | 26.787     |   0.0 |  1.49
Output  | 0.45505    | 0.45505    | 0.45505    |   0.0 |  0.03
Modify  | 21.911     | 21.911     | 21.911     |   0.0 |  1.22
Other   |            | 4.559      |            |       |  0.25

Nlocal:            192 ave         192 max         192 min
Histogram: 1 0 0 0 0 0 0 0 0 0
Nghost:           4719 ave        4719 max        4719 min
Histogram: 1 0 0 0 0 0 0 0 0 0
Neighs:          69191 ave       69191 max       69191 min
Histogram: 1 0 0 0 0 0 0 0 0 0

Total # of neighbors = 69191
Ave neighs/atom = 360.36979
Ave special neighs/atom = 2
Neighbor list builds = 55081
Dangerous builds = 0

# write data file
write_data data.after_prod.lmp
System init for write_data ...
PPPM initialization ...
  using 12-bit tables for long-range coulomb (src/kspace.cpp:342)
  G vector (1/distance) = 0.31260513
  grid = 12 12 12
  stencil order = 5
  estimated absolute RMS force accuracy = 0.0021455329
  estimated relative force accuracy = 6.4612085e-06
  using double precision FFTW3
  3d grid and FFT values/proc = 6859 1728
Generated 1 of 1 mixed pair_coeff terms from geometric mixing rule

# clean up
undump dPROD
unfix fTHERMO
unfix fMOM
unfix fSHAKE
Total wall time: 0:44:49
